# vtk DataFile Version 3.0
output
ASCII
DATASET UNSTRUCTURED_GRID
POINTS    48 FLOAT
-0.100000E+001 -0.100000E+001  0.000000E+000
-0.500000E+000 -0.100000E+001  0.000000E+000
-0.588388E+000 -0.588388E+000  0.000000E+000
-0.297835E+000 -0.615485E+000  0.000000E+000
-0.100000E+001 -0.500000E+000  0.000000E+000
-0.615485E+000 -0.297835E+000  0.000000E+000
 0.000000E+000 -0.100000E+001  0.000000E+000
-0.229621E-016 -0.625000E+000  0.000000E+000
-0.176777E+000 -0.176777E+000  0.000000E+000
-0.956709E-001 -0.230970E+000  0.000000E+000
-0.230970E+000 -0.956709E-001  0.000000E+000
-0.459243E-016 -0.250000E+000  0.000000E+000
-0.100000E+001  0.000000E+000  0.000000E+000
-0.625000E+000  0.459243E-016  0.000000E+000
-0.250000E+000  0.918485E-016  0.000000E+000
 0.500000E+000 -0.100000E+001  0.000000E+000
 0.297835E+000 -0.615485E+000  0.000000E+000
 0.956709E-001 -0.230970E+000  0.000000E+000
-0.100000E+001  0.500000E+000  0.000000E+000
-0.615485E+000  0.297835E+000  0.000000E+000
-0.230970E+000  0.956709E-001  0.000000E+000
 0.100000E+001 -0.100000E+001  0.000000E+000
 0.588388E+000 -0.588388E+000  0.000000E+000
 0.176777E+000 -0.176777E+000  0.000000E+000
-0.100000E+001  0.100000E+001  0.000000E+000
-0.588388E+000  0.588388E+000  0.000000E+000
-0.176777E+000  0.176777E+000  0.000000E+000
 0.100000E+001 -0.500000E+000  0.000000E+000
 0.615485E+000 -0.297835E+000  0.000000E+000
 0.230970E+000 -0.956709E-001  0.000000E+000
-0.500000E+000  0.100000E+001  0.000000E+000
-0.297835E+000  0.615485E+000  0.000000E+000
-0.956709E-001  0.230970E+000  0.000000E+000
 0.100000E+001  0.000000E+000  0.000000E+000
 0.625000E+000 -0.306162E-016  0.000000E+000
 0.250000E+000 -0.612323E-016  0.000000E+000
 0.000000E+000  0.100000E+001  0.000000E+000
 0.382702E-016  0.625000E+000  0.000000E+000
 0.765404E-016  0.250000E+000  0.000000E+000
 0.100000E+001  0.500000E+000  0.000000E+000
 0.615485E+000  0.297835E+000  0.000000E+000
 0.230970E+000  0.956709E-001  0.000000E+000
 0.500000E+000  0.100000E+001  0.000000E+000
 0.297835E+000  0.615485E+000  0.000000E+000
 0.956709E-001  0.230970E+000  0.000000E+000
 0.100000E+001  0.100000E+001  0.000000E+000
 0.588388E+000  0.588388E+000  0.000000E+000
 0.176777E+000  0.176777E+000  0.000000E+000
CELLS    32   160
    4    0     1     3     2
    4    2     3     9     8
    4    1     6     7     3
    4    3     7    11     9
    4    6    15    16     7
    4    7    16    17    11
    4   15    21    22    16
    4   16    22    23    17
    4   21    27    28    22
    4   22    28    29    23
    4   27    33    34    28
    4   28    34    35    29
    4   33    39    40    34
    4   34    40    41    35
    4   39    45    46    40
    4   40    46    47    41
    4   45    42    43    46
    4   46    43    44    47
    4   42    36    37    43
    4   43    37    38    44
    4   36    30    31    37
    4   37    31    32    38
    4   30    24    25    31
    4   31    25    26    32
    4   24    18    19    25
    4   25    19    20    26
    4   18    12    13    19
    4   19    13    14    20
    4   12     4     5    13
    4   13     5    10    14
    4    4     0     2     5
    4    5     2     8    10
CELL_TYPES    32
    9
    9
    9
    9
    9
    9
    9
    9
    9
    9
    9
    9
    9
    9
    9
    9
    9
    9
    9
    9
    9
    9
    9
    9
    9
    9
    9
    9
    9
    9
    9
    9
POINT_DATA    48
SCALARS displacement FLOAT     3
LOOKUP_TABLE default
-0.326620E-004  0.133301E-004  0.000000E+000
-0.160875E-004  0.145578E-004  0.000000E+000
-0.204036E-004  0.732964E-005  0.000000E+000
-0.982457E-005  0.998689E-005  0.000000E+000
-0.347302E-004  0.600129E-005  0.000000E+000
-0.252400E-004  0.198131E-005  0.000000E+000
 0.192036E-020  0.158823E-004  0.000000E+000
 0.222041E-015  0.126707E-004  0.000000E+000
-0.148973E-004  0.385638E-005  0.000000E+000
-0.100103E-004  0.641410E-005  0.000000E+000
-0.220916E-004  0.410846E-005  0.000000E+000
 0.120699E-020  0.709477E-005  0.000000E+000
-0.366150E-004 -0.130168E-020  0.000000E+000
-0.297696E-004  0.416326E-016  0.000000E+000
-0.239042E-004  0.692047E-017  0.000000E+000
 0.160875E-004  0.145578E-004  0.000000E+000
 0.982457E-005  0.998689E-005  0.000000E+000
 0.100103E-004  0.641410E-005  0.000000E+000
-0.347302E-004 -0.600129E-005  0.000000E+000
-0.252400E-004 -0.198131E-005  0.000000E+000
-0.220916E-004 -0.410846E-005  0.000000E+000
 0.326620E-004  0.133301E-004  0.000000E+000
 0.204036E-004  0.732964E-005  0.000000E+000
 0.148973E-004  0.385638E-005  0.000000E+000
-0.326620E-004 -0.133301E-004  0.000000E+000
-0.204036E-004 -0.732964E-005  0.000000E+000
-0.148973E-004 -0.385638E-005  0.000000E+000
 0.347302E-004  0.600129E-005  0.000000E+000
 0.252400E-004  0.198131E-005  0.000000E+000
 0.220916E-004  0.410846E-005  0.000000E+000
-0.160875E-004 -0.145578E-004  0.000000E+000
-0.982457E-005 -0.998689E-005  0.000000E+000
-0.100103E-004 -0.641410E-005  0.000000E+000
 0.366150E-004  0.000000E+000  0.000000E+000
 0.297696E-004  0.971521E-016  0.000000E+000
 0.239042E-004  0.152651E-015  0.000000E+000
 0.192036E-020 -0.158823E-004  0.000000E+000
-0.111024E-015 -0.126707E-004  0.000000E+000
-0.555086E-016 -0.709477E-005  0.000000E+000
 0.347302E-004 -0.600129E-005  0.000000E+000
 0.252400E-004 -0.198131E-005  0.000000E+000
 0.220916E-004 -0.410846E-005  0.000000E+000
 0.160875E-004 -0.145578E-004  0.000000E+000
 0.982457E-005 -0.998689E-005  0.000000E+000
 0.100103E-004 -0.641410E-005  0.000000E+000
 0.326620E-004 -0.133301E-004  0.000000E+000
 0.204036E-004 -0.732964E-005  0.000000E+000
 0.148973E-004 -0.385638E-005  0.000000E+000
CELL_DATA    32
SCALARS region_id INT     1
LOOKUP_TABLE default
    1
    1
    1
    1
    1
    1
    1
    1
    1
    1
    1
    1
    1
    1
    1
    1
    1
    1
    1
    1
    1
    1
    1
    1
    1
    1
    1
    1
    1
    1
    1
    1
SCALARS element_id INT     1
LOOKUP_TABLE default
    1
    2
    3
    4
    5
    6
    7
    8
    9
   10
   11
   12
   13
   14
   15
   16
   17
   18
   19
   20
   21
   22
   23
   24
   25
   26
   27
   28
   29
   30
   31
   32
SCALARS stress_11 FLOAT     1
LOOKUP_TABLE default
 0.105452E+001
 0.112890E+001
 0.107373E+001
 0.135659E+001
 0.107373E+001
 0.135659E+001
 0.105452E+001
 0.112890E+001
 0.101671E+001
 0.842531E+000
 0.738233E+000
 0.440036E+000
 0.738233E+000
 0.440036E+000
 0.101671E+001
 0.842531E+000
 0.105452E+001
 0.112890E+001
 0.107373E+001
 0.135659E+001
 0.107373E+001
 0.135659E+001
 0.105452E+001
 0.112890E+001
 0.101671E+001
 0.842531E+000
 0.738233E+000
 0.440036E+000
 0.738233E+000
 0.440036E+000
 0.101671E+001
 0.842531E+000
SCALARS stress_22 FLOAT     1
LOOKUP_TABLE default
-0.717639E-001
-0.308471E-001
 0.954203E-001
 0.130117E+000
 0.954203E-001
 0.130117E+000
-0.717639E-001
-0.308471E-001
-0.680529E-001
-0.971262E-001
-0.168405E-001
-0.149848E+000
-0.168405E-001
-0.149848E+000
-0.680529E-001
-0.971262E-001
-0.717639E-001
-0.308471E-001
 0.954203E-001
 0.130117E+000
 0.954203E-001
 0.130117E+000
-0.717639E-001
-0.308471E-001
-0.680529E-001
-0.971262E-001
-0.168405E-001
-0.149848E+000
-0.168405E-001
-0.149848E+000
-0.680529E-001
-0.971262E-001
SCALARS stress_33 FLOAT     1
LOOKUP_TABLE default
 0.294827E+000
 0.329415E+000
 0.350744E+000
 0.446013E+000
 0.350744E+000
 0.446013E+000
 0.294827E+000
 0.329415E+000
 0.284597E+000
 0.223622E+000
 0.216418E+000
 0.870563E-001
 0.216418E+000
 0.870563E-001
 0.284597E+000
 0.223622E+000
 0.294827E+000
 0.329415E+000
 0.350744E+000
 0.446013E+000
 0.350744E+000
 0.446013E+000
 0.294827E+000
 0.329415E+000
 0.284597E+000
 0.223622E+000
 0.216418E+000
 0.870563E-001
 0.216418E+000
 0.870563E-001
 0.284597E+000
 0.223622E+000
SCALARS stress_23 FLOAT     1
LOOKUP_TABLE default
 0.000000E+000
 0.000000E+000
 0.000000E+000
 0.000000E+000
 0.000000E+000
 0.000000E+000
 0.000000E+000
 0.000000E+000
 0.000000E+000
 0.000000E+000
 0.000000E+000
 0.000000E+000
 0.000000E+000
 0.000000E+000
 0.000000E+000
 0.000000E+000
 0.000000E+000
 0.000000E+000
 0.000000E+000
 0.000000E+000
 0.000000E+000
 0.000000E+000
 0.000000E+000
 0.000000E+000
 0.000000E+000
 0.000000E+000
 0.000000E+000
 0.000000E+000
 0.000000E+000
 0.000000E+000
 0.000000E+000
 0.000000E+000
SCALARS stress_13 FLOAT     1
LOOKUP_TABLE default
 0.000000E+000
 0.000000E+000
 0.000000E+000
 0.000000E+000
 0.000000E+000
 0.000000E+000
 0.000000E+000
 0.000000E+000
 0.000000E+000
 0.000000E+000
 0.000000E+000
 0.000000E+000
 0.000000E+000
 0.000000E+000
 0.000000E+000
 0.000000E+000
 0.000000E+000
 0.000000E+000
 0.000000E+000
 0.000000E+000
 0.000000E+000
 0.000000E+000
 0.000000E+000
 0.000000E+000
 0.000000E+000
 0.000000E+000
 0.000000E+000
 0.000000E+000
 0.000000E+000
 0.000000E+000
 0.000000E+000
 0.000000E+000
SCALARS stress_12 FLOAT     1
LOOKUP_TABLE default
 0.111912E-001
-0.132951E+000
 0.448879E-001
-0.393739E-001
-0.448879E-001
 0.393739E-001
-0.111912E-001
 0.132951E+000
 0.822153E-001
 0.131441E+000
 0.105279E+000
 0.999662E-001
-0.105279E+000
-0.999662E-001
-0.822153E-001
-0.131441E+000
 0.111912E-001
-0.132951E+000
 0.448879E-001
-0.393739E-001
-0.448879E-001
 0.393739E-001
-0.111912E-001
 0.132951E+000
 0.822153E-001
 0.131441E+000
 0.105279E+000
 0.999662E-001
-0.105279E+000
-0.999662E-001
-0.822153E-001
-0.131441E+000
SCALARS pressure FLOAT     1
LOOKUP_TABLE default
 0.425861E+000
 0.475821E+000
 0.506630E+000
 0.644241E+000
 0.506630E+000
 0.644241E+000
 0.425861E+000
 0.475821E+000
 0.411085E+000
 0.323009E+000
 0.312603E+000
 0.125748E+000
 0.312603E+000
 0.125748E+000
 0.411085E+000
 0.323009E+000
 0.425861E+000
 0.475821E+000
 0.506630E+000
 0.644241E+000
 0.506630E+000
 0.644241E+000
 0.425861E+000
 0.475821E+000
 0.411085E+000
 0.323009E+000
 0.312603E+000
 0.125748E+000
 0.312603E+000
 0.125748E+000
 0.411085E+000
 0.323009E+000
SCALARS von_Mises FLOAT     1
LOOKUP_TABLE default
 0.995646E+000
 0.105383E+001
 0.882734E+000
 0.110961E+001
 0.882734E+000
 0.110961E+001
 0.995646E+000
 0.105383E+001
 0.970212E+000
 0.858998E+000
 0.694973E+000
 0.544581E+000
 0.694973E+000
 0.544581E+000
 0.970212E+000
 0.858998E+000
 0.995646E+000
 0.105383E+001
 0.882734E+000
 0.110961E+001
 0.882734E+000
 0.110961E+001
 0.995646E+000
 0.105383E+001
 0.970212E+000
 0.858998E+000
 0.694973E+000
 0.544581E+000
 0.694973E+000
 0.544581E+000
 0.970212E+000
 0.858998E+000
