# vtk DataFile Version 3.0
output
ASCII
DATASET UNSTRUCTURED_GRID
POINTS   160 FLOAT
-0.100000E+001 -0.100000E+001  0.000000E+000
-0.750000E+000 -0.100000E+001  0.000000E+000
-0.794194E+000 -0.794194E+000  0.000000E+000
-0.597223E+000 -0.801967E+000  0.000000E+000
-0.100000E+001 -0.750000E+000  0.000000E+000
-0.801967E+000 -0.597223E+000  0.000000E+000
-0.500000E+000 -0.100000E+001  0.000000E+000
-0.398918E+000 -0.807742E+000  0.000000E+000
-0.588388E+000 -0.588388E+000  0.000000E+000
-0.444446E+000 -0.603934E+000  0.000000E+000
-0.603934E+000 -0.444446E+000  0.000000E+000
-0.297835E+000 -0.615485E+000  0.000000E+000
-0.100000E+001 -0.500000E+000  0.000000E+000
-0.807742E+000 -0.398918E+000  0.000000E+000
-0.615485E+000 -0.297835E+000  0.000000E+000
-0.250000E+000 -0.100000E+001  0.000000E+000
-0.199693E+000 -0.811299E+000  0.000000E+000
-0.149386E+000 -0.622598E+000  0.000000E+000
-0.382583E+000 -0.382583E+000  0.000000E+000
-0.291669E+000 -0.405901E+000  0.000000E+000
-0.405901E+000 -0.291669E+000  0.000000E+000
-0.196753E+000 -0.423227E+000  0.000000E+000
-0.423227E+000 -0.196753E+000  0.000000E+000
-0.990794E-001 -0.433897E+000  0.000000E+000
-0.100000E+001 -0.250000E+000  0.000000E+000
-0.811299E+000 -0.199693E+000  0.000000E+000
-0.622598E+000 -0.149386E+000  0.000000E+000
-0.433897E+000 -0.990794E-001  0.000000E+000
 0.000000E+000 -0.100000E+001  0.000000E+000
-0.114811E-016 -0.812500E+000  0.000000E+000
-0.229621E-016 -0.625000E+000  0.000000E+000
-0.344432E-016 -0.437500E+000  0.000000E+000
-0.176777E+000 -0.176777E+000  0.000000E+000
-0.138893E+000 -0.207867E+000  0.000000E+000
-0.207867E+000 -0.138893E+000  0.000000E+000
-0.956709E-001 -0.230970E+000  0.000000E+000
-0.230970E+000 -0.956709E-001  0.000000E+000
-0.487726E-001 -0.245196E+000  0.000000E+000
-0.245196E+000 -0.487726E-001  0.000000E+000
-0.459243E-016 -0.250000E+000  0.000000E+000
-0.100000E+001  0.000000E+000  0.000000E+000
-0.812500E+000  0.229621E-016  0.000000E+000
-0.625000E+000  0.459243E-016  0.000000E+000
-0.437500E+000  0.688864E-016  0.000000E+000
-0.250000E+000  0.918485E-016  0.000000E+000
 0.250000E+000 -0.100000E+001  0.000000E+000
 0.199693E+000 -0.811299E+000  0.000000E+000
 0.149386E+000 -0.622598E+000  0.000000E+000
 0.990794E-001 -0.433897E+000  0.000000E+000
 0.487726E-001 -0.245196E+000  0.000000E+000
-0.100000E+001  0.250000E+000  0.000000E+000
-0.811299E+000  0.199693E+000  0.000000E+000
-0.622598E+000  0.149386E+000  0.000000E+000
-0.433897E+000  0.990794E-001  0.000000E+000
-0.245196E+000  0.487726E-001  0.000000E+000
 0.500000E+000 -0.100000E+001  0.000000E+000
 0.398918E+000 -0.807742E+000  0.000000E+000
 0.297835E+000 -0.615485E+000  0.000000E+000
 0.196753E+000 -0.423227E+000  0.000000E+000
 0.956709E-001 -0.230970E+000  0.000000E+000
-0.100000E+001  0.500000E+000  0.000000E+000
-0.807742E+000  0.398918E+000  0.000000E+000
-0.615485E+000  0.297835E+000  0.000000E+000
-0.423227E+000  0.196753E+000  0.000000E+000
-0.230970E+000  0.956709E-001  0.000000E+000
 0.750000E+000 -0.100000E+001  0.000000E+000
 0.597223E+000 -0.801967E+000  0.000000E+000
 0.444446E+000 -0.603934E+000  0.000000E+000
 0.291669E+000 -0.405901E+000  0.000000E+000
 0.138893E+000 -0.207867E+000  0.000000E+000
-0.100000E+001  0.750000E+000  0.000000E+000
-0.801967E+000  0.597223E+000  0.000000E+000
-0.603934E+000  0.444446E+000  0.000000E+000
-0.405901E+000  0.291669E+000  0.000000E+000
-0.207867E+000  0.138893E+000  0.000000E+000
 0.100000E+001 -0.100000E+001  0.000000E+000
 0.794194E+000 -0.794194E+000  0.000000E+000
 0.588388E+000 -0.588388E+000  0.000000E+000
 0.382583E+000 -0.382583E+000  0.000000E+000
 0.176777E+000 -0.176777E+000  0.000000E+000
-0.100000E+001  0.100000E+001  0.000000E+000
-0.794194E+000  0.794194E+000  0.000000E+000
-0.588388E+000  0.588388E+000  0.000000E+000
-0.382583E+000  0.382583E+000  0.000000E+000
-0.176777E+000  0.176777E+000  0.000000E+000
 0.100000E+001 -0.750000E+000  0.000000E+000
 0.801967E+000 -0.597223E+000  0.000000E+000
 0.603934E+000 -0.444446E+000  0.000000E+000
 0.405901E+000 -0.291669E+000  0.000000E+000
 0.207867E+000 -0.138893E+000  0.000000E+000
-0.750000E+000  0.100000E+001  0.000000E+000
-0.597223E+000  0.801967E+000  0.000000E+000
-0.444446E+000  0.603934E+000  0.000000E+000
-0.291669E+000  0.405901E+000  0.000000E+000
-0.138893E+000  0.207867E+000  0.000000E+000
 0.100000E+001 -0.500000E+000  0.000000E+000
 0.807742E+000 -0.398918E+000  0.000000E+000
 0.615485E+000 -0.297835E+000  0.000000E+000
 0.423227E+000 -0.196753E+000  0.000000E+000
 0.230970E+000 -0.956709E-001  0.000000E+000
-0.500000E+000  0.100000E+001  0.000000E+000
-0.398918E+000  0.807742E+000  0.000000E+000
-0.297835E+000  0.615485E+000  0.000000E+000
-0.196753E+000  0.423227E+000  0.000000E+000
-0.956709E-001  0.230970E+000  0.000000E+000
 0.100000E+001 -0.250000E+000  0.000000E+000
 0.811299E+000 -0.199693E+000  0.000000E+000
 0.622598E+000 -0.149386E+000  0.000000E+000
 0.433897E+000 -0.990794E-001  0.000000E+000
 0.245196E+000 -0.487726E-001  0.000000E+000
-0.250000E+000  0.100000E+001  0.000000E+000
-0.199693E+000  0.811299E+000  0.000000E+000
-0.149386E+000  0.622598E+000  0.000000E+000
-0.990794E-001  0.433897E+000  0.000000E+000
-0.487726E-001  0.245196E+000  0.000000E+000
 0.100000E+001  0.000000E+000  0.000000E+000
 0.812500E+000 -0.153081E-016  0.000000E+000
 0.625000E+000 -0.306162E-016  0.000000E+000
 0.437500E+000 -0.459243E-016  0.000000E+000
 0.250000E+000 -0.612323E-016  0.000000E+000
 0.000000E+000  0.100000E+001  0.000000E+000
 0.191351E-016  0.812500E+000  0.000000E+000
 0.382702E-016  0.625000E+000  0.000000E+000
 0.574053E-016  0.437500E+000  0.000000E+000
 0.765404E-016  0.250000E+000  0.000000E+000
 0.100000E+001  0.250000E+000  0.000000E+000
 0.811299E+000  0.199693E+000  0.000000E+000
 0.622598E+000  0.149386E+000  0.000000E+000
 0.433897E+000  0.990794E-001  0.000000E+000
 0.245196E+000  0.487726E-001  0.000000E+000
 0.250000E+000  0.100000E+001  0.000000E+000
 0.199693E+000  0.811299E+000  0.000000E+000
 0.149386E+000  0.622598E+000  0.000000E+000
 0.990794E-001  0.433897E+000  0.000000E+000
 0.487726E-001  0.245196E+000  0.000000E+000
 0.100000E+001  0.500000E+000  0.000000E+000
 0.807742E+000  0.398918E+000  0.000000E+000
 0.615485E+000  0.297835E+000  0.000000E+000
 0.423227E+000  0.196753E+000  0.000000E+000
 0.230970E+000  0.956709E-001  0.000000E+000
 0.500000E+000  0.100000E+001  0.000000E+000
 0.398918E+000  0.807742E+000  0.000000E+000
 0.297835E+000  0.615485E+000  0.000000E+000
 0.196753E+000  0.423227E+000  0.000000E+000
 0.956709E-001  0.230970E+000  0.000000E+000
 0.100000E+001  0.750000E+000  0.000000E+000
 0.801967E+000  0.597223E+000  0.000000E+000
 0.603934E+000  0.444446E+000  0.000000E+000
 0.405901E+000  0.291669E+000  0.000000E+000
 0.207867E+000  0.138893E+000  0.000000E+000
 0.750000E+000  0.100000E+001  0.000000E+000
 0.597223E+000  0.801967E+000  0.000000E+000
 0.444446E+000  0.603934E+000  0.000000E+000
 0.291669E+000  0.405901E+000  0.000000E+000
 0.138893E+000  0.207867E+000  0.000000E+000
 0.100000E+001  0.100000E+001  0.000000E+000
 0.794194E+000  0.794194E+000  0.000000E+000
 0.588388E+000  0.588388E+000  0.000000E+000
 0.382583E+000  0.382583E+000  0.000000E+000
 0.176777E+000  0.176777E+000  0.000000E+000
CELLS   128   640
    4    0     1     3     2
    4    2     3     9     8
    4    8     9    19    18
    4   18    19    33    32
    4    1     6     7     3
    4    3     7    11     9
    4    9    11    21    19
    4   19    21    35    33
    4    6    15    16     7
    4    7    16    17    11
    4   11    17    23    21
    4   21    23    37    35
    4   15    28    29    16
    4   16    29    30    17
    4   17    30    31    23
    4   23    31    39    37
    4   28    45    46    29
    4   29    46    47    30
    4   30    47    48    31
    4   31    48    49    39
    4   45    55    56    46
    4   46    56    57    47
    4   47    57    58    48
    4   48    58    59    49
    4   55    65    66    56
    4   56    66    67    57
    4   57    67    68    58
    4   58    68    69    59
    4   65    75    76    66
    4   66    76    77    67
    4   67    77    78    68
    4   68    78    79    69
    4   75    85    86    76
    4   76    86    87    77
    4   77    87    88    78
    4   78    88    89    79
    4   85    95    96    86
    4   86    96    97    87
    4   87    97    98    88
    4   88    98    99    89
    4   95   105   106    96
    4   96   106   107    97
    4   97   107   108    98
    4   98   108   109    99
    4  105   115   116   106
    4  106   116   117   107
    4  107   117   118   108
    4  108   118   119   109
    4  115   125   126   116
    4  116   126   127   117
    4  117   127   128   118
    4  118   128   129   119
    4  125   135   136   126
    4  126   136   137   127
    4  127   137   138   128
    4  128   138   139   129
    4  135   145   146   136
    4  136   146   147   137
    4  137   147   148   138
    4  138   148   149   139
    4  145   155   156   146
    4  146   156   157   147
    4  147   157   158   148
    4  148   158   159   149
    4  155   150   151   156
    4  156   151   152   157
    4  157   152   153   158
    4  158   153   154   159
    4  150   140   141   151
    4  151   141   142   152
    4  152   142   143   153
    4  153   143   144   154
    4  140   130   131   141
    4  141   131   132   142
    4  142   132   133   143
    4  143   133   134   144
    4  130   120   121   131
    4  131   121   122   132
    4  132   122   123   133
    4  133   123   124   134
    4  120   110   111   121
    4  121   111   112   122
    4  122   112   113   123
    4  123   113   114   124
    4  110   100   101   111
    4  111   101   102   112
    4  112   102   103   113
    4  113   103   104   114
    4  100    90    91   101
    4  101    91    92   102
    4  102    92    93   103
    4  103    93    94   104
    4   90    80    81    91
    4   91    81    82    92
    4   92    82    83    93
    4   93    83    84    94
    4   80    70    71    81
    4   81    71    72    82
    4   82    72    73    83
    4   83    73    74    84
    4   70    60    61    71
    4   71    61    62    72
    4   72    62    63    73
    4   73    63    64    74
    4   60    50    51    61
    4   61    51    52    62
    4   62    52    53    63
    4   63    53    54    64
    4   50    40    41    51
    4   51    41    42    52
    4   52    42    43    53
    4   53    43    44    54
    4   40    24    25    41
    4   41    25    26    42
    4   42    26    27    43
    4   43    27    38    44
    4   24    12    13    25
    4   25    13    14    26
    4   26    14    22    27
    4   27    22    36    38
    4   12     4     5    13
    4   13     5    10    14
    4   14    10    20    22
    4   22    20    34    36
    4    4     0     2     5
    4    5     2     8    10
    4   10     8    18    20
    4   20    18    32    34
CELL_TYPES   128
    9
    9
    9
    9
    9
    9
    9
    9
    9
    9
    9
    9
    9
    9
    9
    9
    9
    9
    9
    9
    9
    9
    9
    9
    9
    9
    9
    9
    9
    9
    9
    9
    9
    9
    9
    9
    9
    9
    9
    9
    9
    9
    9
    9
    9
    9
    9
    9
    9
    9
    9
    9
    9
    9
    9
    9
    9
    9
    9
    9
    9
    9
    9
    9
    9
    9
    9
    9
    9
    9
    9
    9
    9
    9
    9
    9
    9
    9
    9
    9
    9
    9
    9
    9
    9
    9
    9
    9
    9
    9
    9
    9
    9
    9
    9
    9
    9
    9
    9
    9
    9
    9
    9
    9
    9
    9
    9
    9
    9
    9
    9
    9
    9
    9
    9
    9
    9
    9
    9
    9
    9
    9
    9
    9
    9
    9
    9
    9
POINT_DATA   160
SCALARS displacement FLOAT     3
LOOKUP_TABLE default
-0.326620E-004  0.133301E-004  0.000000E+000
-0.244102E-004  0.137868E-004  0.000000E+000
-0.265512E-004  0.105139E-004  0.000000E+000
-0.198663E-004  0.111984E-004  0.000000E+000
-0.335110E-004  0.961713E-005  0.000000E+000
-0.278835E-004  0.740567E-005  0.000000E+000
-0.160875E-004  0.145578E-004  0.000000E+000
-0.129941E-004  0.121807E-004  0.000000E+000
-0.207389E-004  0.769250E-005  0.000000E+000
-0.154091E-004  0.855553E-005  0.000000E+000
-0.225434E-004  0.513810E-005  0.000000E+000
-0.995705E-005  0.100392E-004  0.000000E+000
-0.347302E-004  0.600129E-005  0.000000E+000
-0.295491E-004  0.438927E-005  0.000000E+000
-0.249232E-004  0.265937E-005  0.000000E+000
-0.791007E-005  0.154520E-004  0.000000E+000
-0.628748E-005  0.133707E-004  0.000000E+000
-0.481733E-005  0.116110E-004  0.000000E+000
-0.153205E-004  0.472019E-005  0.000000E+000
-0.114299E-004  0.658714E-005  0.000000E+000
-0.185050E-004  0.257922E-005  0.000000E+000
-0.767571E-005  0.860406E-005  0.000000E+000
-0.220459E-004  0.128876E-005  0.000000E+000
-0.384719E-005  0.102089E-004  0.000000E+000
-0.360199E-004  0.276808E-005  0.000000E+000
-0.312920E-004  0.182960E-005  0.000000E+000
-0.273468E-004  0.980043E-006  0.000000E+000
-0.247433E-004  0.484952E-006  0.000000E+000
 0.192036E-020  0.158823E-004  0.000000E+000
-0.555024E-016  0.139625E-004  0.000000E+000
-0.138674E-016  0.123095E-004  0.000000E+000
 0.555116E-016  0.108158E-004  0.000000E+000
-0.160919E-004  0.506388E-005  0.000000E+000
-0.133050E-004  0.618341E-005  0.000000E+000
-0.196160E-004  0.469226E-005  0.000000E+000
-0.930880E-005  0.701893E-005  0.000000E+000
-0.219966E-004  0.333417E-005  0.000000E+000
-0.480403E-005  0.744891E-005  0.000000E+000
-0.233631E-004  0.174168E-005  0.000000E+000
-0.277748E-016  0.758848E-005  0.000000E+000
-0.366150E-004 -0.130168E-020  0.000000E+000
-0.321438E-004 -0.347555E-017  0.000000E+000
-0.283874E-004 -0.156354E-016  0.000000E+000
-0.257522E-004  0.232413E-015  0.000000E+000
-0.238136E-004  0.728520E-016  0.000000E+000
 0.791007E-005  0.154520E-004  0.000000E+000
 0.628748E-005  0.133707E-004  0.000000E+000
 0.481733E-005  0.116110E-004  0.000000E+000
 0.384719E-005  0.102089E-004  0.000000E+000
 0.480403E-005  0.744891E-005  0.000000E+000
-0.360199E-004 -0.276808E-005  0.000000E+000
-0.312920E-004 -0.182960E-005  0.000000E+000
-0.273468E-004 -0.980043E-006  0.000000E+000
-0.247433E-004 -0.484952E-006  0.000000E+000
-0.233631E-004 -0.174168E-005  0.000000E+000
 0.160875E-004  0.145578E-004  0.000000E+000
 0.129941E-004  0.121807E-004  0.000000E+000
 0.995705E-005  0.100392E-004  0.000000E+000
 0.767571E-005  0.860406E-005  0.000000E+000
 0.930880E-005  0.701893E-005  0.000000E+000
-0.347302E-004 -0.600129E-005  0.000000E+000
-0.295491E-004 -0.438927E-005  0.000000E+000
-0.249232E-004 -0.265937E-005  0.000000E+000
-0.220459E-004 -0.128876E-005  0.000000E+000
-0.219966E-004 -0.333417E-005  0.000000E+000
 0.244102E-004  0.137868E-004  0.000000E+000
 0.198663E-004  0.111984E-004  0.000000E+000
 0.154091E-004  0.855553E-005  0.000000E+000
 0.114299E-004  0.658714E-005  0.000000E+000
 0.133050E-004  0.618341E-005  0.000000E+000
-0.335110E-004 -0.961713E-005  0.000000E+000
-0.278835E-004 -0.740567E-005  0.000000E+000
-0.225434E-004 -0.513810E-005  0.000000E+000
-0.185050E-004 -0.257922E-005  0.000000E+000
-0.196160E-004 -0.469226E-005  0.000000E+000
 0.326620E-004  0.133301E-004  0.000000E+000
 0.265512E-004  0.105139E-004  0.000000E+000
 0.207389E-004  0.769250E-005  0.000000E+000
 0.153205E-004  0.472019E-005  0.000000E+000
 0.160919E-004  0.506388E-005  0.000000E+000
-0.326620E-004 -0.133301E-004  0.000000E+000
-0.265512E-004 -0.105139E-004  0.000000E+000
-0.207389E-004 -0.769250E-005  0.000000E+000
-0.153205E-004 -0.472019E-005  0.000000E+000
-0.160919E-004 -0.506388E-005  0.000000E+000
 0.335110E-004  0.961713E-005  0.000000E+000
 0.278835E-004  0.740567E-005  0.000000E+000
 0.225434E-004  0.513810E-005  0.000000E+000
 0.185050E-004  0.257922E-005  0.000000E+000
 0.196160E-004  0.469226E-005  0.000000E+000
-0.244102E-004 -0.137868E-004  0.000000E+000
-0.198663E-004 -0.111984E-004  0.000000E+000
-0.154091E-004 -0.855553E-005  0.000000E+000
-0.114299E-004 -0.658714E-005  0.000000E+000
-0.133050E-004 -0.618341E-005  0.000000E+000
 0.347302E-004  0.600129E-005  0.000000E+000
 0.295491E-004  0.438927E-005  0.000000E+000
 0.249232E-004  0.265937E-005  0.000000E+000
 0.220459E-004  0.128876E-005  0.000000E+000
 0.219966E-004  0.333417E-005  0.000000E+000
-0.160875E-004 -0.145578E-004  0.000000E+000
-0.129941E-004 -0.121807E-004  0.000000E+000
-0.995705E-005 -0.100392E-004  0.000000E+000
-0.767571E-005 -0.860406E-005  0.000000E+000
-0.930880E-005 -0.701893E-005  0.000000E+000
 0.360199E-004  0.276808E-005  0.000000E+000
 0.312920E-004  0.182960E-005  0.000000E+000
 0.273468E-004  0.980043E-006  0.000000E+000
 0.247433E-004  0.484952E-006  0.000000E+000
 0.233631E-004  0.174168E-005  0.000000E+000
-0.791007E-005 -0.154520E-004  0.000000E+000
-0.628748E-005 -0.133707E-004  0.000000E+000
-0.481733E-005 -0.116110E-004  0.000000E+000
-0.384719E-005 -0.102089E-004  0.000000E+000
-0.480403E-005 -0.744891E-005  0.000000E+000
 0.366150E-004  0.000000E+000  0.000000E+000
 0.321438E-004  0.694861E-017  0.000000E+000
 0.283874E-004  0.213393E-015  0.000000E+000
 0.257522E-004 -0.131803E-015  0.000000E+000
 0.238136E-004 -0.138766E-016  0.000000E+000
 0.192036E-020 -0.158823E-004  0.000000E+000
 0.277472E-016 -0.139625E-004  0.000000E+000
-0.296960E-021 -0.123095E-004  0.000000E+000
 0.277560E-016 -0.108158E-004  0.000000E+000
-0.832418E-016 -0.758848E-005  0.000000E+000
 0.360199E-004 -0.276808E-005  0.000000E+000
 0.312920E-004 -0.182960E-005  0.000000E+000
 0.273468E-004 -0.980043E-006  0.000000E+000
 0.247433E-004 -0.484952E-006  0.000000E+000
 0.233631E-004 -0.174168E-005  0.000000E+000
 0.791007E-005 -0.154520E-004  0.000000E+000
 0.628748E-005 -0.133707E-004  0.000000E+000
 0.481733E-005 -0.116110E-004  0.000000E+000
 0.384719E-005 -0.102089E-004  0.000000E+000
 0.480403E-005 -0.744891E-005  0.000000E+000
 0.347302E-004 -0.600129E-005  0.000000E+000
 0.295491E-004 -0.438927E-005  0.000000E+000
 0.249232E-004 -0.265937E-005  0.000000E+000
 0.220459E-004 -0.128876E-005  0.000000E+000
 0.219966E-004 -0.333417E-005  0.000000E+000
 0.160875E-004 -0.145578E-004  0.000000E+000
 0.129941E-004 -0.121807E-004  0.000000E+000
 0.995705E-005 -0.100392E-004  0.000000E+000
 0.767571E-005 -0.860406E-005  0.000000E+000
 0.930880E-005 -0.701893E-005  0.000000E+000
 0.335110E-004 -0.961713E-005  0.000000E+000
 0.278835E-004 -0.740567E-005  0.000000E+000
 0.225434E-004 -0.513810E-005  0.000000E+000
 0.185050E-004 -0.257922E-005  0.000000E+000
 0.196160E-004 -0.469226E-005  0.000000E+000
 0.244102E-004 -0.137868E-004  0.000000E+000
 0.198663E-004 -0.111984E-004  0.000000E+000
 0.154091E-004 -0.855553E-005  0.000000E+000
 0.114299E-004 -0.658714E-005  0.000000E+000
 0.133050E-004 -0.618341E-005  0.000000E+000
 0.326620E-004 -0.133301E-004  0.000000E+000
 0.265512E-004 -0.105139E-004  0.000000E+000
 0.207389E-004 -0.769250E-005  0.000000E+000
 0.153205E-004 -0.472019E-005  0.000000E+000
 0.160919E-004 -0.506388E-005  0.000000E+000
CELL_DATA   128
SCALARS region_id INT     1
LOOKUP_TABLE default
    1
    1
    1
    1
    1
    1
    1
    1
    1
    1
    1
    1
    1
    1
    1
    1
    1
    1
    1
    1
    1
    1
    1
    1
    1
    1
    1
    1
    1
    1
    1
    1
    1
    1
    1
    1
    1
    1
    1
    1
    1
    1
    1
    1
    1
    1
    1
    1
    1
    1
    1
    1
    1
    1
    1
    1
    1
    1
    1
    1
    1
    1
    1
    1
    1
    1
    1
    1
    1
    1
    1
    1
    1
    1
    1
    1
    1
    1
    1
    1
    1
    1
    1
    1
    1
    1
    1
    1
    1
    1
    1
    1
    1
    1
    1
    1
    1
    1
    1
    1
    1
    1
    1
    1
    1
    1
    1
    1
    1
    1
    1
    1
    1
    1
    1
    1
    1
    1
    1
    1
    1
    1
    1
    1
    1
    1
    1
    1
SCALARS element_id INT     1
LOOKUP_TABLE default
    1
    2
    3
    4
    5
    6
    7
    8
    9
   10
   11
   12
   13
   14
   15
   16
   17
   18
   19
   20
   21
   22
   23
   24
   25
   26
   27
   28
   29
   30
   31
   32
   33
   34
   35
   36
   37
   38
   39
   40
   41
   42
   43
   44
   45
   46
   47
   48
   49
   50
   51
   52
   53
   54
   55
   56
   57
   58
   59
   60
   61
   62
   63
   64
   65
   66
   67
   68
   69
   70
   71
   72
   73
   74
   75
   76
   77
   78
   79
   80
   81
   82
   83
   84
   85
   86
   87
   88
   89
   90
   91
   92
   93
   94
   95
   96
   97
   98
   99
  100
  101
  102
  103
  104
  105
  106
  107
  108
  109
  110
  111
  112
  113
  114
  115
  116
  117
  118
  119
  120
  121
  122
  123
  124
  125
  126
  127
  128
SCALARS stress_11 FLOAT     1
LOOKUP_TABLE default
 0.104405E+001
 0.108062E+001
 0.113594E+001
 0.111981E+001
 0.106761E+001
 0.111101E+001
 0.116934E+001
 0.136520E+001
 0.106645E+001
 0.110611E+001
 0.119197E+001
 0.159360E+001
 0.104987E+001
 0.108060E+001
 0.120058E+001
 0.173026E+001
 0.104987E+001
 0.108060E+001
 0.120058E+001
 0.173026E+001
 0.106645E+001
 0.110611E+001
 0.119197E+001
 0.159360E+001
 0.106761E+001
 0.111101E+001
 0.116934E+001
 0.136520E+001
 0.104405E+001
 0.108062E+001
 0.113594E+001
 0.111981E+001
 0.102790E+001
 0.103937E+001
 0.109593E+001
 0.881940E+000
 0.985337E+000
 0.983369E+000
 0.934298E+000
 0.597182E+000
 0.899272E+000
 0.841439E+000
 0.678318E+000
 0.348414E+000
 0.798440E+000
 0.688821E+000
 0.483020E+000
 0.203155E+000
 0.798440E+000
 0.688821E+000
 0.483020E+000
 0.203155E+000
 0.899272E+000
 0.841439E+000
 0.678318E+000
 0.348414E+000
 0.985337E+000
 0.983369E+000
 0.934298E+000
 0.597182E+000
 0.102790E+001
 0.103937E+001
 0.109593E+001
 0.881940E+000
 0.104405E+001
 0.108062E+001
 0.113594E+001
 0.111981E+001
 0.106761E+001
 0.111101E+001
 0.116934E+001
 0.136520E+001
 0.106645E+001
 0.110611E+001
 0.119197E+001
 0.159360E+001
 0.104987E+001
 0.108060E+001
 0.120058E+001
 0.173026E+001
 0.104987E+001
 0.108060E+001
 0.120058E+001
 0.173026E+001
 0.106645E+001
 0.110611E+001
 0.119197E+001
 0.159360E+001
 0.106761E+001
 0.111101E+001
 0.116934E+001
 0.136520E+001
 0.104405E+001
 0.108062E+001
 0.113594E+001
 0.111981E+001
 0.102790E+001
 0.103937E+001
 0.109593E+001
 0.881940E+000
 0.985337E+000
 0.983369E+000
 0.934298E+000
 0.597182E+000
 0.899272E+000
 0.841439E+000
 0.678318E+000
 0.348414E+000
 0.798440E+000
 0.688821E+000
 0.483020E+000
 0.203155E+000
 0.798440E+000
 0.688821E+000
 0.483020E+000
 0.203155E+000
 0.899272E+000
 0.841439E+000
 0.678318E+000
 0.348414E+000
 0.985337E+000
 0.983369E+000
 0.934298E+000
 0.597182E+000
 0.102790E+001
 0.103937E+001
 0.109593E+001
 0.881940E+000
SCALARS stress_22 FLOAT     1
LOOKUP_TABLE default
-0.430877E-001
-0.634244E-001
-0.126885E+000
 0.169022E-004
-0.241867E-001
-0.427809E-001
-0.265883E-001
 0.791415E-001
 0.274781E-001
 0.542233E-001
 0.124610E+000
 0.165405E+000
 0.101608E+000
 0.158969E+000
 0.248016E+000
 0.215173E+000
 0.101608E+000
 0.158969E+000
 0.248016E+000
 0.215173E+000
 0.274781E-001
 0.542233E-001
 0.124610E+000
 0.165405E+000
-0.241867E-001
-0.427809E-001
-0.265883E-001
 0.791415E-001
-0.430877E-001
-0.634244E-001
-0.126885E+000
 0.169022E-004
-0.445059E-001
-0.772778E-001
-0.139476E+000
-0.591900E-001
-0.485633E-001
-0.838595E-001
-0.103239E+000
-0.145937E+000
-0.260028E-001
-0.319540E-001
-0.395008E-001
-0.228445E+000
 0.139569E-001
 0.342255E-001
 0.147999E-001
-0.275815E+000
 0.139569E-001
 0.342255E-001
 0.147999E-001
-0.275815E+000
-0.260028E-001
-0.319540E-001
-0.395008E-001
-0.228445E+000
-0.485633E-001
-0.838595E-001
-0.103239E+000
-0.145937E+000
-0.445059E-001
-0.772778E-001
-0.139476E+000
-0.591900E-001
-0.430877E-001
-0.634244E-001
-0.126885E+000
 0.169022E-004
-0.241867E-001
-0.427809E-001
-0.265883E-001
 0.791415E-001
 0.274781E-001
 0.542233E-001
 0.124610E+000
 0.165405E+000
 0.101608E+000
 0.158969E+000
 0.248016E+000
 0.215173E+000
 0.101608E+000
 0.158969E+000
 0.248016E+000
 0.215173E+000
 0.274781E-001
 0.542233E-001
 0.124610E+000
 0.165405E+000
-0.241867E-001
-0.427809E-001
-0.265883E-001
 0.791415E-001
-0.430877E-001
-0.634244E-001
-0.126885E+000
 0.169022E-004
-0.445059E-001
-0.772778E-001
-0.139476E+000
-0.591900E-001
-0.485633E-001
-0.838595E-001
-0.103239E+000
-0.145937E+000
-0.260028E-001
-0.319540E-001
-0.395008E-001
-0.228445E+000
 0.139569E-001
 0.342255E-001
 0.147999E-001
-0.275815E+000
 0.139569E-001
 0.342255E-001
 0.147999E-001
-0.275815E+000
-0.260028E-001
-0.319540E-001
-0.395008E-001
-0.228445E+000
-0.485633E-001
-0.838595E-001
-0.103239E+000
-0.145937E+000
-0.445059E-001
-0.772778E-001
-0.139476E+000
-0.591900E-001
SCALARS stress_33 FLOAT     1
LOOKUP_TABLE default
 0.300290E+000
 0.305159E+000
 0.302718E+000
 0.335947E+000
 0.313026E+000
 0.320469E+000
 0.342825E+000
 0.433302E+000
 0.328178E+000
 0.348100E+000
 0.394975E+000
 0.527702E+000
 0.345443E+000
 0.371870E+000
 0.434578E+000
 0.583631E+000
 0.345443E+000
 0.371870E+000
 0.434578E+000
 0.583631E+000
 0.328178E+000
 0.348100E+000
 0.394975E+000
 0.527702E+000
 0.313026E+000
 0.320469E+000
 0.342825E+000
 0.433302E+000
 0.300290E+000
 0.305159E+000
 0.302718E+000
 0.335947E+000
 0.295018E+000
 0.288628E+000
 0.286937E+000
 0.246825E+000
 0.281032E+000
 0.269853E+000
 0.249318E+000
 0.135373E+000
 0.261981E+000
 0.242846E+000
 0.191645E+000
 0.359906E-001
 0.243719E+000
 0.216914E+000
 0.149346E+000
-0.217978E-001
 0.243719E+000
 0.216914E+000
 0.149346E+000
-0.217978E-001
 0.261981E+000
 0.242846E+000
 0.191645E+000
 0.359906E-001
 0.281032E+000
 0.269853E+000
 0.249318E+000
 0.135373E+000
 0.295018E+000
 0.288628E+000
 0.286937E+000
 0.246825E+000
 0.300290E+000
 0.305159E+000
 0.302718E+000
 0.335947E+000
 0.313026E+000
 0.320469E+000
 0.342825E+000
 0.433302E+000
 0.328178E+000
 0.348100E+000
 0.394975E+000
 0.527702E+000
 0.345443E+000
 0.371870E+000
 0.434578E+000
 0.583631E+000
 0.345443E+000
 0.371870E+000
 0.434578E+000
 0.583631E+000
 0.328178E+000
 0.348100E+000
 0.394975E+000
 0.527702E+000
 0.313026E+000
 0.320469E+000
 0.342825E+000
 0.433302E+000
 0.300290E+000
 0.305159E+000
 0.302718E+000
 0.335947E+000
 0.295018E+000
 0.288628E+000
 0.286937E+000
 0.246825E+000
 0.281032E+000
 0.269853E+000
 0.249318E+000
 0.135373E+000
 0.261981E+000
 0.242846E+000
 0.191645E+000
 0.359906E-001
 0.243719E+000
 0.216914E+000
 0.149346E+000
-0.217978E-001
 0.243719E+000
 0.216914E+000
 0.149346E+000
-0.217978E-001
 0.261981E+000
 0.242846E+000
 0.191645E+000
 0.359906E-001
 0.281032E+000
 0.269853E+000
 0.249318E+000
 0.135373E+000
 0.295018E+000
 0.288628E+000
 0.286937E+000
 0.246825E+000
SCALARS stress_23 FLOAT     1
LOOKUP_TABLE default
 0.000000E+000
 0.000000E+000
 0.000000E+000
 0.000000E+000
 0.000000E+000
 0.000000E+000
 0.000000E+000
 0.000000E+000
 0.000000E+000
 0.000000E+000
 0.000000E+000
 0.000000E+000
 0.000000E+000
 0.000000E+000
 0.000000E+000
 0.000000E+000
 0.000000E+000
 0.000000E+000
 0.000000E+000
 0.000000E+000
 0.000000E+000
 0.000000E+000
 0.000000E+000
 0.000000E+000
 0.000000E+000
 0.000000E+000
 0.000000E+000
 0.000000E+000
 0.000000E+000
 0.000000E+000
 0.000000E+000
 0.000000E+000
 0.000000E+000
 0.000000E+000
 0.000000E+000
 0.000000E+000
 0.000000E+000
 0.000000E+000
 0.000000E+000
 0.000000E+000
 0.000000E+000
 0.000000E+000
 0.000000E+000
 0.000000E+000
 0.000000E+000
 0.000000E+000
 0.000000E+000
 0.000000E+000
 0.000000E+000
 0.000000E+000
 0.000000E+000
 0.000000E+000
 0.000000E+000
 0.000000E+000
 0.000000E+000
 0.000000E+000
 0.000000E+000
 0.000000E+000
 0.000000E+000
 0.000000E+000
 0.000000E+000
 0.000000E+000
 0.000000E+000
 0.000000E+000
 0.000000E+000
 0.000000E+000
 0.000000E+000
 0.000000E+000
 0.000000E+000
 0.000000E+000
 0.000000E+000
 0.000000E+000
 0.000000E+000
 0.000000E+000
 0.000000E+000
 0.000000E+000
 0.000000E+000
 0.000000E+000
 0.000000E+000
 0.000000E+000
 0.000000E+000
 0.000000E+000
 0.000000E+000
 0.000000E+000
 0.000000E+000
 0.000000E+000
 0.000000E+000
 0.000000E+000
 0.000000E+000
 0.000000E+000
 0.000000E+000
 0.000000E+000
 0.000000E+000
 0.000000E+000
 0.000000E+000
 0.000000E+000
 0.000000E+000
 0.000000E+000
 0.000000E+000
 0.000000E+000
 0.000000E+000
 0.000000E+000
 0.000000E+000
 0.000000E+000
 0.000000E+000
 0.000000E+000
 0.000000E+000
 0.000000E+000
 0.000000E+000
 0.000000E+000
 0.000000E+000
 0.000000E+000
 0.000000E+000
 0.000000E+000
 0.000000E+000
 0.000000E+000
 0.000000E+000
 0.000000E+000
 0.000000E+000
 0.000000E+000
 0.000000E+000
 0.000000E+000
 0.000000E+000
 0.000000E+000
 0.000000E+000
 0.000000E+000
 0.000000E+000
 0.000000E+000
SCALARS stress_13 FLOAT     1
LOOKUP_TABLE default
 0.000000E+000
 0.000000E+000
 0.000000E+000
 0.000000E+000
 0.000000E+000
 0.000000E+000
 0.000000E+000
 0.000000E+000
 0.000000E+000
 0.000000E+000
 0.000000E+000
 0.000000E+000
 0.000000E+000
 0.000000E+000
 0.000000E+000
 0.000000E+000
 0.000000E+000
 0.000000E+000
 0.000000E+000
 0.000000E+000
 0.000000E+000
 0.000000E+000
 0.000000E+000
 0.000000E+000
 0.000000E+000
 0.000000E+000
 0.000000E+000
 0.000000E+000
 0.000000E+000
 0.000000E+000
 0.000000E+000
 0.000000E+000
 0.000000E+000
 0.000000E+000
 0.000000E+000
 0.000000E+000
 0.000000E+000
 0.000000E+000
 0.000000E+000
 0.000000E+000
 0.000000E+000
 0.000000E+000
 0.000000E+000
 0.000000E+000
 0.000000E+000
 0.000000E+000
 0.000000E+000
 0.000000E+000
 0.000000E+000
 0.000000E+000
 0.000000E+000
 0.000000E+000
 0.000000E+000
 0.000000E+000
 0.000000E+000
 0.000000E+000
 0.000000E+000
 0.000000E+000
 0.000000E+000
 0.000000E+000
 0.000000E+000
 0.000000E+000
 0.000000E+000
 0.000000E+000
 0.000000E+000
 0.000000E+000
 0.000000E+000
 0.000000E+000
 0.000000E+000
 0.000000E+000
 0.000000E+000
 0.000000E+000
 0.000000E+000
 0.000000E+000
 0.000000E+000
 0.000000E+000
 0.000000E+000
 0.000000E+000
 0.000000E+000
 0.000000E+000
 0.000000E+000
 0.000000E+000
 0.000000E+000
 0.000000E+000
 0.000000E+000
 0.000000E+000
 0.000000E+000
 0.000000E+000
 0.000000E+000
 0.000000E+000
 0.000000E+000
 0.000000E+000
 0.000000E+000
 0.000000E+000
 0.000000E+000
 0.000000E+000
 0.000000E+000
 0.000000E+000
 0.000000E+000
 0.000000E+000
 0.000000E+000
 0.000000E+000
 0.000000E+000
 0.000000E+000
 0.000000E+000
 0.000000E+000
 0.000000E+000
 0.000000E+000
 0.000000E+000
 0.000000E+000
 0.000000E+000
 0.000000E+000
 0.000000E+000
 0.000000E+000
 0.000000E+000
 0.000000E+000
 0.000000E+000
 0.000000E+000
 0.000000E+000
 0.000000E+000
 0.000000E+000
 0.000000E+000
 0.000000E+000
 0.000000E+000
 0.000000E+000
 0.000000E+000
 0.000000E+000
 0.000000E+000
SCALARS stress_12 FLOAT     1
LOOKUP_TABLE default
-0.107585E-001
-0.235155E-001
-0.248620E-001
-0.234891E+000
 0.138196E-001
 0.254776E-001
 0.425868E-001
-0.221503E+000
 0.411109E-001
 0.632309E-001
 0.666822E-001
-0.153953E+000
 0.255360E-001
 0.354251E-001
 0.326670E-001
-0.556395E-001
-0.255360E-001
-0.354251E-001
-0.326670E-001
 0.556395E-001
-0.411109E-001
-0.632309E-001
-0.666822E-001
 0.153953E+000
-0.138196E-001
-0.254776E-001
-0.425868E-001
 0.221503E+000
 0.107585E-001
 0.235155E-001
 0.248620E-001
 0.234891E+000
 0.355690E-001
 0.533394E-001
 0.121009E+000
 0.209952E+000
 0.684705E-001
 0.109043E+000
 0.217369E+000
 0.188408E+000
 0.890713E-001
 0.141969E+000
 0.215554E+000
 0.136942E+000
 0.468893E-001
 0.696592E-001
 0.912844E-001
 0.504948E-001
-0.468893E-001
-0.696592E-001
-0.912844E-001
-0.504948E-001
-0.890713E-001
-0.141969E+000
-0.215554E+000
-0.136942E+000
-0.684705E-001
-0.109043E+000
-0.217369E+000
-0.188408E+000
-0.355690E-001
-0.533394E-001
-0.121009E+000
-0.209952E+000
-0.107585E-001
-0.235155E-001
-0.248620E-001
-0.234891E+000
 0.138196E-001
 0.254776E-001
 0.425868E-001
-0.221503E+000
 0.411109E-001
 0.632309E-001
 0.666822E-001
-0.153953E+000
 0.255360E-001
 0.354251E-001
 0.326670E-001
-0.556395E-001
-0.255360E-001
-0.354251E-001
-0.326670E-001
 0.556395E-001
-0.411109E-001
-0.632309E-001
-0.666822E-001
 0.153953E+000
-0.138196E-001
-0.254776E-001
-0.425868E-001
 0.221503E+000
 0.107585E-001
 0.235155E-001
 0.248620E-001
 0.234891E+000
 0.355690E-001
 0.533394E-001
 0.121009E+000
 0.209952E+000
 0.684705E-001
 0.109043E+000
 0.217369E+000
 0.188408E+000
 0.890713E-001
 0.141969E+000
 0.215554E+000
 0.136942E+000
 0.468893E-001
 0.696592E-001
 0.912844E-001
 0.504948E-001
-0.468893E-001
-0.696592E-001
-0.912844E-001
-0.504948E-001
-0.890713E-001
-0.141969E+000
-0.215554E+000
-0.136942E+000
-0.684705E-001
-0.109043E+000
-0.217369E+000
-0.188408E+000
-0.355690E-001
-0.533394E-001
-0.121009E+000
-0.209952E+000
SCALARS pressure FLOAT     1
LOOKUP_TABLE default
 0.433752E+000
 0.440786E+000
 0.437259E+000
 0.485257E+000
 0.452148E+000
 0.462900E+000
 0.495191E+000
 0.625880E+000
 0.474035E+000
 0.502811E+000
 0.570520E+000
 0.762236E+000
 0.498974E+000
 0.537145E+000
 0.627724E+000
 0.843022E+000
 0.498974E+000
 0.537145E+000
 0.627724E+000
 0.843022E+000
 0.474035E+000
 0.502811E+000
 0.570520E+000
 0.762236E+000
 0.452148E+000
 0.462900E+000
 0.495191E+000
 0.625880E+000
 0.433752E+000
 0.440786E+000
 0.437259E+000
 0.485257E+000
 0.426137E+000
 0.416908E+000
 0.414464E+000
 0.356525E+000
 0.405935E+000
 0.389787E+000
 0.360126E+000
 0.195539E+000
 0.378417E+000
 0.350777E+000
 0.276821E+000
 0.519864E-001
 0.352039E+000
 0.313320E+000
 0.215722E+000
-0.314858E-001
 0.352039E+000
 0.313320E+000
 0.215722E+000
-0.314858E-001
 0.378417E+000
 0.350777E+000
 0.276821E+000
 0.519864E-001
 0.405935E+000
 0.389787E+000
 0.360126E+000
 0.195539E+000
 0.426137E+000
 0.416908E+000
 0.414464E+000
 0.356525E+000
 0.433752E+000
 0.440786E+000
 0.437259E+000
 0.485257E+000
 0.452148E+000
 0.462900E+000
 0.495191E+000
 0.625880E+000
 0.474035E+000
 0.502811E+000
 0.570520E+000
 0.762236E+000
 0.498974E+000
 0.537145E+000
 0.627724E+000
 0.843022E+000
 0.498974E+000
 0.537145E+000
 0.627724E+000
 0.843022E+000
 0.474035E+000
 0.502811E+000
 0.570520E+000
 0.762236E+000
 0.452148E+000
 0.462900E+000
 0.495191E+000
 0.625880E+000
 0.433752E+000
 0.440786E+000
 0.437259E+000
 0.485257E+000
 0.426137E+000
 0.416908E+000
 0.414464E+000
 0.356525E+000
 0.405935E+000
 0.389787E+000
 0.360126E+000
 0.195539E+000
 0.378417E+000
 0.350777E+000
 0.276821E+000
 0.519864E-001
 0.352039E+000
 0.313320E+000
 0.215722E+000
-0.314858E-001
 0.352039E+000
 0.313320E+000
 0.215722E+000
-0.314858E-001
 0.378417E+000
 0.350777E+000
 0.276821E+000
 0.519864E-001
 0.405935E+000
 0.389787E+000
 0.360126E+000
 0.195539E+000
 0.426137E+000
 0.416908E+000
 0.414464E+000
 0.356525E+000
SCALARS von_Mises FLOAT     1
LOOKUP_TABLE default
 0.962756E+000
 0.101236E+001
 0.111349E+001
 0.107527E+001
 0.968639E+000
 0.102305E+001
 0.106357E+001
 0.121375E+001
 0.928822E+000
 0.946629E+000
 0.968316E+000
 0.131517E+001
 0.854064E+000
 0.838053E+000
 0.876365E+000
 0.137496E+001
 0.854064E+000
 0.838053E+000
 0.876365E+000
 0.137496E+001
 0.928822E+000
 0.946629E+000
 0.968316E+000
 0.131517E+001
 0.968639E+000
 0.102305E+001
 0.106357E+001
 0.121375E+001
 0.962756E+000
 0.101236E+001
 0.111349E+001
 0.107527E+001
 0.951422E+000
 0.990501E+000
 0.110800E+001
 0.908019E+000
 0.922565E+000
 0.960829E+000
 0.989419E+000
 0.727505E+000
 0.834642E+000
 0.812072E+000
 0.736816E+000
 0.554054E+000
 0.703318E+000
 0.597475E+000
 0.446522E+000
 0.426491E+000
 0.703318E+000
 0.597475E+000
 0.446522E+000
 0.426491E+000
 0.834642E+000
 0.812072E+000
 0.736816E+000
 0.554054E+000
 0.922565E+000
 0.960829E+000
 0.989419E+000
 0.727505E+000
 0.951422E+000
 0.990501E+000
 0.110800E+001
 0.908019E+000
 0.962756E+000
 0.101236E+001
 0.111349E+001
 0.107527E+001
 0.968639E+000
 0.102305E+001
 0.106357E+001
 0.121375E+001
 0.928822E+000
 0.946629E+000
 0.968316E+000
 0.131517E+001
 0.854064E+000
 0.838053E+000
 0.876365E+000
 0.137496E+001
 0.854064E+000
 0.838053E+000
 0.876365E+000
 0.137496E+001
 0.928822E+000
 0.946629E+000
 0.968316E+000
 0.131517E+001
 0.968639E+000
 0.102305E+001
 0.106357E+001
 0.121375E+001
 0.962756E+000
 0.101236E+001
 0.111349E+001
 0.107527E+001
 0.951422E+000
 0.990501E+000
 0.110800E+001
 0.908019E+000
 0.922565E+000
 0.960829E+000
 0.989419E+000
 0.727505E+000
 0.834642E+000
 0.812072E+000
 0.736816E+000
 0.554054E+000
 0.703318E+000
 0.597475E+000
 0.446522E+000
 0.426491E+000
 0.703318E+000
 0.597475E+000
 0.446522E+000
 0.426491E+000
 0.834642E+000
 0.812072E+000
 0.736816E+000
 0.554054E+000
 0.922565E+000
 0.960829E+000
 0.989419E+000
 0.727505E+000
 0.951422E+000
 0.990501E+000
 0.110800E+001
 0.908019E+000
