# vtk DataFile Version 3.0
output
ASCII
DATASET UNSTRUCTURED_GRID
POINTS   576 FLOAT
-0.100000E+001 -0.100000E+001  0.000000E+000
-0.875000E+000 -0.100000E+001  0.000000E+000
-0.897097E+000 -0.897097E+000  0.000000E+000
-0.785450E+000 -0.899157E+000  0.000000E+000
-0.100000E+001 -0.875000E+000  0.000000E+000
-0.899157E+000 -0.785450E+000  0.000000E+000
-0.750000E+000 -0.100000E+001  0.000000E+000
-0.673612E+000 -0.900983E+000  0.000000E+000
-0.794194E+000 -0.794194E+000  0.000000E+000
-0.695900E+000 -0.798313E+000  0.000000E+000
-0.798313E+000 -0.695900E+000  0.000000E+000
-0.597223E+000 -0.801967E+000  0.000000E+000
-0.100000E+001 -0.750000E+000  0.000000E+000
-0.900983E+000 -0.673612E+000  0.000000E+000
-0.801967E+000 -0.597223E+000  0.000000E+000
-0.625000E+000 -0.100000E+001  0.000000E+000
-0.561606E+000 -0.902560E+000  0.000000E+000
-0.498212E+000 -0.805120E+000  0.000000E+000
-0.691291E+000 -0.691291E+000  0.000000E+000
-0.606349E+000 -0.697470E+000  0.000000E+000
-0.697470E+000 -0.606349E+000  0.000000E+000
-0.520835E+000 -0.702950E+000  0.000000E+000
-0.702950E+000 -0.520835E+000  0.000000E+000
-0.434818E+000 -0.707680E+000  0.000000E+000
-0.100000E+001 -0.625000E+000  0.000000E+000
-0.902560E+000 -0.561606E+000  0.000000E+000
-0.805120E+000 -0.498212E+000  0.000000E+000
-0.707680E+000 -0.434818E+000  0.000000E+000
-0.500000E+000 -0.100000E+001  0.000000E+000
-0.449459E+000 -0.903871E+000  0.000000E+000
-0.398918E+000 -0.807742E+000  0.000000E+000
-0.348377E+000 -0.711614E+000  0.000000E+000
-0.588388E+000 -0.588388E+000  0.000000E+000
-0.516799E+000 -0.596626E+000  0.000000E+000
-0.596626E+000 -0.516799E+000  0.000000E+000
-0.444446E+000 -0.603934E+000  0.000000E+000
-0.603934E+000 -0.444446E+000  0.000000E+000
-0.371425E+000 -0.610240E+000  0.000000E+000
-0.610240E+000 -0.371425E+000  0.000000E+000
-0.297835E+000 -0.615485E+000  0.000000E+000
-0.100000E+001 -0.500000E+000  0.000000E+000
-0.903871E+000 -0.449459E+000  0.000000E+000
-0.807742E+000 -0.398918E+000  0.000000E+000
-0.711614E+000 -0.348377E+000  0.000000E+000
-0.615485E+000 -0.297835E+000  0.000000E+000
-0.375000E+000 -0.100000E+001  0.000000E+000
-0.337196E+000 -0.904904E+000  0.000000E+000
-0.299393E+000 -0.809809E+000  0.000000E+000
-0.261589E+000 -0.714713E+000  0.000000E+000
-0.223786E+000 -0.619618E+000  0.000000E+000
-0.485485E+000 -0.485485E+000  0.000000E+000
-0.427249E+000 -0.495783E+000  0.000000E+000
-0.495783E+000 -0.427249E+000  0.000000E+000
-0.368058E+000 -0.504917E+000  0.000000E+000
-0.504917E+000 -0.368058E+000  0.000000E+000
-0.308031E+000 -0.512800E+000  0.000000E+000
-0.512800E+000 -0.308031E+000  0.000000E+000
-0.247294E+000 -0.519356E+000  0.000000E+000
-0.519356E+000 -0.247294E+000  0.000000E+000
-0.185982E+000 -0.524522E+000  0.000000E+000
-0.100000E+001 -0.375000E+000  0.000000E+000
-0.904904E+000 -0.337196E+000  0.000000E+000
-0.809809E+000 -0.299393E+000  0.000000E+000
-0.714713E+000 -0.261589E+000  0.000000E+000
-0.619618E+000 -0.223786E+000  0.000000E+000
-0.524522E+000 -0.185982E+000  0.000000E+000
-0.250000E+000 -0.100000E+001  0.000000E+000
-0.224847E+000 -0.905650E+000  0.000000E+000
-0.199693E+000 -0.811299E+000  0.000000E+000
-0.174540E+000 -0.716949E+000  0.000000E+000
-0.149386E+000 -0.622598E+000  0.000000E+000
-0.124233E+000 -0.528248E+000  0.000000E+000
-0.382583E+000 -0.382583E+000  0.000000E+000
-0.337699E+000 -0.394939E+000  0.000000E+000
-0.394939E+000 -0.337699E+000  0.000000E+000
-0.291669E+000 -0.405901E+000  0.000000E+000
-0.405901E+000 -0.291669E+000  0.000000E+000
-0.244637E+000 -0.415360E+000  0.000000E+000
-0.415360E+000 -0.244637E+000  0.000000E+000
-0.196753E+000 -0.423227E+000  0.000000E+000
-0.423227E+000 -0.196753E+000  0.000000E+000
-0.148178E+000 -0.429426E+000  0.000000E+000
-0.429426E+000 -0.148178E+000  0.000000E+000
-0.990794E-001 -0.433897E+000  0.000000E+000
-0.100000E+001 -0.250000E+000  0.000000E+000
-0.905650E+000 -0.224847E+000  0.000000E+000
-0.811299E+000 -0.199693E+000  0.000000E+000
-0.716949E+000 -0.174540E+000  0.000000E+000
-0.622598E+000 -0.149386E+000  0.000000E+000
-0.528248E+000 -0.124233E+000  0.000000E+000
-0.433897E+000 -0.990794E-001  0.000000E+000
-0.125000E+000 -0.100000E+001  0.000000E+000
-0.112438E+000 -0.906100E+000  0.000000E+000
-0.998761E-001 -0.812199E+000  0.000000E+000
-0.873141E-001 -0.718299E+000  0.000000E+000
-0.747521E-001 -0.624398E+000  0.000000E+000
-0.621902E-001 -0.530498E+000  0.000000E+000
-0.496282E-001 -0.436597E+000  0.000000E+000
-0.279680E+000 -0.279680E+000  0.000000E+000
-0.248149E+000 -0.294096E+000  0.000000E+000
-0.294096E+000 -0.248149E+000  0.000000E+000
-0.215281E+000 -0.306884E+000  0.000000E+000
-0.306884E+000 -0.215281E+000  0.000000E+000
-0.181243E+000 -0.317920E+000  0.000000E+000
-0.317920E+000 -0.181243E+000  0.000000E+000
-0.146212E+000 -0.327099E+000  0.000000E+000
-0.327099E+000 -0.146212E+000  0.000000E+000
-0.110375E+000 -0.334331E+000  0.000000E+000
-0.334331E+000 -0.110375E+000  0.000000E+000
-0.739260E-001 -0.339547E+000  0.000000E+000
-0.339547E+000 -0.739260E-001  0.000000E+000
-0.370662E-001 -0.342697E+000  0.000000E+000
-0.100000E+001 -0.125000E+000  0.000000E+000
-0.906100E+000 -0.112438E+000  0.000000E+000
-0.812199E+000 -0.998761E-001  0.000000E+000
-0.718299E+000 -0.873141E-001  0.000000E+000
-0.624398E+000 -0.747521E-001  0.000000E+000
-0.530498E+000 -0.621902E-001  0.000000E+000
-0.436597E+000 -0.496282E-001  0.000000E+000
-0.342697E+000 -0.370662E-001  0.000000E+000
 0.000000E+000 -0.100000E+001  0.000000E+000
-0.574053E-017 -0.906250E+000  0.000000E+000
-0.114811E-016 -0.812500E+000  0.000000E+000
-0.172216E-016 -0.718750E+000  0.000000E+000
-0.229621E-016 -0.625000E+000  0.000000E+000
-0.287027E-016 -0.531250E+000  0.000000E+000
-0.344432E-016 -0.437500E+000  0.000000E+000
-0.401837E-016 -0.343750E+000  0.000000E+000
-0.176777E+000 -0.176777E+000  0.000000E+000
-0.158598E+000 -0.193253E+000  0.000000E+000
-0.193253E+000 -0.158598E+000  0.000000E+000
-0.138893E+000 -0.207867E+000  0.000000E+000
-0.207867E+000 -0.138893E+000  0.000000E+000
-0.117849E+000 -0.220480E+000  0.000000E+000
-0.220480E+000 -0.117849E+000  0.000000E+000
-0.956709E-001 -0.230970E+000  0.000000E+000
-0.230970E+000 -0.956709E-001  0.000000E+000
-0.725712E-001 -0.239235E+000  0.000000E+000
-0.239235E+000 -0.725712E-001  0.000000E+000
-0.487726E-001 -0.245196E+000  0.000000E+000
-0.245196E+000 -0.487726E-001  0.000000E+000
-0.245043E-001 -0.248796E+000  0.000000E+000
-0.248796E+000 -0.245043E-001  0.000000E+000
-0.459243E-016 -0.250000E+000  0.000000E+000
-0.100000E+001  0.000000E+000  0.000000E+000
-0.906250E+000  0.114811E-016  0.000000E+000
-0.812500E+000  0.229621E-016  0.000000E+000
-0.718750E+000  0.344432E-016  0.000000E+000
-0.625000E+000  0.459243E-016  0.000000E+000
-0.531250E+000  0.574053E-016  0.000000E+000
-0.437500E+000  0.688864E-016  0.000000E+000
-0.343750E+000  0.803674E-016  0.000000E+000
-0.250000E+000  0.918485E-016  0.000000E+000
 0.125000E+000 -0.100000E+001  0.000000E+000
 0.112438E+000 -0.906100E+000  0.000000E+000
 0.998761E-001 -0.812199E+000  0.000000E+000
 0.873141E-001 -0.718299E+000  0.000000E+000
 0.747521E-001 -0.624398E+000  0.000000E+000
 0.621902E-001 -0.530498E+000  0.000000E+000
 0.496282E-001 -0.436597E+000  0.000000E+000
 0.370662E-001 -0.342697E+000  0.000000E+000
 0.245043E-001 -0.248796E+000  0.000000E+000
-0.100000E+001  0.125000E+000  0.000000E+000
-0.906100E+000  0.112438E+000  0.000000E+000
-0.812199E+000  0.998761E-001  0.000000E+000
-0.718299E+000  0.873141E-001  0.000000E+000
-0.624398E+000  0.747521E-001  0.000000E+000
-0.530498E+000  0.621902E-001  0.000000E+000
-0.436597E+000  0.496282E-001  0.000000E+000
-0.342697E+000  0.370662E-001  0.000000E+000
-0.248796E+000  0.245043E-001  0.000000E+000
 0.250000E+000 -0.100000E+001  0.000000E+000
 0.224847E+000 -0.905650E+000  0.000000E+000
 0.199693E+000 -0.811299E+000  0.000000E+000
 0.174540E+000 -0.716949E+000  0.000000E+000
 0.149386E+000 -0.622598E+000  0.000000E+000
 0.124233E+000 -0.528248E+000  0.000000E+000
 0.990794E-001 -0.433897E+000  0.000000E+000
 0.739260E-001 -0.339547E+000  0.000000E+000
 0.487726E-001 -0.245196E+000  0.000000E+000
-0.100000E+001  0.250000E+000  0.000000E+000
-0.905650E+000  0.224847E+000  0.000000E+000
-0.811299E+000  0.199693E+000  0.000000E+000
-0.716949E+000  0.174540E+000  0.000000E+000
-0.622598E+000  0.149386E+000  0.000000E+000
-0.528248E+000  0.124233E+000  0.000000E+000
-0.433897E+000  0.990794E-001  0.000000E+000
-0.339547E+000  0.739260E-001  0.000000E+000
-0.245196E+000  0.487726E-001  0.000000E+000
 0.375000E+000 -0.100000E+001  0.000000E+000
 0.337196E+000 -0.904904E+000  0.000000E+000
 0.299393E+000 -0.809809E+000  0.000000E+000
 0.261589E+000 -0.714713E+000  0.000000E+000
 0.223786E+000 -0.619618E+000  0.000000E+000
 0.185982E+000 -0.524522E+000  0.000000E+000
 0.148178E+000 -0.429426E+000  0.000000E+000
 0.110375E+000 -0.334331E+000  0.000000E+000
 0.725712E-001 -0.239235E+000  0.000000E+000
-0.100000E+001  0.375000E+000  0.000000E+000
-0.904904E+000  0.337196E+000  0.000000E+000
-0.809809E+000  0.299393E+000  0.000000E+000
-0.714713E+000  0.261589E+000  0.000000E+000
-0.619618E+000  0.223786E+000  0.000000E+000
-0.524522E+000  0.185982E+000  0.000000E+000
-0.429426E+000  0.148178E+000  0.000000E+000
-0.334331E+000  0.110375E+000  0.000000E+000
-0.239235E+000  0.725712E-001  0.000000E+000
 0.500000E+000 -0.100000E+001  0.000000E+000
 0.449459E+000 -0.903871E+000  0.000000E+000
 0.398918E+000 -0.807742E+000  0.000000E+000
 0.348377E+000 -0.711614E+000  0.000000E+000
 0.297835E+000 -0.615485E+000  0.000000E+000
 0.247294E+000 -0.519356E+000  0.000000E+000
 0.196753E+000 -0.423227E+000  0.000000E+000
 0.146212E+000 -0.327099E+000  0.000000E+000
 0.956709E-001 -0.230970E+000  0.000000E+000
-0.100000E+001  0.500000E+000  0.000000E+000
-0.903871E+000  0.449459E+000  0.000000E+000
-0.807742E+000  0.398918E+000  0.000000E+000
-0.711614E+000  0.348377E+000  0.000000E+000
-0.615485E+000  0.297835E+000  0.000000E+000
-0.519356E+000  0.247294E+000  0.000000E+000
-0.423227E+000  0.196753E+000  0.000000E+000
-0.327099E+000  0.146212E+000  0.000000E+000
-0.230970E+000  0.956709E-001  0.000000E+000
 0.625000E+000 -0.100000E+001  0.000000E+000
 0.561606E+000 -0.902560E+000  0.000000E+000
 0.498212E+000 -0.805120E+000  0.000000E+000
 0.434818E+000 -0.707680E+000  0.000000E+000
 0.371425E+000 -0.610240E+000  0.000000E+000
 0.308031E+000 -0.512800E+000  0.000000E+000
 0.244637E+000 -0.415360E+000  0.000000E+000
 0.181243E+000 -0.317920E+000  0.000000E+000
 0.117849E+000 -0.220480E+000  0.000000E+000
-0.100000E+001  0.625000E+000  0.000000E+000
-0.902560E+000  0.561606E+000  0.000000E+000
-0.805120E+000  0.498212E+000  0.000000E+000
-0.707680E+000  0.434818E+000  0.000000E+000
-0.610240E+000  0.371425E+000  0.000000E+000
-0.512800E+000  0.308031E+000  0.000000E+000
-0.415360E+000  0.244637E+000  0.000000E+000
-0.317920E+000  0.181243E+000  0.000000E+000
-0.220480E+000  0.117849E+000  0.000000E+000
 0.750000E+000 -0.100000E+001  0.000000E+000
 0.673612E+000 -0.900983E+000  0.000000E+000
 0.597223E+000 -0.801967E+000  0.000000E+000
 0.520835E+000 -0.702950E+000  0.000000E+000
 0.444446E+000 -0.603934E+000  0.000000E+000
 0.368058E+000 -0.504917E+000  0.000000E+000
 0.291669E+000 -0.405901E+000  0.000000E+000
 0.215281E+000 -0.306884E+000  0.000000E+000
 0.138893E+000 -0.207867E+000  0.000000E+000
-0.100000E+001  0.750000E+000  0.000000E+000
-0.900983E+000  0.673612E+000  0.000000E+000
-0.801967E+000  0.597223E+000  0.000000E+000
-0.702950E+000  0.520835E+000  0.000000E+000
-0.603934E+000  0.444446E+000  0.000000E+000
-0.504917E+000  0.368058E+000  0.000000E+000
-0.405901E+000  0.291669E+000  0.000000E+000
-0.306884E+000  0.215281E+000  0.000000E+000
-0.207867E+000  0.138893E+000  0.000000E+000
 0.875000E+000 -0.100000E+001  0.000000E+000
 0.785450E+000 -0.899157E+000  0.000000E+000
 0.695900E+000 -0.798313E+000  0.000000E+000
 0.606349E+000 -0.697470E+000  0.000000E+000
 0.516799E+000 -0.596626E+000  0.000000E+000
 0.427249E+000 -0.495783E+000  0.000000E+000
 0.337699E+000 -0.394939E+000  0.000000E+000
 0.248149E+000 -0.294096E+000  0.000000E+000
 0.158598E+000 -0.193253E+000  0.000000E+000
-0.100000E+001  0.875000E+000  0.000000E+000
-0.899157E+000  0.785450E+000  0.000000E+000
-0.798313E+000  0.695900E+000  0.000000E+000
-0.697470E+000  0.606349E+000  0.000000E+000
-0.596626E+000  0.516799E+000  0.000000E+000
-0.495783E+000  0.427249E+000  0.000000E+000
-0.394939E+000  0.337699E+000  0.000000E+000
-0.294096E+000  0.248149E+000  0.000000E+000
-0.193253E+000  0.158598E+000  0.000000E+000
 0.100000E+001 -0.100000E+001  0.000000E+000
 0.897097E+000 -0.897097E+000  0.000000E+000
 0.794194E+000 -0.794194E+000  0.000000E+000
 0.691291E+000 -0.691291E+000  0.000000E+000
 0.588388E+000 -0.588388E+000  0.000000E+000
 0.485485E+000 -0.485485E+000  0.000000E+000
 0.382583E+000 -0.382583E+000  0.000000E+000
 0.279680E+000 -0.279680E+000  0.000000E+000
 0.176777E+000 -0.176777E+000  0.000000E+000
-0.100000E+001  0.100000E+001  0.000000E+000
-0.897097E+000  0.897097E+000  0.000000E+000
-0.794194E+000  0.794194E+000  0.000000E+000
-0.691291E+000  0.691291E+000  0.000000E+000
-0.588388E+000  0.588388E+000  0.000000E+000
-0.485485E+000  0.485485E+000  0.000000E+000
-0.382583E+000  0.382583E+000  0.000000E+000
-0.279680E+000  0.279680E+000  0.000000E+000
-0.176777E+000  0.176777E+000  0.000000E+000
 0.100000E+001 -0.875000E+000  0.000000E+000
 0.899157E+000 -0.785450E+000  0.000000E+000
 0.798313E+000 -0.695900E+000  0.000000E+000
 0.697470E+000 -0.606349E+000  0.000000E+000
 0.596626E+000 -0.516799E+000  0.000000E+000
 0.495783E+000 -0.427249E+000  0.000000E+000
 0.394939E+000 -0.337699E+000  0.000000E+000
 0.294096E+000 -0.248149E+000  0.000000E+000
 0.193253E+000 -0.158598E+000  0.000000E+000
-0.875000E+000  0.100000E+001  0.000000E+000
-0.785450E+000  0.899157E+000  0.000000E+000
-0.695900E+000  0.798313E+000  0.000000E+000
-0.606349E+000  0.697470E+000  0.000000E+000
-0.516799E+000  0.596626E+000  0.000000E+000
-0.427249E+000  0.495783E+000  0.000000E+000
-0.337699E+000  0.394939E+000  0.000000E+000
-0.248149E+000  0.294096E+000  0.000000E+000
-0.158598E+000  0.193253E+000  0.000000E+000
 0.100000E+001 -0.750000E+000  0.000000E+000
 0.900983E+000 -0.673612E+000  0.000000E+000
 0.801967E+000 -0.597223E+000  0.000000E+000
 0.702950E+000 -0.520835E+000  0.000000E+000
 0.603934E+000 -0.444446E+000  0.000000E+000
 0.504917E+000 -0.368058E+000  0.000000E+000
 0.405901E+000 -0.291669E+000  0.000000E+000
 0.306884E+000 -0.215281E+000  0.000000E+000
 0.207867E+000 -0.138893E+000  0.000000E+000
-0.750000E+000  0.100000E+001  0.000000E+000
-0.673612E+000  0.900983E+000  0.000000E+000
-0.597223E+000  0.801967E+000  0.000000E+000
-0.520835E+000  0.702950E+000  0.000000E+000
-0.444446E+000  0.603934E+000  0.000000E+000
-0.368058E+000  0.504917E+000  0.000000E+000
-0.291669E+000  0.405901E+000  0.000000E+000
-0.215281E+000  0.306884E+000  0.000000E+000
-0.138893E+000  0.207867E+000  0.000000E+000
 0.100000E+001 -0.625000E+000  0.000000E+000
 0.902560E+000 -0.561606E+000  0.000000E+000
 0.805120E+000 -0.498212E+000  0.000000E+000
 0.707680E+000 -0.434818E+000  0.000000E+000
 0.610240E+000 -0.371425E+000  0.000000E+000
 0.512800E+000 -0.308031E+000  0.000000E+000
 0.415360E+000 -0.244637E+000  0.000000E+000
 0.317920E+000 -0.181243E+000  0.000000E+000
 0.220480E+000 -0.117849E+000  0.000000E+000
-0.625000E+000  0.100000E+001  0.000000E+000
-0.561606E+000  0.902560E+000  0.000000E+000
-0.498212E+000  0.805120E+000  0.000000E+000
-0.434818E+000  0.707680E+000  0.000000E+000
-0.371425E+000  0.610240E+000  0.000000E+000
-0.308031E+000  0.512800E+000  0.000000E+000
-0.244637E+000  0.415360E+000  0.000000E+000
-0.181243E+000  0.317920E+000  0.000000E+000
-0.117849E+000  0.220480E+000  0.000000E+000
 0.100000E+001 -0.500000E+000  0.000000E+000
 0.903871E+000 -0.449459E+000  0.000000E+000
 0.807742E+000 -0.398918E+000  0.000000E+000
 0.711614E+000 -0.348377E+000  0.000000E+000
 0.615485E+000 -0.297835E+000  0.000000E+000
 0.519356E+000 -0.247294E+000  0.000000E+000
 0.423227E+000 -0.196753E+000  0.000000E+000
 0.327099E+000 -0.146212E+000  0.000000E+000
 0.230970E+000 -0.956709E-001  0.000000E+000
-0.500000E+000  0.100000E+001  0.000000E+000
-0.449459E+000  0.903871E+000  0.000000E+000
-0.398918E+000  0.807742E+000  0.000000E+000
-0.348377E+000  0.711614E+000  0.000000E+000
-0.297835E+000  0.615485E+000  0.000000E+000
-0.247294E+000  0.519356E+000  0.000000E+000
-0.196753E+000  0.423227E+000  0.000000E+000
-0.146212E+000  0.327099E+000  0.000000E+000
-0.956709E-001  0.230970E+000  0.000000E+000
 0.100000E+001 -0.375000E+000  0.000000E+000
 0.904904E+000 -0.337196E+000  0.000000E+000
 0.809809E+000 -0.299393E+000  0.000000E+000
 0.714713E+000 -0.261589E+000  0.000000E+000
 0.619618E+000 -0.223786E+000  0.000000E+000
 0.524522E+000 -0.185982E+000  0.000000E+000
 0.429426E+000 -0.148178E+000  0.000000E+000
 0.334331E+000 -0.110375E+000  0.000000E+000
 0.239235E+000 -0.725712E-001  0.000000E+000
-0.375000E+000  0.100000E+001  0.000000E+000
-0.337196E+000  0.904904E+000  0.000000E+000
-0.299393E+000  0.809809E+000  0.000000E+000
-0.261589E+000  0.714713E+000  0.000000E+000
-0.223786E+000  0.619618E+000  0.000000E+000
-0.185982E+000  0.524522E+000  0.000000E+000
-0.148178E+000  0.429426E+000  0.000000E+000
-0.110375E+000  0.334331E+000  0.000000E+000
-0.725712E-001  0.239235E+000  0.000000E+000
 0.100000E+001 -0.250000E+000  0.000000E+000
 0.905650E+000 -0.224847E+000  0.000000E+000
 0.811299E+000 -0.199693E+000  0.000000E+000
 0.716949E+000 -0.174540E+000  0.000000E+000
 0.622598E+000 -0.149386E+000  0.000000E+000
 0.528248E+000 -0.124233E+000  0.000000E+000
 0.433897E+000 -0.990794E-001  0.000000E+000
 0.339547E+000 -0.739260E-001  0.000000E+000
 0.245196E+000 -0.487726E-001  0.000000E+000
-0.250000E+000  0.100000E+001  0.000000E+000
-0.224847E+000  0.905650E+000  0.000000E+000
-0.199693E+000  0.811299E+000  0.000000E+000
-0.174540E+000  0.716949E+000  0.000000E+000
-0.149386E+000  0.622598E+000  0.000000E+000
-0.124233E+000  0.528248E+000  0.000000E+000
-0.990794E-001  0.433897E+000  0.000000E+000
-0.739260E-001  0.339547E+000  0.000000E+000
-0.487726E-001  0.245196E+000  0.000000E+000
 0.100000E+001 -0.125000E+000  0.000000E+000
 0.906100E+000 -0.112438E+000  0.000000E+000
 0.812199E+000 -0.998761E-001  0.000000E+000
 0.718299E+000 -0.873141E-001  0.000000E+000
 0.624398E+000 -0.747521E-001  0.000000E+000
 0.530498E+000 -0.621902E-001  0.000000E+000
 0.436597E+000 -0.496282E-001  0.000000E+000
 0.342697E+000 -0.370662E-001  0.000000E+000
 0.248796E+000 -0.245043E-001  0.000000E+000
-0.125000E+000  0.100000E+001  0.000000E+000
-0.112438E+000  0.906100E+000  0.000000E+000
-0.998761E-001  0.812199E+000  0.000000E+000
-0.873141E-001  0.718299E+000  0.000000E+000
-0.747521E-001  0.624398E+000  0.000000E+000
-0.621902E-001  0.530498E+000  0.000000E+000
-0.496282E-001  0.436597E+000  0.000000E+000
-0.370662E-001  0.342697E+000  0.000000E+000
-0.245043E-001  0.248796E+000  0.000000E+000
 0.100000E+001  0.000000E+000  0.000000E+000
 0.906250E+000 -0.765404E-017  0.000000E+000
 0.812500E+000 -0.153081E-016  0.000000E+000
 0.718750E+000 -0.229621E-016  0.000000E+000
 0.625000E+000 -0.306162E-016  0.000000E+000
 0.531250E+000 -0.382702E-016  0.000000E+000
 0.437500E+000 -0.459243E-016  0.000000E+000
 0.343750E+000 -0.535783E-016  0.000000E+000
 0.250000E+000 -0.612323E-016  0.000000E+000
 0.000000E+000  0.100000E+001  0.000000E+000
 0.956755E-017  0.906250E+000  0.000000E+000
 0.191351E-016  0.812500E+000  0.000000E+000
 0.287027E-016  0.718750E+000  0.000000E+000
 0.382702E-016  0.625000E+000  0.000000E+000
 0.478378E-016  0.531250E+000  0.000000E+000
 0.574053E-016  0.437500E+000  0.000000E+000
 0.669729E-016  0.343750E+000  0.000000E+000
 0.765404E-016  0.250000E+000  0.000000E+000
 0.100000E+001  0.125000E+000  0.000000E+000
 0.906100E+000  0.112438E+000  0.000000E+000
 0.812199E+000  0.998761E-001  0.000000E+000
 0.718299E+000  0.873141E-001  0.000000E+000
 0.624398E+000  0.747521E-001  0.000000E+000
 0.530498E+000  0.621902E-001  0.000000E+000
 0.436597E+000  0.496282E-001  0.000000E+000
 0.342697E+000  0.370662E-001  0.000000E+000
 0.248796E+000  0.245043E-001  0.000000E+000
 0.125000E+000  0.100000E+001  0.000000E+000
 0.112438E+000  0.906100E+000  0.000000E+000
 0.998761E-001  0.812199E+000  0.000000E+000
 0.873141E-001  0.718299E+000  0.000000E+000
 0.747521E-001  0.624398E+000  0.000000E+000
 0.621902E-001  0.530498E+000  0.000000E+000
 0.496282E-001  0.436597E+000  0.000000E+000
 0.370662E-001  0.342697E+000  0.000000E+000
 0.245043E-001  0.248796E+000  0.000000E+000
 0.100000E+001  0.250000E+000  0.000000E+000
 0.905650E+000  0.224847E+000  0.000000E+000
 0.811299E+000  0.199693E+000  0.000000E+000
 0.716949E+000  0.174540E+000  0.000000E+000
 0.622598E+000  0.149386E+000  0.000000E+000
 0.528248E+000  0.124233E+000  0.000000E+000
 0.433897E+000  0.990794E-001  0.000000E+000
 0.339547E+000  0.739260E-001  0.000000E+000
 0.245196E+000  0.487726E-001  0.000000E+000
 0.250000E+000  0.100000E+001  0.000000E+000
 0.224847E+000  0.905650E+000  0.000000E+000
 0.199693E+000  0.811299E+000  0.000000E+000
 0.174540E+000  0.716949E+000  0.000000E+000
 0.149386E+000  0.622598E+000  0.000000E+000
 0.124233E+000  0.528248E+000  0.000000E+000
 0.990794E-001  0.433897E+000  0.000000E+000
 0.739260E-001  0.339547E+000  0.000000E+000
 0.487726E-001  0.245196E+000  0.000000E+000
 0.100000E+001  0.375000E+000  0.000000E+000
 0.904904E+000  0.337196E+000  0.000000E+000
 0.809809E+000  0.299393E+000  0.000000E+000
 0.714713E+000  0.261589E+000  0.000000E+000
 0.619618E+000  0.223786E+000  0.000000E+000
 0.524522E+000  0.185982E+000  0.000000E+000
 0.429426E+000  0.148178E+000  0.000000E+000
 0.334331E+000  0.110375E+000  0.000000E+000
 0.239235E+000  0.725712E-001  0.000000E+000
 0.375000E+000  0.100000E+001  0.000000E+000
 0.337196E+000  0.904904E+000  0.000000E+000
 0.299393E+000  0.809809E+000  0.000000E+000
 0.261589E+000  0.714713E+000  0.000000E+000
 0.223786E+000  0.619618E+000  0.000000E+000
 0.185982E+000  0.524522E+000  0.000000E+000
 0.148178E+000  0.429426E+000  0.000000E+000
 0.110375E+000  0.334331E+000  0.000000E+000
 0.725712E-001  0.239235E+000  0.000000E+000
 0.100000E+001  0.500000E+000  0.000000E+000
 0.903871E+000  0.449459E+000  0.000000E+000
 0.807742E+000  0.398918E+000  0.000000E+000
 0.711614E+000  0.348377E+000  0.000000E+000
 0.615485E+000  0.297835E+000  0.000000E+000
 0.519356E+000  0.247294E+000  0.000000E+000
 0.423227E+000  0.196753E+000  0.000000E+000
 0.327099E+000  0.146212E+000  0.000000E+000
 0.230970E+000  0.956709E-001  0.000000E+000
 0.500000E+000  0.100000E+001  0.000000E+000
 0.449459E+000  0.903871E+000  0.000000E+000
 0.398918E+000  0.807742E+000  0.000000E+000
 0.348377E+000  0.711614E+000  0.000000E+000
 0.297835E+000  0.615485E+000  0.000000E+000
 0.247294E+000  0.519356E+000  0.000000E+000
 0.196753E+000  0.423227E+000  0.000000E+000
 0.146212E+000  0.327099E+000  0.000000E+000
 0.956709E-001  0.230970E+000  0.000000E+000
 0.100000E+001  0.625000E+000  0.000000E+000
 0.902560E+000  0.561606E+000  0.000000E+000
 0.805120E+000  0.498212E+000  0.000000E+000
 0.707680E+000  0.434818E+000  0.000000E+000
 0.610240E+000  0.371425E+000  0.000000E+000
 0.512800E+000  0.308031E+000  0.000000E+000
 0.415360E+000  0.244637E+000  0.000000E+000
 0.317920E+000  0.181243E+000  0.000000E+000
 0.220480E+000  0.117849E+000  0.000000E+000
 0.625000E+000  0.100000E+001  0.000000E+000
 0.561606E+000  0.902560E+000  0.000000E+000
 0.498212E+000  0.805120E+000  0.000000E+000
 0.434818E+000  0.707680E+000  0.000000E+000
 0.371425E+000  0.610240E+000  0.000000E+000
 0.308031E+000  0.512800E+000  0.000000E+000
 0.244637E+000  0.415360E+000  0.000000E+000
 0.181243E+000  0.317920E+000  0.000000E+000
 0.117849E+000  0.220480E+000  0.000000E+000
 0.100000E+001  0.750000E+000  0.000000E+000
 0.900983E+000  0.673612E+000  0.000000E+000
 0.801967E+000  0.597223E+000  0.000000E+000
 0.702950E+000  0.520835E+000  0.000000E+000
 0.603934E+000  0.444446E+000  0.000000E+000
 0.504917E+000  0.368058E+000  0.000000E+000
 0.405901E+000  0.291669E+000  0.000000E+000
 0.306884E+000  0.215281E+000  0.000000E+000
 0.207867E+000  0.138893E+000  0.000000E+000
 0.750000E+000  0.100000E+001  0.000000E+000
 0.673612E+000  0.900983E+000  0.000000E+000
 0.597223E+000  0.801967E+000  0.000000E+000
 0.520835E+000  0.702950E+000  0.000000E+000
 0.444446E+000  0.603934E+000  0.000000E+000
 0.368058E+000  0.504917E+000  0.000000E+000
 0.291669E+000  0.405901E+000  0.000000E+000
 0.215281E+000  0.306884E+000  0.000000E+000
 0.138893E+000  0.207867E+000  0.000000E+000
 0.100000E+001  0.875000E+000  0.000000E+000
 0.899157E+000  0.785450E+000  0.000000E+000
 0.798313E+000  0.695900E+000  0.000000E+000
 0.697470E+000  0.606349E+000  0.000000E+000
 0.596626E+000  0.516799E+000  0.000000E+000
 0.495783E+000  0.427249E+000  0.000000E+000
 0.394939E+000  0.337699E+000  0.000000E+000
 0.294096E+000  0.248149E+000  0.000000E+000
 0.193253E+000  0.158598E+000  0.000000E+000
 0.875000E+000  0.100000E+001  0.000000E+000
 0.785450E+000  0.899157E+000  0.000000E+000
 0.695900E+000  0.798313E+000  0.000000E+000
 0.606349E+000  0.697470E+000  0.000000E+000
 0.516799E+000  0.596626E+000  0.000000E+000
 0.427249E+000  0.495783E+000  0.000000E+000
 0.337699E+000  0.394939E+000  0.000000E+000
 0.248149E+000  0.294096E+000  0.000000E+000
 0.158598E+000  0.193253E+000  0.000000E+000
 0.100000E+001  0.100000E+001  0.000000E+000
 0.897097E+000  0.897097E+000  0.000000E+000
 0.794194E+000  0.794194E+000  0.000000E+000
 0.691291E+000  0.691291E+000  0.000000E+000
 0.588388E+000  0.588388E+000  0.000000E+000
 0.485485E+000  0.485485E+000  0.000000E+000
 0.382583E+000  0.382583E+000  0.000000E+000
 0.279680E+000  0.279680E+000  0.000000E+000
 0.176777E+000  0.176777E+000  0.000000E+000
CELLS   512  2560
    4    0     1     3     2
    4    2     3     9     8
    4    8     9    19    18
    4   18    19    33    32
    4   32    33    51    50
    4   50    51    73    72
    4   72    73    99    98
    4   98    99   129   128
    4    1     6     7     3
    4    3     7    11     9
    4    9    11    21    19
    4   19    21    35    33
    4   33    35    53    51
    4   51    53    75    73
    4   73    75   101    99
    4   99   101   131   129
    4    6    15    16     7
    4    7    16    17    11
    4   11    17    23    21
    4   21    23    37    35
    4   35    37    55    53
    4   53    55    77    75
    4   75    77   103   101
    4  101   103   133   131
    4   15    28    29    16
    4   16    29    30    17
    4   17    30    31    23
    4   23    31    39    37
    4   37    39    57    55
    4   55    57    79    77
    4   77    79   105   103
    4  103   105   135   133
    4   28    45    46    29
    4   29    46    47    30
    4   30    47    48    31
    4   31    48    49    39
    4   39    49    59    57
    4   57    59    81    79
    4   79    81   107   105
    4  105   107   137   135
    4   45    66    67    46
    4   46    67    68    47
    4   47    68    69    48
    4   48    69    70    49
    4   49    70    71    59
    4   59    71    83    81
    4   81    83   109   107
    4  107   109   139   137
    4   66    91    92    67
    4   67    92    93    68
    4   68    93    94    69
    4   69    94    95    70
    4   70    95    96    71
    4   71    96    97    83
    4   83    97   111   109
    4  109   111   141   139
    4   91   120   121    92
    4   92   121   122    93
    4   93   122   123    94
    4   94   123   124    95
    4   95   124   125    96
    4   96   125   126    97
    4   97   126   127   111
    4  111   127   143   141
    4  120   153   154   121
    4  121   154   155   122
    4  122   155   156   123
    4  123   156   157   124
    4  124   157   158   125
    4  125   158   159   126
    4  126   159   160   127
    4  127   160   161   143
    4  153   171   172   154
    4  154   172   173   155
    4  155   173   174   156
    4  156   174   175   157
    4  157   175   176   158
    4  158   176   177   159
    4  159   177   178   160
    4  160   178   179   161
    4  171   189   190   172
    4  172   190   191   173
    4  173   191   192   174
    4  174   192   193   175
    4  175   193   194   176
    4  176   194   195   177
    4  177   195   196   178
    4  178   196   197   179
    4  189   207   208   190
    4  190   208   209   191
    4  191   209   210   192
    4  192   210   211   193
    4  193   211   212   194
    4  194   212   213   195
    4  195   213   214   196
    4  196   214   215   197
    4  207   225   226   208
    4  208   226   227   209
    4  209   227   228   210
    4  210   228   229   211
    4  211   229   230   212
    4  212   230   231   213
    4  213   231   232   214
    4  214   232   233   215
    4  225   243   244   226
    4  226   244   245   227
    4  227   245   246   228
    4  228   246   247   229
    4  229   247   248   230
    4  230   248   249   231
    4  231   249   250   232
    4  232   250   251   233
    4  243   261   262   244
    4  244   262   263   245
    4  245   263   264   246
    4  246   264   265   247
    4  247   265   266   248
    4  248   266   267   249
    4  249   267   268   250
    4  250   268   269   251
    4  261   279   280   262
    4  262   280   281   263
    4  263   281   282   264
    4  264   282   283   265
    4  265   283   284   266
    4  266   284   285   267
    4  267   285   286   268
    4  268   286   287   269
    4  279   297   298   280
    4  280   298   299   281
    4  281   299   300   282
    4  282   300   301   283
    4  283   301   302   284
    4  284   302   303   285
    4  285   303   304   286
    4  286   304   305   287
    4  297   315   316   298
    4  298   316   317   299
    4  299   317   318   300
    4  300   318   319   301
    4  301   319   320   302
    4  302   320   321   303
    4  303   321   322   304
    4  304   322   323   305
    4  315   333   334   316
    4  316   334   335   317
    4  317   335   336   318
    4  318   336   337   319
    4  319   337   338   320
    4  320   338   339   321
    4  321   339   340   322
    4  322   340   341   323
    4  333   351   352   334
    4  334   352   353   335
    4  335   353   354   336
    4  336   354   355   337
    4  337   355   356   338
    4  338   356   357   339
    4  339   357   358   340
    4  340   358   359   341
    4  351   369   370   352
    4  352   370   371   353
    4  353   371   372   354
    4  354   372   373   355
    4  355   373   374   356
    4  356   374   375   357
    4  357   375   376   358
    4  358   376   377   359
    4  369   387   388   370
    4  370   388   389   371
    4  371   389   390   372
    4  372   390   391   373
    4  373   391   392   374
    4  374   392   393   375
    4  375   393   394   376
    4  376   394   395   377
    4  387   405   406   388
    4  388   406   407   389
    4  389   407   408   390
    4  390   408   409   391
    4  391   409   410   392
    4  392   410   411   393
    4  393   411   412   394
    4  394   412   413   395
    4  405   423   424   406
    4  406   424   425   407
    4  407   425   426   408
    4  408   426   427   409
    4  409   427   428   410
    4  410   428   429   411
    4  411   429   430   412
    4  412   430   431   413
    4  423   441   442   424
    4  424   442   443   425
    4  425   443   444   426
    4  426   444   445   427
    4  427   445   446   428
    4  428   446   447   429
    4  429   447   448   430
    4  430   448   449   431
    4  441   459   460   442
    4  442   460   461   443
    4  443   461   462   444
    4  444   462   463   445
    4  445   463   464   446
    4  446   464   465   447
    4  447   465   466   448
    4  448   466   467   449
    4  459   477   478   460
    4  460   478   479   461
    4  461   479   480   462
    4  462   480   481   463
    4  463   481   482   464
    4  464   482   483   465
    4  465   483   484   466
    4  466   484   485   467
    4  477   495   496   478
    4  478   496   497   479
    4  479   497   498   480
    4  480   498   499   481
    4  481   499   500   482
    4  482   500   501   483
    4  483   501   502   484
    4  484   502   503   485
    4  495   513   514   496
    4  496   514   515   497
    4  497   515   516   498
    4  498   516   517   499
    4  499   517   518   500
    4  500   518   519   501
    4  501   519   520   502
    4  502   520   521   503
    4  513   531   532   514
    4  514   532   533   515
    4  515   533   534   516
    4  516   534   535   517
    4  517   535   536   518
    4  518   536   537   519
    4  519   537   538   520
    4  520   538   539   521
    4  531   549   550   532
    4  532   550   551   533
    4  533   551   552   534
    4  534   552   553   535
    4  535   553   554   536
    4  536   554   555   537
    4  537   555   556   538
    4  538   556   557   539
    4  549   567   568   550
    4  550   568   569   551
    4  551   569   570   552
    4  552   570   571   553
    4  553   571   572   554
    4  554   572   573   555
    4  555   573   574   556
    4  556   574   575   557
    4  567   558   559   568
    4  568   559   560   569
    4  569   560   561   570
    4  570   561   562   571
    4  571   562   563   572
    4  572   563   564   573
    4  573   564   565   574
    4  574   565   566   575
    4  558   540   541   559
    4  559   541   542   560
    4  560   542   543   561
    4  561   543   544   562
    4  562   544   545   563
    4  563   545   546   564
    4  564   546   547   565
    4  565   547   548   566
    4  540   522   523   541
    4  541   523   524   542
    4  542   524   525   543
    4  543   525   526   544
    4  544   526   527   545
    4  545   527   528   546
    4  546   528   529   547
    4  547   529   530   548
    4  522   504   505   523
    4  523   505   506   524
    4  524   506   507   525
    4  525   507   508   526
    4  526   508   509   527
    4  527   509   510   528
    4  528   510   511   529
    4  529   511   512   530
    4  504   486   487   505
    4  505   487   488   506
    4  506   488   489   507
    4  507   489   490   508
    4  508   490   491   509
    4  509   491   492   510
    4  510   492   493   511
    4  511   493   494   512
    4  486   468   469   487
    4  487   469   470   488
    4  488   470   471   489
    4  489   471   472   490
    4  490   472   473   491
    4  491   473   474   492
    4  492   474   475   493
    4  493   475   476   494
    4  468   450   451   469
    4  469   451   452   470
    4  470   452   453   471
    4  471   453   454   472
    4  472   454   455   473
    4  473   455   456   474
    4  474   456   457   475
    4  475   457   458   476
    4  450   432   433   451
    4  451   433   434   452
    4  452   434   435   453
    4  453   435   436   454
    4  454   436   437   455
    4  455   437   438   456
    4  456   438   439   457
    4  457   439   440   458
    4  432   414   415   433
    4  433   415   416   434
    4  434   416   417   435
    4  435   417   418   436
    4  436   418   419   437
    4  437   419   420   438
    4  438   420   421   439
    4  439   421   422   440
    4  414   396   397   415
    4  415   397   398   416
    4  416   398   399   417
    4  417   399   400   418
    4  418   400   401   419
    4  419   401   402   420
    4  420   402   403   421
    4  421   403   404   422
    4  396   378   379   397
    4  397   379   380   398
    4  398   380   381   399
    4  399   381   382   400
    4  400   382   383   401
    4  401   383   384   402
    4  402   384   385   403
    4  403   385   386   404
    4  378   360   361   379
    4  379   361   362   380
    4  380   362   363   381
    4  381   363   364   382
    4  382   364   365   383
    4  383   365   366   384
    4  384   366   367   385
    4  385   367   368   386
    4  360   342   343   361
    4  361   343   344   362
    4  362   344   345   363
    4  363   345   346   364
    4  364   346   347   365
    4  365   347   348   366
    4  366   348   349   367
    4  367   349   350   368
    4  342   324   325   343
    4  343   325   326   344
    4  344   326   327   345
    4  345   327   328   346
    4  346   328   329   347
    4  347   329   330   348
    4  348   330   331   349
    4  349   331   332   350
    4  324   306   307   325
    4  325   307   308   326
    4  326   308   309   327
    4  327   309   310   328
    4  328   310   311   329
    4  329   311   312   330
    4  330   312   313   331
    4  331   313   314   332
    4  306   288   289   307
    4  307   289   290   308
    4  308   290   291   309
    4  309   291   292   310
    4  310   292   293   311
    4  311   293   294   312
    4  312   294   295   313
    4  313   295   296   314
    4  288   270   271   289
    4  289   271   272   290
    4  290   272   273   291
    4  291   273   274   292
    4  292   274   275   293
    4  293   275   276   294
    4  294   276   277   295
    4  295   277   278   296
    4  270   252   253   271
    4  271   253   254   272
    4  272   254   255   273
    4  273   255   256   274
    4  274   256   257   275
    4  275   257   258   276
    4  276   258   259   277
    4  277   259   260   278
    4  252   234   235   253
    4  253   235   236   254
    4  254   236   237   255
    4  255   237   238   256
    4  256   238   239   257
    4  257   239   240   258
    4  258   240   241   259
    4  259   241   242   260
    4  234   216   217   235
    4  235   217   218   236
    4  236   218   219   237
    4  237   219   220   238
    4  238   220   221   239
    4  239   221   222   240
    4  240   222   223   241
    4  241   223   224   242
    4  216   198   199   217
    4  217   199   200   218
    4  218   200   201   219
    4  219   201   202   220
    4  220   202   203   221
    4  221   203   204   222
    4  222   204   205   223
    4  223   205   206   224
    4  198   180   181   199
    4  199   181   182   200
    4  200   182   183   201
    4  201   183   184   202
    4  202   184   185   203
    4  203   185   186   204
    4  204   186   187   205
    4  205   187   188   206
    4  180   162   163   181
    4  181   163   164   182
    4  182   164   165   183
    4  183   165   166   184
    4  184   166   167   185
    4  185   167   168   186
    4  186   168   169   187
    4  187   169   170   188
    4  162   144   145   163
    4  163   145   146   164
    4  164   146   147   165
    4  165   147   148   166
    4  166   148   149   167
    4  167   149   150   168
    4  168   150   151   169
    4  169   151   152   170
    4  144   112   113   145
    4  145   113   114   146
    4  146   114   115   147
    4  147   115   116   148
    4  148   116   117   149
    4  149   117   118   150
    4  150   118   119   151
    4  151   119   142   152
    4  112    84    85   113
    4  113    85    86   114
    4  114    86    87   115
    4  115    87    88   116
    4  116    88    89   117
    4  117    89    90   118
    4  118    90   110   119
    4  119   110   140   142
    4   84    60    61    85
    4   85    61    62    86
    4   86    62    63    87
    4   87    63    64    88
    4   88    64    65    89
    4   89    65    82    90
    4   90    82   108   110
    4  110   108   138   140
    4   60    40    41    61
    4   61    41    42    62
    4   62    42    43    63
    4   63    43    44    64
    4   64    44    58    65
    4   65    58    80    82
    4   82    80   106   108
    4  108   106   136   138
    4   40    24    25    41
    4   41    25    26    42
    4   42    26    27    43
    4   43    27    38    44
    4   44    38    56    58
    4   58    56    78    80
    4   80    78   104   106
    4  106   104   134   136
    4   24    12    13    25
    4   25    13    14    26
    4   26    14    22    27
    4   27    22    36    38
    4   38    36    54    56
    4   56    54    76    78
    4   78    76   102   104
    4  104   102   132   134
    4   12     4     5    13
    4   13     5    10    14
    4   14    10    20    22
    4   22    20    34    36
    4   36    34    52    54
    4   54    52    74    76
    4   76    74   100   102
    4  102   100   130   132
    4    4     0     2     5
    4    5     2     8    10
    4   10     8    18    20
    4   20    18    32    34
    4   34    32    50    52
    4   52    50    72    74
    4   74    72    98   100
    4  100    98   128   130
CELL_TYPES   512
    9
    9
    9
    9
    9
    9
    9
    9
    9
    9
    9
    9
    9
    9
    9
    9
    9
    9
    9
    9
    9
    9
    9
    9
    9
    9
    9
    9
    9
    9
    9
    9
    9
    9
    9
    9
    9
    9
    9
    9
    9
    9
    9
    9
    9
    9
    9
    9
    9
    9
    9
    9
    9
    9
    9
    9
    9
    9
    9
    9
    9
    9
    9
    9
    9
    9
    9
    9
    9
    9
    9
    9
    9
    9
    9
    9
    9
    9
    9
    9
    9
    9
    9
    9
    9
    9
    9
    9
    9
    9
    9
    9
    9
    9
    9
    9
    9
    9
    9
    9
    9
    9
    9
    9
    9
    9
    9
    9
    9
    9
    9
    9
    9
    9
    9
    9
    9
    9
    9
    9
    9
    9
    9
    9
    9
    9
    9
    9
    9
    9
    9
    9
    9
    9
    9
    9
    9
    9
    9
    9
    9
    9
    9
    9
    9
    9
    9
    9
    9
    9
    9
    9
    9
    9
    9
    9
    9
    9
    9
    9
    9
    9
    9
    9
    9
    9
    9
    9
    9
    9
    9
    9
    9
    9
    9
    9
    9
    9
    9
    9
    9
    9
    9
    9
    9
    9
    9
    9
    9
    9
    9
    9
    9
    9
    9
    9
    9
    9
    9
    9
    9
    9
    9
    9
    9
    9
    9
    9
    9
    9
    9
    9
    9
    9
    9
    9
    9
    9
    9
    9
    9
    9
    9
    9
    9
    9
    9
    9
    9
    9
    9
    9
    9
    9
    9
    9
    9
    9
    9
    9
    9
    9
    9
    9
    9
    9
    9
    9
    9
    9
    9
    9
    9
    9
    9
    9
    9
    9
    9
    9
    9
    9
    9
    9
    9
    9
    9
    9
    9
    9
    9
    9
    9
    9
    9
    9
    9
    9
    9
    9
    9
    9
    9
    9
    9
    9
    9
    9
    9
    9
    9
    9
    9
    9
    9
    9
    9
    9
    9
    9
    9
    9
    9
    9
    9
    9
    9
    9
    9
    9
    9
    9
    9
    9
    9
    9
    9
    9
    9
    9
    9
    9
    9
    9
    9
    9
    9
    9
    9
    9
    9
    9
    9
    9
    9
    9
    9
    9
    9
    9
    9
    9
    9
    9
    9
    9
    9
    9
    9
    9
    9
    9
    9
    9
    9
    9
    9
    9
    9
    9
    9
    9
    9
    9
    9
    9
    9
    9
    9
    9
    9
    9
    9
    9
    9
    9
    9
    9
    9
    9
    9
    9
    9
    9
    9
    9
    9
    9
    9
    9
    9
    9
    9
    9
    9
    9
    9
    9
    9
    9
    9
    9
    9
    9
    9
    9
    9
    9
    9
    9
    9
    9
    9
    9
    9
    9
    9
    9
    9
    9
    9
    9
    9
    9
    9
    9
    9
    9
    9
    9
    9
    9
    9
    9
    9
    9
    9
    9
    9
    9
    9
    9
    9
    9
    9
    9
    9
    9
    9
    9
    9
    9
    9
    9
    9
    9
    9
    9
    9
    9
    9
    9
    9
    9
    9
    9
    9
    9
    9
    9
    9
    9
    9
    9
    9
    9
    9
    9
    9
    9
    9
    9
    9
    9
    9
    9
    9
    9
    9
    9
    9
    9
    9
    9
    9
    9
    9
    9
    9
    9
    9
    9
    9
    9
    9
    9
    9
    9
    9
    9
    9
    9
POINT_DATA   576
SCALARS displacement FLOAT     3
LOOKUP_TABLE default
-0.326620E-004  0.133301E-004  0.000000E+000
-0.285533E-004  0.135209E-004  0.000000E+000
-0.295870E-004  0.119360E-004  0.000000E+000
-0.258737E-004  0.121765E-004  0.000000E+000
-0.330387E-004  0.114752E-004  0.000000E+000
-0.300729E-004  0.102388E-004  0.000000E+000
-0.244102E-004  0.137868E-004  0.000000E+000
-0.221157E-004  0.124964E-004  0.000000E+000
-0.265538E-004  0.105386E-004  0.000000E+000
-0.232258E-004  0.108358E-004  0.000000E+000
-0.271584E-004  0.899461E-005  0.000000E+000
-0.198485E-004  0.112205E-004  0.000000E+000
-0.335110E-004  0.961713E-005  0.000000E+000
-0.306547E-004  0.853651E-005  0.000000E+000
-0.278638E-004  0.744639E-005  0.000000E+000
-0.202467E-004  0.141353E-004  0.000000E+000
-0.183317E-004  0.129037E-004  0.000000E+000
-0.164365E-004  0.116924E-004  0.000000E+000
-0.235809E-004  0.914014E-005  0.000000E+000
-0.206330E-004  0.950798E-005  0.000000E+000
-0.243242E-004  0.774641E-005  0.000000E+000
-0.176208E-004  0.996242E-005  0.000000E+000
-0.251686E-004  0.634959E-005  0.000000E+000
-0.145780E-004  0.105190E-004  0.000000E+000
-0.340810E-004  0.778056E-005  0.000000E+000
-0.313344E-004  0.685712E-005  0.000000E+000
-0.286663E-004  0.592495E-005  0.000000E+000
-0.261123E-004  0.498293E-005  0.000000E+000
-0.160875E-004  0.145578E-004  0.000000E+000
-0.145481E-004  0.133849E-004  0.000000E+000
-0.130265E-004  0.122443E-004  0.000000E+000
-0.115349E-004  0.111484E-004  0.000000E+000
-0.207113E-004  0.775063E-005  0.000000E+000
-0.181177E-004  0.819485E-005  0.000000E+000
-0.216100E-004  0.649801E-005  0.000000E+000
-0.154692E-004  0.875218E-005  0.000000E+000
-0.226240E-004  0.524345E-005  0.000000E+000
-0.127810E-004  0.939710E-005  0.000000E+000
-0.237389E-004  0.404113E-005  0.000000E+000
-0.100928E-004  0.101183E-004  0.000000E+000
-0.347302E-004  0.600129E-005  0.000000E+000
-0.320892E-004  0.524022E-005  0.000000E+000
-0.295397E-004  0.447246E-005  0.000000E+000
-0.271247E-004  0.370047E-005  0.000000E+000
-0.249017E-004  0.292723E-005  0.000000E+000
-0.119655E-004  0.150192E-004  0.000000E+000
-0.108029E-004  0.139037E-004  0.000000E+000
-0.965667E-005  0.128269E-004  0.000000E+000
-0.853418E-005  0.118040E-004  0.000000E+000
-0.745026E-005  0.108544E-004  0.000000E+000
-0.180067E-004  0.638097E-005  0.000000E+000
-0.157673E-004  0.695082E-005  0.000000E+000
-0.191211E-004  0.525768E-005  0.000000E+000
-0.134508E-004  0.759902E-005  0.000000E+000
-0.203374E-004  0.416574E-005  0.000000E+000
-0.110912E-004  0.835968E-005  0.000000E+000
-0.216328E-004  0.310833E-005  0.000000E+000
-0.874001E-005  0.918792E-005  0.000000E+000
-0.229733E-004  0.215772E-005  0.000000E+000
-0.644395E-005  0.100129E-004  0.000000E+000
-0.354065E-004  0.432026E-005  0.000000E+000
-0.328616E-004  0.373025E-005  0.000000E+000
-0.304214E-004  0.313999E-005  0.000000E+000
-0.281258E-004  0.254802E-005  0.000000E+000
-0.260355E-004  0.195405E-005  0.000000E+000
-0.242593E-004  0.137361E-005  0.000000E+000
-0.791007E-005  0.154520E-004  0.000000E+000
-0.712891E-005  0.143848E-004  0.000000E+000
-0.636173E-005  0.133622E-004  0.000000E+000
-0.561146E-005  0.123975E-004  0.000000E+000
-0.488957E-005  0.115104E-004  0.000000E+000
-0.422866E-005  0.107255E-004  0.000000E+000
-0.156832E-004  0.510852E-005  0.000000E+000
-0.137147E-004  0.576239E-005  0.000000E+000
-0.170105E-004  0.412607E-005  0.000000E+000
-0.116708E-004  0.658293E-005  0.000000E+000
-0.184600E-004  0.311321E-005  0.000000E+000
-0.962444E-005  0.749322E-005  0.000000E+000
-0.200132E-004  0.221086E-005  0.000000E+000
-0.760714E-005  0.844021E-005  0.000000E+000
-0.215707E-004  0.146574E-005  0.000000E+000
-0.563836E-005  0.932667E-005  0.000000E+000
-0.229910E-004  0.895320E-006  0.000000E+000
-0.372193E-005  0.100525E-004  0.000000E+000
-0.360199E-004  0.276808E-005  0.000000E+000
-0.335546E-004  0.236246E-005  0.000000E+000
-0.312017E-004  0.196109E-005  0.000000E+000
-0.290010E-004  0.155913E-005  0.000000E+000
-0.270144E-004  0.115819E-005  0.000000E+000
-0.253418E-004  0.776793E-006  0.000000E+000
-0.241334E-004  0.488887E-006  0.000000E+000
-0.392972E-005  0.157665E-004  0.000000E+000
-0.353660E-005  0.147327E-004  0.000000E+000
-0.315203E-005  0.137460E-004  0.000000E+000
-0.277647E-005  0.128193E-004  0.000000E+000
-0.241658E-005  0.119693E-004  0.000000E+000
-0.209082E-005  0.112115E-004  0.000000E+000
-0.184882E-005  0.105289E-004  0.000000E+000
-0.140707E-004  0.404864E-005  0.000000E+000
-0.123372E-004  0.503698E-005  0.000000E+000
-0.158412E-004  0.309775E-005  0.000000E+000
-0.106437E-004  0.603731E-005  0.000000E+000
-0.176904E-004  0.237364E-005  0.000000E+000
-0.892723E-005  0.704209E-005  0.000000E+000
-0.194908E-004  0.176663E-005  0.000000E+000
-0.718789E-005  0.796671E-005  0.000000E+000
-0.211211E-004  0.126878E-005  0.000000E+000
-0.542273E-005  0.875295E-005  0.000000E+000
-0.224937E-004  0.864580E-006  0.000000E+000
-0.363266E-005  0.935127E-005  0.000000E+000
-0.235330E-004  0.534184E-006  0.000000E+000
-0.182214E-005  0.972523E-005  0.000000E+000
-0.364562E-004  0.134351E-005  0.000000E+000
-0.340439E-004  0.113608E-005  0.000000E+000
-0.317487E-004  0.932731E-006  0.000000E+000
-0.296093E-004  0.729645E-006  0.000000E+000
-0.276859E-004  0.528592E-006  0.000000E+000
-0.260682E-004  0.341600E-006  0.000000E+000
-0.248752E-004  0.209687E-006  0.000000E+000
-0.241811E-004  0.254302E-006  0.000000E+000
 0.192036E-020  0.158823E-004  0.000000E+000
 0.138880E-016  0.148604E-004  0.000000E+000
 0.111031E-015  0.138866E-004  0.000000E+000
 0.485864E-016  0.129728E-004  0.000000E+000
-0.346804E-016  0.121348E-004  0.000000E+000
-0.692352E-017  0.113843E-004  0.000000E+000
-0.693725E-016  0.106950E-004  0.000000E+000
-0.138712E-016  0.985240E-005  0.000000E+000
-0.164383E-004  0.539543E-005  0.000000E+000
-0.149502E-004  0.592517E-005  0.000000E+000
-0.181395E-004  0.507375E-005  0.000000E+000
-0.131609E-004  0.643762E-005  0.000000E+000
-0.196103E-004  0.448903E-005  0.000000E+000
-0.112092E-004  0.685411E-005  0.000000E+000
-0.208391E-004  0.383751E-005  0.000000E+000
-0.912481E-005  0.719148E-005  0.000000E+000
-0.218471E-004  0.313307E-005  0.000000E+000
-0.693635E-005  0.745005E-005  0.000000E+000
-0.226324E-004  0.238736E-005  0.000000E+000
-0.466880E-005  0.763253E-005  0.000000E+000
-0.231940E-004  0.160985E-005  0.000000E+000
-0.234791E-005  0.774090E-005  0.000000E+000
-0.235312E-004  0.810530E-006  0.000000E+000
 0.416471E-016  0.777683E-005  0.000000E+000
-0.366150E-004 -0.130168E-020  0.000000E+000
-0.342216E-004  0.199486E-015  0.000000E+000
-0.319467E-004  0.101902E-015  0.000000E+000
-0.298284E-004  0.316498E-016  0.000000E+000
-0.279258E-004 -0.205116E-015  0.000000E+000
-0.263245E-004 -0.202938E-015  0.000000E+000
-0.251325E-004 -0.730548E-016  0.000000E+000
-0.244014E-004 -0.207935E-016  0.000000E+000
-0.236436E-004 -0.520124E-016  0.000000E+000
 0.392972E-005  0.157665E-004  0.000000E+000
 0.353660E-005  0.147327E-004  0.000000E+000
 0.315203E-005  0.137460E-004  0.000000E+000
 0.277647E-005  0.128193E-004  0.000000E+000
 0.241658E-005  0.119693E-004  0.000000E+000
 0.209082E-005  0.112115E-004  0.000000E+000
 0.184882E-005  0.105289E-004  0.000000E+000
 0.182214E-005  0.972523E-005  0.000000E+000
 0.234791E-005  0.774090E-005  0.000000E+000
-0.364562E-004 -0.134351E-005  0.000000E+000
-0.340439E-004 -0.113608E-005  0.000000E+000
-0.317487E-004 -0.932731E-006  0.000000E+000
-0.296093E-004 -0.729645E-006  0.000000E+000
-0.276859E-004 -0.528592E-006  0.000000E+000
-0.260682E-004 -0.341600E-006  0.000000E+000
-0.248752E-004 -0.209687E-006  0.000000E+000
-0.241811E-004 -0.254302E-006  0.000000E+000
-0.235312E-004 -0.810530E-006  0.000000E+000
 0.791007E-005  0.154520E-004  0.000000E+000
 0.712891E-005  0.143848E-004  0.000000E+000
 0.636173E-005  0.133622E-004  0.000000E+000
 0.561146E-005  0.123975E-004  0.000000E+000
 0.488957E-005  0.115104E-004  0.000000E+000
 0.422866E-005  0.107255E-004  0.000000E+000
 0.372193E-005  0.100525E-004  0.000000E+000
 0.363266E-005  0.935127E-005  0.000000E+000
 0.466880E-005  0.763253E-005  0.000000E+000
-0.360199E-004 -0.276808E-005  0.000000E+000
-0.335546E-004 -0.236246E-005  0.000000E+000
-0.312017E-004 -0.196109E-005  0.000000E+000
-0.290010E-004 -0.155913E-005  0.000000E+000
-0.270144E-004 -0.115819E-005  0.000000E+000
-0.253418E-004 -0.776793E-006  0.000000E+000
-0.241334E-004 -0.488887E-006  0.000000E+000
-0.235330E-004 -0.534184E-006  0.000000E+000
-0.231940E-004 -0.160985E-005  0.000000E+000
 0.119655E-004  0.150192E-004  0.000000E+000
 0.108029E-004  0.139037E-004  0.000000E+000
 0.965667E-005  0.128269E-004  0.000000E+000
 0.853418E-005  0.118040E-004  0.000000E+000
 0.745026E-005  0.108544E-004  0.000000E+000
 0.644395E-005  0.100129E-004  0.000000E+000
 0.563836E-005  0.932667E-005  0.000000E+000
 0.542273E-005  0.875295E-005  0.000000E+000
 0.693635E-005  0.745005E-005  0.000000E+000
-0.354065E-004 -0.432026E-005  0.000000E+000
-0.328616E-004 -0.373025E-005  0.000000E+000
-0.304214E-004 -0.313999E-005  0.000000E+000
-0.281258E-004 -0.254802E-005  0.000000E+000
-0.260355E-004 -0.195405E-005  0.000000E+000
-0.242593E-004 -0.137361E-005  0.000000E+000
-0.229910E-004 -0.895320E-006  0.000000E+000
-0.224937E-004 -0.864580E-006  0.000000E+000
-0.226324E-004 -0.238736E-005  0.000000E+000
 0.160875E-004  0.145578E-004  0.000000E+000
 0.145481E-004  0.133849E-004  0.000000E+000
 0.130265E-004  0.122443E-004  0.000000E+000
 0.115349E-004  0.111484E-004  0.000000E+000
 0.100928E-004  0.101183E-004  0.000000E+000
 0.874001E-005  0.918792E-005  0.000000E+000
 0.760714E-005  0.844021E-005  0.000000E+000
 0.718789E-005  0.796671E-005  0.000000E+000
 0.912481E-005  0.719148E-005  0.000000E+000
-0.347302E-004 -0.600129E-005  0.000000E+000
-0.320892E-004 -0.524022E-005  0.000000E+000
-0.295397E-004 -0.447246E-005  0.000000E+000
-0.271247E-004 -0.370047E-005  0.000000E+000
-0.249017E-004 -0.292723E-005  0.000000E+000
-0.229733E-004 -0.215772E-005  0.000000E+000
-0.215707E-004 -0.146574E-005  0.000000E+000
-0.211211E-004 -0.126878E-005  0.000000E+000
-0.218471E-004 -0.313307E-005  0.000000E+000
 0.202467E-004  0.141353E-004  0.000000E+000
 0.183317E-004  0.129037E-004  0.000000E+000
 0.164365E-004  0.116924E-004  0.000000E+000
 0.145780E-004  0.105190E-004  0.000000E+000
 0.127810E-004  0.939710E-005  0.000000E+000
 0.110912E-004  0.835968E-005  0.000000E+000
 0.962444E-005  0.749322E-005  0.000000E+000
 0.892723E-005  0.704209E-005  0.000000E+000
 0.112092E-004  0.685411E-005  0.000000E+000
-0.340810E-004 -0.778056E-005  0.000000E+000
-0.313344E-004 -0.685712E-005  0.000000E+000
-0.286663E-004 -0.592495E-005  0.000000E+000
-0.261123E-004 -0.498293E-005  0.000000E+000
-0.237389E-004 -0.404113E-005  0.000000E+000
-0.216328E-004 -0.310833E-005  0.000000E+000
-0.200132E-004 -0.221086E-005  0.000000E+000
-0.194908E-004 -0.176663E-005  0.000000E+000
-0.208391E-004 -0.383751E-005  0.000000E+000
 0.244102E-004  0.137868E-004  0.000000E+000
 0.221157E-004  0.124964E-004  0.000000E+000
 0.198485E-004  0.112205E-004  0.000000E+000
 0.176208E-004  0.996242E-005  0.000000E+000
 0.154692E-004  0.875218E-005  0.000000E+000
 0.134508E-004  0.759902E-005  0.000000E+000
 0.116708E-004  0.658293E-005  0.000000E+000
 0.106437E-004  0.603731E-005  0.000000E+000
 0.131609E-004  0.643762E-005  0.000000E+000
-0.335110E-004 -0.961713E-005  0.000000E+000
-0.306547E-004 -0.853651E-005  0.000000E+000
-0.278638E-004 -0.744639E-005  0.000000E+000
-0.251686E-004 -0.634959E-005  0.000000E+000
-0.226240E-004 -0.524345E-005  0.000000E+000
-0.203374E-004 -0.416574E-005  0.000000E+000
-0.184600E-004 -0.311321E-005  0.000000E+000
-0.176904E-004 -0.237364E-005  0.000000E+000
-0.196103E-004 -0.448903E-005  0.000000E+000
 0.285533E-004  0.135209E-004  0.000000E+000
 0.258737E-004  0.121765E-004  0.000000E+000
 0.232258E-004  0.108358E-004  0.000000E+000
 0.206330E-004  0.950798E-005  0.000000E+000
 0.181177E-004  0.819485E-005  0.000000E+000
 0.157673E-004  0.695082E-005  0.000000E+000
 0.137147E-004  0.576239E-005  0.000000E+000
 0.123372E-004  0.503698E-005  0.000000E+000
 0.149502E-004  0.592517E-005  0.000000E+000
-0.330387E-004 -0.114752E-004  0.000000E+000
-0.300729E-004 -0.102388E-004  0.000000E+000
-0.271584E-004 -0.899461E-005  0.000000E+000
-0.243242E-004 -0.774641E-005  0.000000E+000
-0.216100E-004 -0.649801E-005  0.000000E+000
-0.191211E-004 -0.525768E-005  0.000000E+000
-0.170105E-004 -0.412607E-005  0.000000E+000
-0.158412E-004 -0.309775E-005  0.000000E+000
-0.181395E-004 -0.507375E-005  0.000000E+000
 0.326620E-004  0.133301E-004  0.000000E+000
 0.295870E-004  0.119360E-004  0.000000E+000
 0.265538E-004  0.105386E-004  0.000000E+000
 0.235809E-004  0.914014E-005  0.000000E+000
 0.207113E-004  0.775063E-005  0.000000E+000
 0.180067E-004  0.638097E-005  0.000000E+000
 0.156832E-004  0.510852E-005  0.000000E+000
 0.140707E-004  0.404864E-005  0.000000E+000
 0.164383E-004  0.539543E-005  0.000000E+000
-0.326620E-004 -0.133301E-004  0.000000E+000
-0.295870E-004 -0.119360E-004  0.000000E+000
-0.265538E-004 -0.105386E-004  0.000000E+000
-0.235809E-004 -0.914014E-005  0.000000E+000
-0.207113E-004 -0.775063E-005  0.000000E+000
-0.180067E-004 -0.638097E-005  0.000000E+000
-0.156832E-004 -0.510852E-005  0.000000E+000
-0.140707E-004 -0.404864E-005  0.000000E+000
-0.164383E-004 -0.539543E-005  0.000000E+000
 0.330387E-004  0.114752E-004  0.000000E+000
 0.300729E-004  0.102388E-004  0.000000E+000
 0.271584E-004  0.899461E-005  0.000000E+000
 0.243242E-004  0.774641E-005  0.000000E+000
 0.216100E-004  0.649801E-005  0.000000E+000
 0.191211E-004  0.525768E-005  0.000000E+000
 0.170105E-004  0.412607E-005  0.000000E+000
 0.158412E-004  0.309775E-005  0.000000E+000
 0.181395E-004  0.507375E-005  0.000000E+000
-0.285533E-004 -0.135209E-004  0.000000E+000
-0.258737E-004 -0.121765E-004  0.000000E+000
-0.232258E-004 -0.108358E-004  0.000000E+000
-0.206330E-004 -0.950798E-005  0.000000E+000
-0.181177E-004 -0.819485E-005  0.000000E+000
-0.157673E-004 -0.695082E-005  0.000000E+000
-0.137147E-004 -0.576239E-005  0.000000E+000
-0.123372E-004 -0.503698E-005  0.000000E+000
-0.149502E-004 -0.592517E-005  0.000000E+000
 0.335110E-004  0.961713E-005  0.000000E+000
 0.306547E-004  0.853651E-005  0.000000E+000
 0.278638E-004  0.744639E-005  0.000000E+000
 0.251686E-004  0.634959E-005  0.000000E+000
 0.226240E-004  0.524345E-005  0.000000E+000
 0.203374E-004  0.416574E-005  0.000000E+000
 0.184600E-004  0.311321E-005  0.000000E+000
 0.176904E-004  0.237364E-005  0.000000E+000
 0.196103E-004  0.448903E-005  0.000000E+000
-0.244102E-004 -0.137868E-004  0.000000E+000
-0.221157E-004 -0.124964E-004  0.000000E+000
-0.198485E-004 -0.112205E-004  0.000000E+000
-0.176208E-004 -0.996242E-005  0.000000E+000
-0.154692E-004 -0.875218E-005  0.000000E+000
-0.134508E-004 -0.759902E-005  0.000000E+000
-0.116708E-004 -0.658293E-005  0.000000E+000
-0.106437E-004 -0.603731E-005  0.000000E+000
-0.131609E-004 -0.643762E-005  0.000000E+000
 0.340810E-004  0.778056E-005  0.000000E+000
 0.313344E-004  0.685712E-005  0.000000E+000
 0.286663E-004  0.592495E-005  0.000000E+000
 0.261123E-004  0.498293E-005  0.000000E+000
 0.237389E-004  0.404113E-005  0.000000E+000
 0.216328E-004  0.310833E-005  0.000000E+000
 0.200132E-004  0.221086E-005  0.000000E+000
 0.194908E-004  0.176663E-005  0.000000E+000
 0.208391E-004  0.383751E-005  0.000000E+000
-0.202467E-004 -0.141353E-004  0.000000E+000
-0.183317E-004 -0.129037E-004  0.000000E+000
-0.164365E-004 -0.116924E-004  0.000000E+000
-0.145780E-004 -0.105190E-004  0.000000E+000
-0.127810E-004 -0.939710E-005  0.000000E+000
-0.110912E-004 -0.835968E-005  0.000000E+000
-0.962444E-005 -0.749322E-005  0.000000E+000
-0.892723E-005 -0.704209E-005  0.000000E+000
-0.112092E-004 -0.685411E-005  0.000000E+000
 0.347302E-004  0.600129E-005  0.000000E+000
 0.320892E-004  0.524022E-005  0.000000E+000
 0.295397E-004  0.447246E-005  0.000000E+000
 0.271247E-004  0.370047E-005  0.000000E+000
 0.249017E-004  0.292723E-005  0.000000E+000
 0.229733E-004  0.215772E-005  0.000000E+000
 0.215707E-004  0.146574E-005  0.000000E+000
 0.211211E-004  0.126878E-005  0.000000E+000
 0.218471E-004  0.313307E-005  0.000000E+000
-0.160875E-004 -0.145578E-004  0.000000E+000
-0.145481E-004 -0.133849E-004  0.000000E+000
-0.130265E-004 -0.122443E-004  0.000000E+000
-0.115349E-004 -0.111484E-004  0.000000E+000
-0.100928E-004 -0.101183E-004  0.000000E+000
-0.874001E-005 -0.918792E-005  0.000000E+000
-0.760714E-005 -0.844021E-005  0.000000E+000
-0.718789E-005 -0.796671E-005  0.000000E+000
-0.912481E-005 -0.719148E-005  0.000000E+000
 0.354065E-004  0.432026E-005  0.000000E+000
 0.328616E-004  0.373025E-005  0.000000E+000
 0.304214E-004  0.313999E-005  0.000000E+000
 0.281258E-004  0.254802E-005  0.000000E+000
 0.260355E-004  0.195405E-005  0.000000E+000
 0.242593E-004  0.137361E-005  0.000000E+000
 0.229910E-004  0.895320E-006  0.000000E+000
 0.224937E-004  0.864580E-006  0.000000E+000
 0.226324E-004  0.238736E-005  0.000000E+000
-0.119655E-004 -0.150192E-004  0.000000E+000
-0.108029E-004 -0.139037E-004  0.000000E+000
-0.965667E-005 -0.128269E-004  0.000000E+000
-0.853418E-005 -0.118040E-004  0.000000E+000
-0.745026E-005 -0.108544E-004  0.000000E+000
-0.644395E-005 -0.100129E-004  0.000000E+000
-0.563836E-005 -0.932667E-005  0.000000E+000
-0.542273E-005 -0.875295E-005  0.000000E+000
-0.693635E-005 -0.745005E-005  0.000000E+000
 0.360199E-004  0.276808E-005  0.000000E+000
 0.335546E-004  0.236246E-005  0.000000E+000
 0.312017E-004  0.196109E-005  0.000000E+000
 0.290010E-004  0.155913E-005  0.000000E+000
 0.270144E-004  0.115819E-005  0.000000E+000
 0.253418E-004  0.776793E-006  0.000000E+000
 0.241334E-004  0.488887E-006  0.000000E+000
 0.235330E-004  0.534184E-006  0.000000E+000
 0.231940E-004  0.160985E-005  0.000000E+000
-0.791007E-005 -0.154520E-004  0.000000E+000
-0.712891E-005 -0.143848E-004  0.000000E+000
-0.636173E-005 -0.133622E-004  0.000000E+000
-0.561146E-005 -0.123975E-004  0.000000E+000
-0.488957E-005 -0.115104E-004  0.000000E+000
-0.422866E-005 -0.107255E-004  0.000000E+000
-0.372193E-005 -0.100525E-004  0.000000E+000
-0.363266E-005 -0.935127E-005  0.000000E+000
-0.466880E-005 -0.763253E-005  0.000000E+000
 0.364562E-004  0.134351E-005  0.000000E+000
 0.340439E-004  0.113608E-005  0.000000E+000
 0.317487E-004  0.932731E-006  0.000000E+000
 0.296093E-004  0.729645E-006  0.000000E+000
 0.276859E-004  0.528592E-006  0.000000E+000
 0.260682E-004  0.341600E-006  0.000000E+000
 0.248752E-004  0.209687E-006  0.000000E+000
 0.241811E-004  0.254302E-006  0.000000E+000
 0.235312E-004  0.810530E-006  0.000000E+000
-0.392972E-005 -0.157665E-004  0.000000E+000
-0.353660E-005 -0.147327E-004  0.000000E+000
-0.315203E-005 -0.137460E-004  0.000000E+000
-0.277647E-005 -0.128193E-004  0.000000E+000
-0.241658E-005 -0.119693E-004  0.000000E+000
-0.209082E-005 -0.112115E-004  0.000000E+000
-0.184882E-005 -0.105289E-004  0.000000E+000
-0.182214E-005 -0.972523E-005  0.000000E+000
-0.234791E-005 -0.774090E-005  0.000000E+000
 0.366150E-004  0.000000E+000  0.000000E+000
 0.342216E-004 -0.611385E-016  0.000000E+000
 0.319467E-004  0.133136E-015  0.000000E+000
 0.298284E-004 -0.117517E-015  0.000000E+000
 0.279258E-004 -0.173494E-016  0.000000E+000
 0.263245E-004 -0.984412E-016  0.000000E+000
 0.251325E-004  0.390299E-016  0.000000E+000
 0.244014E-004 -0.832324E-016  0.000000E+000
 0.236436E-004  0.347085E-016  0.000000E+000
 0.192036E-020 -0.158823E-004  0.000000E+000
 0.693564E-017 -0.148604E-004  0.000000E+000
-0.111023E-015 -0.138866E-004  0.000000E+000
 0.624485E-016 -0.129728E-004  0.000000E+000
 0.693836E-017 -0.121348E-004  0.000000E+000
 0.693324E-017 -0.113843E-004  0.000000E+000
 0.124892E-015 -0.106950E-004  0.000000E+000
 0.555160E-016 -0.985240E-005  0.000000E+000
 0.693826E-016 -0.777683E-005  0.000000E+000
 0.364562E-004 -0.134351E-005  0.000000E+000
 0.340439E-004 -0.113608E-005  0.000000E+000
 0.317487E-004 -0.932731E-006  0.000000E+000
 0.296093E-004 -0.729645E-006  0.000000E+000
 0.276859E-004 -0.528592E-006  0.000000E+000
 0.260682E-004 -0.341600E-006  0.000000E+000
 0.248752E-004 -0.209687E-006  0.000000E+000
 0.241811E-004 -0.254302E-006  0.000000E+000
 0.235312E-004 -0.810530E-006  0.000000E+000
 0.392972E-005 -0.157665E-004  0.000000E+000
 0.353660E-005 -0.147327E-004  0.000000E+000
 0.315203E-005 -0.137460E-004  0.000000E+000
 0.277647E-005 -0.128193E-004  0.000000E+000
 0.241658E-005 -0.119693E-004  0.000000E+000
 0.209082E-005 -0.112115E-004  0.000000E+000
 0.184882E-005 -0.105289E-004  0.000000E+000
 0.182214E-005 -0.972523E-005  0.000000E+000
 0.234791E-005 -0.774090E-005  0.000000E+000
 0.360199E-004 -0.276808E-005  0.000000E+000
 0.335546E-004 -0.236246E-005  0.000000E+000
 0.312017E-004 -0.196109E-005  0.000000E+000
 0.290010E-004 -0.155913E-005  0.000000E+000
 0.270144E-004 -0.115819E-005  0.000000E+000
 0.253418E-004 -0.776793E-006  0.000000E+000
 0.241334E-004 -0.488887E-006  0.000000E+000
 0.235330E-004 -0.534184E-006  0.000000E+000
 0.231940E-004 -0.160985E-005  0.000000E+000
 0.791007E-005 -0.154520E-004  0.000000E+000
 0.712891E-005 -0.143848E-004  0.000000E+000
 0.636173E-005 -0.133622E-004  0.000000E+000
 0.561146E-005 -0.123975E-004  0.000000E+000
 0.488957E-005 -0.115104E-004  0.000000E+000
 0.422866E-005 -0.107255E-004  0.000000E+000
 0.372193E-005 -0.100525E-004  0.000000E+000
 0.363266E-005 -0.935127E-005  0.000000E+000
 0.466880E-005 -0.763253E-005  0.000000E+000
 0.354065E-004 -0.432026E-005  0.000000E+000
 0.328616E-004 -0.373025E-005  0.000000E+000
 0.304214E-004 -0.313999E-005  0.000000E+000
 0.281258E-004 -0.254802E-005  0.000000E+000
 0.260355E-004 -0.195405E-005  0.000000E+000
 0.242593E-004 -0.137361E-005  0.000000E+000
 0.229910E-004 -0.895320E-006  0.000000E+000
 0.224937E-004 -0.864580E-006  0.000000E+000
 0.226324E-004 -0.238736E-005  0.000000E+000
 0.119655E-004 -0.150192E-004  0.000000E+000
 0.108029E-004 -0.139037E-004  0.000000E+000
 0.965667E-005 -0.128269E-004  0.000000E+000
 0.853418E-005 -0.118040E-004  0.000000E+000
 0.745026E-005 -0.108544E-004  0.000000E+000
 0.644395E-005 -0.100129E-004  0.000000E+000
 0.563836E-005 -0.932667E-005  0.000000E+000
 0.542273E-005 -0.875295E-005  0.000000E+000
 0.693635E-005 -0.745005E-005  0.000000E+000
 0.347302E-004 -0.600129E-005  0.000000E+000
 0.320892E-004 -0.524022E-005  0.000000E+000
 0.295397E-004 -0.447246E-005  0.000000E+000
 0.271247E-004 -0.370047E-005  0.000000E+000
 0.249017E-004 -0.292723E-005  0.000000E+000
 0.229733E-004 -0.215772E-005  0.000000E+000
 0.215707E-004 -0.146574E-005  0.000000E+000
 0.211211E-004 -0.126878E-005  0.000000E+000
 0.218471E-004 -0.313307E-005  0.000000E+000
 0.160875E-004 -0.145578E-004  0.000000E+000
 0.145481E-004 -0.133849E-004  0.000000E+000
 0.130265E-004 -0.122443E-004  0.000000E+000
 0.115349E-004 -0.111484E-004  0.000000E+000
 0.100928E-004 -0.101183E-004  0.000000E+000
 0.874001E-005 -0.918792E-005  0.000000E+000
 0.760714E-005 -0.844021E-005  0.000000E+000
 0.718789E-005 -0.796671E-005  0.000000E+000
 0.912481E-005 -0.719148E-005  0.000000E+000
 0.340810E-004 -0.778056E-005  0.000000E+000
 0.313344E-004 -0.685712E-005  0.000000E+000
 0.286663E-004 -0.592495E-005  0.000000E+000
 0.261123E-004 -0.498293E-005  0.000000E+000
 0.237389E-004 -0.404113E-005  0.000000E+000
 0.216328E-004 -0.310833E-005  0.000000E+000
 0.200132E-004 -0.221086E-005  0.000000E+000
 0.194908E-004 -0.176663E-005  0.000000E+000
 0.208391E-004 -0.383751E-005  0.000000E+000
 0.202467E-004 -0.141353E-004  0.000000E+000
 0.183317E-004 -0.129037E-004  0.000000E+000
 0.164365E-004 -0.116924E-004  0.000000E+000
 0.145780E-004 -0.105190E-004  0.000000E+000
 0.127810E-004 -0.939710E-005  0.000000E+000
 0.110912E-004 -0.835968E-005  0.000000E+000
 0.962444E-005 -0.749322E-005  0.000000E+000
 0.892723E-005 -0.704209E-005  0.000000E+000
 0.112092E-004 -0.685411E-005  0.000000E+000
 0.335110E-004 -0.961713E-005  0.000000E+000
 0.306547E-004 -0.853651E-005  0.000000E+000
 0.278638E-004 -0.744639E-005  0.000000E+000
 0.251686E-004 -0.634959E-005  0.000000E+000
 0.226240E-004 -0.524345E-005  0.000000E+000
 0.203374E-004 -0.416574E-005  0.000000E+000
 0.184600E-004 -0.311321E-005  0.000000E+000
 0.176904E-004 -0.237364E-005  0.000000E+000
 0.196103E-004 -0.448903E-005  0.000000E+000
 0.244102E-004 -0.137868E-004  0.000000E+000
 0.221157E-004 -0.124964E-004  0.000000E+000
 0.198485E-004 -0.112205E-004  0.000000E+000
 0.176208E-004 -0.996242E-005  0.000000E+000
 0.154692E-004 -0.875218E-005  0.000000E+000
 0.134508E-004 -0.759902E-005  0.000000E+000
 0.116708E-004 -0.658293E-005  0.000000E+000
 0.106437E-004 -0.603731E-005  0.000000E+000
 0.131609E-004 -0.643762E-005  0.000000E+000
 0.330387E-004 -0.114752E-004  0.000000E+000
 0.300729E-004 -0.102388E-004  0.000000E+000
 0.271584E-004 -0.899461E-005  0.000000E+000
 0.243242E-004 -0.774641E-005  0.000000E+000
 0.216100E-004 -0.649801E-005  0.000000E+000
 0.191211E-004 -0.525768E-005  0.000000E+000
 0.170105E-004 -0.412607E-005  0.000000E+000
 0.158412E-004 -0.309775E-005  0.000000E+000
 0.181395E-004 -0.507375E-005  0.000000E+000
 0.285533E-004 -0.135209E-004  0.000000E+000
 0.258737E-004 -0.121765E-004  0.000000E+000
 0.232258E-004 -0.108358E-004  0.000000E+000
 0.206330E-004 -0.950798E-005  0.000000E+000
 0.181177E-004 -0.819485E-005  0.000000E+000
 0.157673E-004 -0.695082E-005  0.000000E+000
 0.137147E-004 -0.576239E-005  0.000000E+000
 0.123372E-004 -0.503698E-005  0.000000E+000
 0.149502E-004 -0.592517E-005  0.000000E+000
 0.326620E-004 -0.133301E-004  0.000000E+000
 0.295870E-004 -0.119360E-004  0.000000E+000
 0.265538E-004 -0.105386E-004  0.000000E+000
 0.235809E-004 -0.914014E-005  0.000000E+000
 0.207113E-004 -0.775063E-005  0.000000E+000
 0.180067E-004 -0.638097E-005  0.000000E+000
 0.156832E-004 -0.510852E-005  0.000000E+000
 0.140707E-004 -0.404864E-005  0.000000E+000
 0.164383E-004 -0.539543E-005  0.000000E+000
CELL_DATA   512
SCALARS region_id INT     1
LOOKUP_TABLE default
    1
    1
    1
    1
    1
    1
    1
    1
    1
    1
    1
    1
    1
    1
    1
    1
    1
    1
    1
    1
    1
    1
    1
    1
    1
    1
    1
    1
    1
    1
    1
    1
    1
    1
    1
    1
    1
    1
    1
    1
    1
    1
    1
    1
    1
    1
    1
    1
    1
    1
    1
    1
    1
    1
    1
    1
    1
    1
    1
    1
    1
    1
    1
    1
    1
    1
    1
    1
    1
    1
    1
    1
    1
    1
    1
    1
    1
    1
    1
    1
    1
    1
    1
    1
    1
    1
    1
    1
    1
    1
    1
    1
    1
    1
    1
    1
    1
    1
    1
    1
    1
    1
    1
    1
    1
    1
    1
    1
    1
    1
    1
    1
    1
    1
    1
    1
    1
    1
    1
    1
    1
    1
    1
    1
    1
    1
    1
    1
    1
    1
    1
    1
    1
    1
    1
    1
    1
    1
    1
    1
    1
    1
    1
    1
    1
    1
    1
    1
    1
    1
    1
    1
    1
    1
    1
    1
    1
    1
    1
    1
    1
    1
    1
    1
    1
    1
    1
    1
    1
    1
    1
    1
    1
    1
    1
    1
    1
    1
    1
    1
    1
    1
    1
    1
    1
    1
    1
    1
    1
    1
    1
    1
    1
    1
    1
    1
    1
    1
    1
    1
    1
    1
    1
    1
    1
    1
    1
    1
    1
    1
    1
    1
    1
    1
    1
    1
    1
    1
    1
    1
    1
    1
    1
    1
    1
    1
    1
    1
    1
    1
    1
    1
    1
    1
    1
    1
    1
    1
    1
    1
    1
    1
    1
    1
    1
    1
    1
    1
    1
    1
    1
    1
    1
    1
    1
    1
    1
    1
    1
    1
    1
    1
    1
    1
    1
    1
    1
    1
    1
    1
    1
    1
    1
    1
    1
    1
    1
    1
    1
    1
    1
    1
    1
    1
    1
    1
    1
    1
    1
    1
    1
    1
    1
    1
    1
    1
    1
    1
    1
    1
    1
    1
    1
    1
    1
    1
    1
    1
    1
    1
    1
    1
    1
    1
    1
    1
    1
    1
    1
    1
    1
    1
    1
    1
    1
    1
    1
    1
    1
    1
    1
    1
    1
    1
    1
    1
    1
    1
    1
    1
    1
    1
    1
    1
    1
    1
    1
    1
    1
    1
    1
    1
    1
    1
    1
    1
    1
    1
    1
    1
    1
    1
    1
    1
    1
    1
    1
    1
    1
    1
    1
    1
    1
    1
    1
    1
    1
    1
    1
    1
    1
    1
    1
    1
    1
    1
    1
    1
    1
    1
    1
    1
    1
    1
    1
    1
    1
    1
    1
    1
    1
    1
    1
    1
    1
    1
    1
    1
    1
    1
    1
    1
    1
    1
    1
    1
    1
    1
    1
    1
    1
    1
    1
    1
    1
    1
    1
    1
    1
    1
    1
    1
    1
    1
    1
    1
    1
    1
    1
    1
    1
    1
    1
    1
    1
    1
    1
    1
    1
    1
    1
    1
    1
    1
    1
    1
    1
    1
    1
    1
    1
    1
    1
    1
    1
    1
    1
    1
    1
    1
    1
    1
    1
    1
    1
    1
    1
    1
    1
    1
    1
    1
    1
    1
    1
    1
    1
    1
    1
    1
    1
    1
    1
    1
    1
    1
    1
    1
    1
    1
    1
    1
    1
    1
    1
    1
    1
    1
    1
    1
    1
    1
SCALARS element_id INT     1
LOOKUP_TABLE default
    1
    2
    3
    4
    5
    6
    7
    8
    9
   10
   11
   12
   13
   14
   15
   16
   17
   18
   19
   20
   21
   22
   23
   24
   25
   26
   27
   28
   29
   30
   31
   32
   33
   34
   35
   36
   37
   38
   39
   40
   41
   42
   43
   44
   45
   46
   47
   48
   49
   50
   51
   52
   53
   54
   55
   56
   57
   58
   59
   60
   61
   62
   63
   64
   65
   66
   67
   68
   69
   70
   71
   72
   73
   74
   75
   76
   77
   78
   79
   80
   81
   82
   83
   84
   85
   86
   87
   88
   89
   90
   91
   92
   93
   94
   95
   96
   97
   98
   99
  100
  101
  102
  103
  104
  105
  106
  107
  108
  109
  110
  111
  112
  113
  114
  115
  116
  117
  118
  119
  120
  121
  122
  123
  124
  125
  126
  127
  128
  129
  130
  131
  132
  133
  134
  135
  136
  137
  138
  139
  140
  141
  142
  143
  144
  145
  146
  147
  148
  149
  150
  151
  152
  153
  154
  155
  156
  157
  158
  159
  160
  161
  162
  163
  164
  165
  166
  167
  168
  169
  170
  171
  172
  173
  174
  175
  176
  177
  178
  179
  180
  181
  182
  183
  184
  185
  186
  187
  188
  189
  190
  191
  192
  193
  194
  195
  196
  197
  198
  199
  200
  201
  202
  203
  204
  205
  206
  207
  208
  209
  210
  211
  212
  213
  214
  215
  216
  217
  218
  219
  220
  221
  222
  223
  224
  225
  226
  227
  228
  229
  230
  231
  232
  233
  234
  235
  236
  237
  238
  239
  240
  241
  242
  243
  244
  245
  246
  247
  248
  249
  250
  251
  252
  253
  254
  255
  256
  257
  258
  259
  260
  261
  262
  263
  264
  265
  266
  267
  268
  269
  270
  271
  272
  273
  274
  275
  276
  277
  278
  279
  280
  281
  282
  283
  284
  285
  286
  287
  288
  289
  290
  291
  292
  293
  294
  295
  296
  297
  298
  299
  300
  301
  302
  303
  304
  305
  306
  307
  308
  309
  310
  311
  312
  313
  314
  315
  316
  317
  318
  319
  320
  321
  322
  323
  324
  325
  326
  327
  328
  329
  330
  331
  332
  333
  334
  335
  336
  337
  338
  339
  340
  341
  342
  343
  344
  345
  346
  347
  348
  349
  350
  351
  352
  353
  354
  355
  356
  357
  358
  359
  360
  361
  362
  363
  364
  365
  366
  367
  368
  369
  370
  371
  372
  373
  374
  375
  376
  377
  378
  379
  380
  381
  382
  383
  384
  385
  386
  387
  388
  389
  390
  391
  392
  393
  394
  395
  396
  397
  398
  399
  400
  401
  402
  403
  404
  405
  406
  407
  408
  409
  410
  411
  412
  413
  414
  415
  416
  417
  418
  419
  420
  421
  422
  423
  424
  425
  426
  427
  428
  429
  430
  431
  432
  433
  434
  435
  436
  437
  438
  439
  440
  441
  442
  443
  444
  445
  446
  447
  448
  449
  450
  451
  452
  453
  454
  455
  456
  457
  458
  459
  460
  461
  462
  463
  464
  465
  466
  467
  468
  469
  470
  471
  472
  473
  474
  475
  476
  477
  478
  479
  480
  481
  482
  483
  484
  485
  486
  487
  488
  489
  490
  491
  492
  493
  494
  495
  496
  497
  498
  499
  500
  501
  502
  503
  504
  505
  506
  507
  508
  509
  510
  511
  512
SCALARS stress_11 FLOAT     1
LOOKUP_TABLE default
 0.103765E+001
 0.104677E+001
 0.105926E+001
 0.107852E+001
 0.110358E+001
 0.114536E+001
 0.120275E+001
 0.102569E+001
 0.104809E+001
 0.105957E+001
 0.107640E+001
 0.109883E+001
 0.113282E+001
 0.118946E+001
 0.124928E+001
 0.120364E+001
 0.105678E+001
 0.107107E+001
 0.108983E+001
 0.111672E+001
 0.115773E+001
 0.122089E+001
 0.129468E+001
 0.140162E+001
 0.106242E+001
 0.107757E+001
 0.109818E+001
 0.112761E+001
 0.117250E+001
 0.123930E+001
 0.134097E+001
 0.160061E+001
 0.106241E+001
 0.107778E+001
 0.109845E+001
 0.112866E+001
 0.117445E+001
 0.124712E+001
 0.138576E+001
 0.178862E+001
 0.105719E+001
 0.107118E+001
 0.109078E+001
 0.112002E+001
 0.116628E+001
 0.124776E+001
 0.142586E+001
 0.195017E+001
 0.104914E+001
 0.106114E+001
 0.107904E+001
 0.110705E+001
 0.115431E+001
 0.124524E+001
 0.145665E+001
 0.206939E+001
 0.104314E+001
 0.105358E+001
 0.107035E+001
 0.109764E+001
 0.114589E+001
 0.124299E+001
 0.147351E+001
 0.213288E+001
 0.104314E+001
 0.105358E+001
 0.107035E+001
 0.109764E+001
 0.114589E+001
 0.124299E+001
 0.147351E+001
 0.213288E+001
 0.104914E+001
 0.106114E+001
 0.107904E+001
 0.110705E+001
 0.115431E+001
 0.124524E+001
 0.145665E+001
 0.206939E+001
 0.105719E+001
 0.107118E+001
 0.109078E+001
 0.112002E+001
 0.116628E+001
 0.124776E+001
 0.142586E+001
 0.195017E+001
 0.106241E+001
 0.107778E+001
 0.109845E+001
 0.112866E+001
 0.117445E+001
 0.124712E+001
 0.138576E+001
 0.178862E+001
 0.106242E+001
 0.107757E+001
 0.109818E+001
 0.112761E+001
 0.117250E+001
 0.123930E+001
 0.134097E+001
 0.160061E+001
 0.105678E+001
 0.107107E+001
 0.108983E+001
 0.111672E+001
 0.115773E+001
 0.122089E+001
 0.129468E+001
 0.140162E+001
 0.104809E+001
 0.105957E+001
 0.107640E+001
 0.109883E+001
 0.113282E+001
 0.118946E+001
 0.124928E+001
 0.120364E+001
 0.103765E+001
 0.104677E+001
 0.105926E+001
 0.107852E+001
 0.110358E+001
 0.114536E+001
 0.120275E+001
 0.102569E+001
 0.103016E+001
 0.103728E+001
 0.104731E+001
 0.106061E+001
 0.108170E+001
 0.110320E+001
 0.114499E+001
 0.858692E+000
 0.102170E+001
 0.102661E+001
 0.103239E+001
 0.104061E+001
 0.104815E+001
 0.105767E+001
 0.103752E+001
 0.674617E+000
 0.100548E+001
 0.100577E+001
 0.100549E+001
 0.100350E+001
 0.995698E+000
 0.981242E+000
 0.889626E+000
 0.500242E+000
 0.978714E+000
 0.972489E+000
 0.963082E+000
 0.946990E+000
 0.921688E+000
 0.869026E+000
 0.717986E+000
 0.352867E+000
 0.941123E+000
 0.926489E+000
 0.905187E+000
 0.874097E+000
 0.824888E+000
 0.732823E+000
 0.546981E+000
 0.232962E+000
 0.896535E+000
 0.872511E+000
 0.839411E+000
 0.791776E+000
 0.718160E+000
 0.596529E+000
 0.396217E+000
 0.142612E+000
 0.854487E+000
 0.822618E+000
 0.779127E+000
 0.717241E+000
 0.625453E+000
 0.486025E+000
 0.283736E+000
 0.824510E-001
 0.828484E+000
 0.791942E+000
 0.742308E+000
 0.672432E+000
 0.571308E+000
 0.424062E+000
 0.223581E+000
 0.524776E-001
 0.828484E+000
 0.791942E+000
 0.742308E+000
 0.672432E+000
 0.571308E+000
 0.424062E+000
 0.223581E+000
 0.524776E-001
 0.854487E+000
 0.822618E+000
 0.779127E+000
 0.717241E+000
 0.625453E+000
 0.486025E+000
 0.283736E+000
 0.824510E-001
 0.896535E+000
 0.872511E+000
 0.839411E+000
 0.791776E+000
 0.718160E+000
 0.596529E+000
 0.396217E+000
 0.142612E+000
 0.941123E+000
 0.926489E+000
 0.905187E+000
 0.874097E+000
 0.824888E+000
 0.732823E+000
 0.546981E+000
 0.232962E+000
 0.978714E+000
 0.972489E+000
 0.963082E+000
 0.946990E+000
 0.921688E+000
 0.869026E+000
 0.717986E+000
 0.352867E+000
 0.100548E+001
 0.100577E+001
 0.100549E+001
 0.100350E+001
 0.995698E+000
 0.981242E+000
 0.889626E+000
 0.500242E+000
 0.102170E+001
 0.102661E+001
 0.103239E+001
 0.104061E+001
 0.104815E+001
 0.105767E+001
 0.103752E+001
 0.674617E+000
 0.103016E+001
 0.103728E+001
 0.104731E+001
 0.106061E+001
 0.108170E+001
 0.110320E+001
 0.114499E+001
 0.858692E+000
 0.103765E+001
 0.104677E+001
 0.105926E+001
 0.107852E+001
 0.110358E+001
 0.114536E+001
 0.120275E+001
 0.102569E+001
 0.104809E+001
 0.105957E+001
 0.107640E+001
 0.109883E+001
 0.113282E+001
 0.118946E+001
 0.124928E+001
 0.120364E+001
 0.105678E+001
 0.107107E+001
 0.108983E+001
 0.111672E+001
 0.115773E+001
 0.122089E+001
 0.129468E+001
 0.140162E+001
 0.106242E+001
 0.107757E+001
 0.109818E+001
 0.112761E+001
 0.117250E+001
 0.123930E+001
 0.134097E+001
 0.160061E+001
 0.106241E+001
 0.107778E+001
 0.109845E+001
 0.112866E+001
 0.117445E+001
 0.124712E+001
 0.138576E+001
 0.178862E+001
 0.105719E+001
 0.107118E+001
 0.109078E+001
 0.112002E+001
 0.116628E+001
 0.124776E+001
 0.142586E+001
 0.195017E+001
 0.104914E+001
 0.106114E+001
 0.107904E+001
 0.110705E+001
 0.115431E+001
 0.124524E+001
 0.145665E+001
 0.206939E+001
 0.104314E+001
 0.105358E+001
 0.107035E+001
 0.109764E+001
 0.114589E+001
 0.124299E+001
 0.147351E+001
 0.213288E+001
 0.104314E+001
 0.105358E+001
 0.107035E+001
 0.109764E+001
 0.114589E+001
 0.124299E+001
 0.147351E+001
 0.213288E+001
 0.104914E+001
 0.106114E+001
 0.107904E+001
 0.110705E+001
 0.115431E+001
 0.124524E+001
 0.145665E+001
 0.206939E+001
 0.105719E+001
 0.107118E+001
 0.109078E+001
 0.112002E+001
 0.116628E+001
 0.124776E+001
 0.142586E+001
 0.195017E+001
 0.106241E+001
 0.107778E+001
 0.109845E+001
 0.112866E+001
 0.117445E+001
 0.124712E+001
 0.138576E+001
 0.178862E+001
 0.106242E+001
 0.107757E+001
 0.109818E+001
 0.112761E+001
 0.117250E+001
 0.123930E+001
 0.134097E+001
 0.160061E+001
 0.105678E+001
 0.107107E+001
 0.108983E+001
 0.111672E+001
 0.115773E+001
 0.122089E+001
 0.129468E+001
 0.140162E+001
 0.104809E+001
 0.105957E+001
 0.107640E+001
 0.109883E+001
 0.113282E+001
 0.118946E+001
 0.124928E+001
 0.120364E+001
 0.103765E+001
 0.104677E+001
 0.105926E+001
 0.107852E+001
 0.110358E+001
 0.114536E+001
 0.120275E+001
 0.102569E+001
 0.103016E+001
 0.103728E+001
 0.104731E+001
 0.106061E+001
 0.108170E+001
 0.110320E+001
 0.114499E+001
 0.858692E+000
 0.102170E+001
 0.102661E+001
 0.103239E+001
 0.104061E+001
 0.104815E+001
 0.105767E+001
 0.103752E+001
 0.674617E+000
 0.100548E+001
 0.100577E+001
 0.100549E+001
 0.100350E+001
 0.995698E+000
 0.981242E+000
 0.889626E+000
 0.500242E+000
 0.978714E+000
 0.972489E+000
 0.963082E+000
 0.946990E+000
 0.921688E+000
 0.869026E+000
 0.717986E+000
 0.352867E+000
 0.941123E+000
 0.926489E+000
 0.905187E+000
 0.874097E+000
 0.824888E+000
 0.732823E+000
 0.546981E+000
 0.232962E+000
 0.896535E+000
 0.872511E+000
 0.839411E+000
 0.791776E+000
 0.718160E+000
 0.596529E+000
 0.396217E+000
 0.142612E+000
 0.854487E+000
 0.822618E+000
 0.779127E+000
 0.717241E+000
 0.625453E+000
 0.486025E+000
 0.283736E+000
 0.824510E-001
 0.828484E+000
 0.791942E+000
 0.742308E+000
 0.672432E+000
 0.571308E+000
 0.424062E+000
 0.223581E+000
 0.524776E-001
 0.828484E+000
 0.791942E+000
 0.742308E+000
 0.672432E+000
 0.571308E+000
 0.424062E+000
 0.223581E+000
 0.524776E-001
 0.854487E+000
 0.822618E+000
 0.779127E+000
 0.717241E+000
 0.625453E+000
 0.486025E+000
 0.283736E+000
 0.824510E-001
 0.896535E+000
 0.872511E+000
 0.839411E+000
 0.791776E+000
 0.718160E+000
 0.596529E+000
 0.396217E+000
 0.142612E+000
 0.941123E+000
 0.926489E+000
 0.905187E+000
 0.874097E+000
 0.824888E+000
 0.732823E+000
 0.546981E+000
 0.232962E+000
 0.978714E+000
 0.972489E+000
 0.963082E+000
 0.946990E+000
 0.921688E+000
 0.869026E+000
 0.717986E+000
 0.352867E+000
 0.100548E+001
 0.100577E+001
 0.100549E+001
 0.100350E+001
 0.995698E+000
 0.981242E+000
 0.889626E+000
 0.500242E+000
 0.102170E+001
 0.102661E+001
 0.103239E+001
 0.104061E+001
 0.104815E+001
 0.105767E+001
 0.103752E+001
 0.674617E+000
 0.103016E+001
 0.103728E+001
 0.104731E+001
 0.106061E+001
 0.108170E+001
 0.110320E+001
 0.114499E+001
 0.858692E+000
SCALARS stress_22 FLOAT     1
LOOKUP_TABLE default
-0.344333E-001
-0.428969E-001
-0.544034E-001
-0.698297E-001
-0.931150E-001
-0.121775E+000
-0.170144E+000
 0.747438E-001
-0.331755E-001
-0.407659E-001
-0.501399E-001
-0.642403E-001
-0.793360E-001
-0.109087E+000
-0.107819E+000
 0.120373E+000
-0.260643E-001
-0.308290E-001
-0.376480E-001
-0.444637E-001
-0.553428E-001
-0.647384E-001
-0.302639E-001
 0.167224E+000
-0.103321E-001
-0.115640E-001
-0.117939E-001
-0.118857E-001
-0.992327E-002
 0.302187E-002
 0.646254E-001
 0.197856E+000
 0.141714E-001
 0.190435E-001
 0.258827E-001
 0.363003E-001
 0.536299E-001
 0.893977E-001
 0.161103E+000
 0.214894E+000
 0.456763E-001
 0.567456E-001
 0.720002E-001
 0.936342E-001
 0.126578E+000
 0.178438E+000
 0.246879E+000
 0.221224E+000
 0.763367E-001
 0.931577E-001
 0.115721E+000
 0.147075E+000
 0.191483E+000
 0.251934E+000
 0.310929E+000
 0.221555E+000
 0.957715E-001
 0.115960E+000
 0.142902E+000
 0.179693E+000
 0.229895E+000
 0.293526E+000
 0.345141E+000
 0.220335E+000
 0.957715E-001
 0.115960E+000
 0.142902E+000
 0.179693E+000
 0.229895E+000
 0.293526E+000
 0.345141E+000
 0.220335E+000
 0.763367E-001
 0.931577E-001
 0.115721E+000
 0.147075E+000
 0.191483E+000
 0.251934E+000
 0.310929E+000
 0.221555E+000
 0.456763E-001
 0.567456E-001
 0.720002E-001
 0.936342E-001
 0.126578E+000
 0.178438E+000
 0.246879E+000
 0.221224E+000
 0.141714E-001
 0.190435E-001
 0.258827E-001
 0.363003E-001
 0.536299E-001
 0.893977E-001
 0.161103E+000
 0.214894E+000
-0.103321E-001
-0.115640E-001
-0.117939E-001
-0.118857E-001
-0.992327E-002
 0.302187E-002
 0.646254E-001
 0.197856E+000
-0.260643E-001
-0.308290E-001
-0.376480E-001
-0.444637E-001
-0.553428E-001
-0.647384E-001
-0.302639E-001
 0.167224E+000
-0.331755E-001
-0.407659E-001
-0.501399E-001
-0.642403E-001
-0.793360E-001
-0.109087E+000
-0.107819E+000
 0.120373E+000
-0.344333E-001
-0.428969E-001
-0.544034E-001
-0.698297E-001
-0.931150E-001
-0.121775E+000
-0.170144E+000
 0.747438E-001
-0.363837E-001
-0.457746E-001
-0.580715E-001
-0.754121E-001
-0.100408E+000
-0.132585E+000
-0.194151E+000
 0.331468E-001
-0.408491E-001
-0.509636E-001
-0.644089E-001
-0.833679E-001
-0.106845E+000
-0.151046E+000
-0.185896E+000
-0.303263E-001
-0.416511E-001
-0.518294E-001
-0.652519E-001
-0.820534E-001
-0.107704E+000
-0.146928E+000
-0.165573E+000
-0.112430E+000
-0.368992E-001
-0.458615E-001
-0.565822E-001
-0.712037E-001
-0.936305E-001
-0.121404E+000
-0.140523E+000
-0.200462E+000
-0.253764E-001
-0.310868E-001
-0.380090E-001
-0.481147E-001
-0.627716E-001
-0.814052E-001
-0.115164E+000
-0.288768E+000
-0.806795E-002
-0.941861E-002
-0.113673E-001
-0.150990E-001
-0.218321E-001
-0.369674E-001
-0.933563E-001
-0.368119E+000
 0.100272E-001
 0.133756E-001
 0.163372E-001
 0.183356E-001
 0.169008E-001
 0.909234E-003
-0.776373E-001
-0.428524E+000
 0.218728E-001
 0.283484E-001
 0.343278E-001
 0.395211E-001
 0.404376E-001
 0.226694E-001
-0.694658E-001
-0.461278E+000
 0.218728E-001
 0.283484E-001
 0.343278E-001
 0.395211E-001
 0.404376E-001
 0.226694E-001
-0.694658E-001
-0.461278E+000
 0.100272E-001
 0.133756E-001
 0.163372E-001
 0.183356E-001
 0.169008E-001
 0.909234E-003
-0.776373E-001
-0.428524E+000
-0.806795E-002
-0.941861E-002
-0.113673E-001
-0.150990E-001
-0.218321E-001
-0.369674E-001
-0.933563E-001
-0.368119E+000
-0.253764E-001
-0.310868E-001
-0.380090E-001
-0.481147E-001
-0.627716E-001
-0.814052E-001
-0.115164E+000
-0.288768E+000
-0.368992E-001
-0.458615E-001
-0.565822E-001
-0.712037E-001
-0.936305E-001
-0.121404E+000
-0.140523E+000
-0.200462E+000
-0.416511E-001
-0.518294E-001
-0.652519E-001
-0.820534E-001
-0.107704E+000
-0.146928E+000
-0.165573E+000
-0.112430E+000
-0.408491E-001
-0.509636E-001
-0.644089E-001
-0.833679E-001
-0.106845E+000
-0.151046E+000
-0.185896E+000
-0.303263E-001
-0.363837E-001
-0.457746E-001
-0.580715E-001
-0.754121E-001
-0.100408E+000
-0.132585E+000
-0.194151E+000
 0.331468E-001
-0.344333E-001
-0.428969E-001
-0.544034E-001
-0.698297E-001
-0.931150E-001
-0.121775E+000
-0.170144E+000
 0.747438E-001
-0.331755E-001
-0.407659E-001
-0.501399E-001
-0.642403E-001
-0.793360E-001
-0.109087E+000
-0.107819E+000
 0.120373E+000
-0.260643E-001
-0.308290E-001
-0.376480E-001
-0.444637E-001
-0.553428E-001
-0.647384E-001
-0.302639E-001
 0.167224E+000
-0.103321E-001
-0.115640E-001
-0.117939E-001
-0.118857E-001
-0.992327E-002
 0.302187E-002
 0.646254E-001
 0.197856E+000
 0.141714E-001
 0.190435E-001
 0.258827E-001
 0.363003E-001
 0.536299E-001
 0.893977E-001
 0.161103E+000
 0.214894E+000
 0.456763E-001
 0.567456E-001
 0.720002E-001
 0.936342E-001
 0.126578E+000
 0.178438E+000
 0.246879E+000
 0.221224E+000
 0.763367E-001
 0.931577E-001
 0.115721E+000
 0.147075E+000
 0.191483E+000
 0.251934E+000
 0.310929E+000
 0.221555E+000
 0.957715E-001
 0.115960E+000
 0.142902E+000
 0.179693E+000
 0.229895E+000
 0.293526E+000
 0.345141E+000
 0.220335E+000
 0.957715E-001
 0.115960E+000
 0.142902E+000
 0.179693E+000
 0.229895E+000
 0.293526E+000
 0.345141E+000
 0.220335E+000
 0.763367E-001
 0.931577E-001
 0.115721E+000
 0.147075E+000
 0.191483E+000
 0.251934E+000
 0.310929E+000
 0.221555E+000
 0.456763E-001
 0.567456E-001
 0.720002E-001
 0.936342E-001
 0.126578E+000
 0.178438E+000
 0.246879E+000
 0.221224E+000
 0.141714E-001
 0.190435E-001
 0.258827E-001
 0.363003E-001
 0.536299E-001
 0.893977E-001
 0.161103E+000
 0.214894E+000
-0.103321E-001
-0.115640E-001
-0.117939E-001
-0.118857E-001
-0.992327E-002
 0.302187E-002
 0.646254E-001
 0.197856E+000
-0.260643E-001
-0.308290E-001
-0.376480E-001
-0.444637E-001
-0.553428E-001
-0.647384E-001
-0.302639E-001
 0.167224E+000
-0.331755E-001
-0.407659E-001
-0.501399E-001
-0.642403E-001
-0.793360E-001
-0.109087E+000
-0.107819E+000
 0.120373E+000
-0.344333E-001
-0.428969E-001
-0.544034E-001
-0.698297E-001
-0.931150E-001
-0.121775E+000
-0.170144E+000
 0.747438E-001
-0.363837E-001
-0.457746E-001
-0.580715E-001
-0.754121E-001
-0.100408E+000
-0.132585E+000
-0.194151E+000
 0.331468E-001
-0.408491E-001
-0.509636E-001
-0.644089E-001
-0.833679E-001
-0.106845E+000
-0.151046E+000
-0.185896E+000
-0.303263E-001
-0.416511E-001
-0.518294E-001
-0.652519E-001
-0.820534E-001
-0.107704E+000
-0.146928E+000
-0.165573E+000
-0.112430E+000
-0.368992E-001
-0.458615E-001
-0.565822E-001
-0.712037E-001
-0.936305E-001
-0.121404E+000
-0.140523E+000
-0.200462E+000
-0.253764E-001
-0.310868E-001
-0.380090E-001
-0.481147E-001
-0.627716E-001
-0.814052E-001
-0.115164E+000
-0.288768E+000
-0.806795E-002
-0.941861E-002
-0.113673E-001
-0.150990E-001
-0.218321E-001
-0.369674E-001
-0.933563E-001
-0.368119E+000
 0.100272E-001
 0.133756E-001
 0.163372E-001
 0.183356E-001
 0.169008E-001
 0.909234E-003
-0.776373E-001
-0.428524E+000
 0.218728E-001
 0.283484E-001
 0.343278E-001
 0.395211E-001
 0.404376E-001
 0.226694E-001
-0.694658E-001
-0.461278E+000
 0.218728E-001
 0.283484E-001
 0.343278E-001
 0.395211E-001
 0.404376E-001
 0.226694E-001
-0.694658E-001
-0.461278E+000
 0.100272E-001
 0.133756E-001
 0.163372E-001
 0.183356E-001
 0.169008E-001
 0.909234E-003
-0.776373E-001
-0.428524E+000
-0.806795E-002
-0.941861E-002
-0.113673E-001
-0.150990E-001
-0.218321E-001
-0.369674E-001
-0.933563E-001
-0.368119E+000
-0.253764E-001
-0.310868E-001
-0.380090E-001
-0.481147E-001
-0.627716E-001
-0.814052E-001
-0.115164E+000
-0.288768E+000
-0.368992E-001
-0.458615E-001
-0.565822E-001
-0.712037E-001
-0.936305E-001
-0.121404E+000
-0.140523E+000
-0.200462E+000
-0.416511E-001
-0.518294E-001
-0.652519E-001
-0.820534E-001
-0.107704E+000
-0.146928E+000
-0.165573E+000
-0.112430E+000
-0.408491E-001
-0.509636E-001
-0.644089E-001
-0.833679E-001
-0.106845E+000
-0.151046E+000
-0.185896E+000
-0.303263E-001
-0.363837E-001
-0.457746E-001
-0.580715E-001
-0.754121E-001
-0.100408E+000
-0.132585E+000
-0.194151E+000
 0.331468E-001
SCALARS stress_33 FLOAT     1
LOOKUP_TABLE default
 0.300966E+000
 0.301163E+000
 0.301456E+000
 0.302606E+000
 0.303141E+000
 0.307074E+000
 0.309782E+000
 0.330129E+000
 0.304476E+000
 0.305641E+000
 0.307879E+000
 0.310378E+000
 0.316045E+000
 0.324112E+000
 0.342438E+000
 0.397204E+000
 0.309214E+000
 0.312074E+000
 0.315654E+000
 0.321678E+000
 0.330717E+000
 0.346846E+000
 0.379325E+000
 0.470654E+000
 0.315625E+000
 0.319801E+000
 0.325917E+000
 0.334716E+000
 0.348772E+000
 0.372696E+000
 0.421680E+000
 0.539539E+000
 0.322974E+000
 0.329047E+000
 0.337301E+000
 0.349487E+000
 0.368425E+000
 0.400956E+000
 0.464058E+000
 0.601056E+000
 0.330861E+000
 0.338378E+000
 0.348834E+000
 0.364097E+000
 0.387859E+000
 0.427860E+000
 0.501822E+000
 0.651417E+000
 0.337644E+000
 0.346289E+000
 0.358429E+000
 0.376239E+000
 0.403739E+000
 0.449153E+000
 0.530275E+000
 0.687284E+000
 0.341673E+000
 0.350862E+000
 0.363974E+000
 0.383200E+000
 0.412737E+000
 0.460954E+000
 0.545596E+000
 0.705965E+000
 0.341673E+000
 0.350862E+000
 0.363974E+000
 0.383200E+000
 0.412737E+000
 0.460954E+000
 0.545596E+000
 0.705965E+000
 0.337644E+000
 0.346289E+000
 0.358429E+000
 0.376239E+000
 0.403739E+000
 0.449153E+000
 0.530275E+000
 0.687284E+000
 0.330861E+000
 0.338378E+000
 0.348834E+000
 0.364097E+000
 0.387859E+000
 0.427860E+000
 0.501822E+000
 0.651417E+000
 0.322974E+000
 0.329047E+000
 0.337301E+000
 0.349487E+000
 0.368425E+000
 0.400956E+000
 0.464058E+000
 0.601056E+000
 0.315625E+000
 0.319801E+000
 0.325917E+000
 0.334716E+000
 0.348772E+000
 0.372696E+000
 0.421680E+000
 0.539539E+000
 0.309214E+000
 0.312074E+000
 0.315654E+000
 0.321678E+000
 0.330717E+000
 0.346846E+000
 0.379325E+000
 0.470654E+000
 0.304476E+000
 0.305641E+000
 0.307879E+000
 0.310378E+000
 0.316045E+000
 0.324112E+000
 0.342438E+000
 0.397204E+000
 0.300966E+000
 0.301163E+000
 0.301456E+000
 0.302606E+000
 0.303141E+000
 0.307074E+000
 0.309782E+000
 0.330129E+000
 0.298132E+000
 0.297453E+000
 0.296773E+000
 0.295560E+000
 0.294387E+000
 0.291185E+000
 0.285253E+000
 0.267552E+000
 0.294256E+000
 0.292693E+000
 0.290395E+000
 0.287173E+000
 0.282391E+000
 0.271987E+000
 0.255487E+000
 0.193287E+000
 0.289147E+000
 0.286181E+000
 0.282072E+000
 0.276434E+000
 0.266398E+000
 0.250294E+000
 0.217216E+000
 0.116343E+000
 0.282544E+000
 0.277988E+000
 0.271950E+000
 0.262736E+000
 0.248417E+000
 0.224287E+000
 0.173239E+000
 0.457216E-001
 0.274724E+000
 0.268621E+000
 0.260153E+000
 0.247795E+000
 0.228635E+000
 0.195425E+000
 0.129545E+000
-0.167417E-001
 0.266540E+000
 0.258928E+000
 0.248413E+000
 0.233003E+000
 0.208898E+000
 0.167869E+000
 0.908583E-001
-0.676522E-001
 0.259354E+000
 0.250798E+000
 0.238639E+000
 0.220673E+000
 0.192706E+000
 0.146080E+000
 0.618295E-001
-0.103822E+000
 0.255107E+000
 0.246087E+000
 0.232991E+000
 0.213586E+000
 0.183524E+000
 0.134020E+000
 0.462344E-001
-0.122640E+000
 0.255107E+000
 0.246087E+000
 0.232991E+000
 0.213586E+000
 0.183524E+000
 0.134020E+000
 0.462344E-001
-0.122640E+000
 0.259354E+000
 0.250798E+000
 0.238639E+000
 0.220673E+000
 0.192706E+000
 0.146080E+000
 0.618295E-001
-0.103822E+000
 0.266540E+000
 0.258928E+000
 0.248413E+000
 0.233003E+000
 0.208898E+000
 0.167869E+000
 0.908583E-001
-0.676522E-001
 0.274724E+000
 0.268621E+000
 0.260153E+000
 0.247795E+000
 0.228635E+000
 0.195425E+000
 0.129545E+000
-0.167417E-001
 0.282544E+000
 0.277988E+000
 0.271950E+000
 0.262736E+000
 0.248417E+000
 0.224287E+000
 0.173239E+000
 0.457216E-001
 0.289147E+000
 0.286181E+000
 0.282072E+000
 0.276434E+000
 0.266398E+000
 0.250294E+000
 0.217216E+000
 0.116343E+000
 0.294256E+000
 0.292693E+000
 0.290395E+000
 0.287173E+000
 0.282391E+000
 0.271987E+000
 0.255487E+000
 0.193287E+000
 0.298132E+000
 0.297453E+000
 0.296773E+000
 0.295560E+000
 0.294387E+000
 0.291185E+000
 0.285253E+000
 0.267552E+000
 0.300966E+000
 0.301163E+000
 0.301456E+000
 0.302606E+000
 0.303141E+000
 0.307074E+000
 0.309782E+000
 0.330129E+000
 0.304476E+000
 0.305641E+000
 0.307879E+000
 0.310378E+000
 0.316045E+000
 0.324112E+000
 0.342438E+000
 0.397204E+000
 0.309214E+000
 0.312074E+000
 0.315654E+000
 0.321678E+000
 0.330717E+000
 0.346846E+000
 0.379325E+000
 0.470654E+000
 0.315625E+000
 0.319801E+000
 0.325917E+000
 0.334716E+000
 0.348772E+000
 0.372696E+000
 0.421680E+000
 0.539539E+000
 0.322974E+000
 0.329047E+000
 0.337301E+000
 0.349487E+000
 0.368425E+000
 0.400956E+000
 0.464058E+000
 0.601056E+000
 0.330861E+000
 0.338378E+000
 0.348834E+000
 0.364097E+000
 0.387859E+000
 0.427860E+000
 0.501822E+000
 0.651417E+000
 0.337644E+000
 0.346289E+000
 0.358429E+000
 0.376239E+000
 0.403739E+000
 0.449153E+000
 0.530275E+000
 0.687284E+000
 0.341673E+000
 0.350862E+000
 0.363974E+000
 0.383200E+000
 0.412737E+000
 0.460954E+000
 0.545596E+000
 0.705965E+000
 0.341673E+000
 0.350862E+000
 0.363974E+000
 0.383200E+000
 0.412737E+000
 0.460954E+000
 0.545596E+000
 0.705965E+000
 0.337644E+000
 0.346289E+000
 0.358429E+000
 0.376239E+000
 0.403739E+000
 0.449153E+000
 0.530275E+000
 0.687284E+000
 0.330861E+000
 0.338378E+000
 0.348834E+000
 0.364097E+000
 0.387859E+000
 0.427860E+000
 0.501822E+000
 0.651417E+000
 0.322974E+000
 0.329047E+000
 0.337301E+000
 0.349487E+000
 0.368425E+000
 0.400956E+000
 0.464058E+000
 0.601056E+000
 0.315625E+000
 0.319801E+000
 0.325917E+000
 0.334716E+000
 0.348772E+000
 0.372696E+000
 0.421680E+000
 0.539539E+000
 0.309214E+000
 0.312074E+000
 0.315654E+000
 0.321678E+000
 0.330717E+000
 0.346846E+000
 0.379325E+000
 0.470654E+000
 0.304476E+000
 0.305641E+000
 0.307879E+000
 0.310378E+000
 0.316045E+000
 0.324112E+000
 0.342438E+000
 0.397204E+000
 0.300966E+000
 0.301163E+000
 0.301456E+000
 0.302606E+000
 0.303141E+000
 0.307074E+000
 0.309782E+000
 0.330129E+000
 0.298132E+000
 0.297453E+000
 0.296773E+000
 0.295560E+000
 0.294387E+000
 0.291185E+000
 0.285253E+000
 0.267552E+000
 0.294256E+000
 0.292693E+000
 0.290395E+000
 0.287173E+000
 0.282391E+000
 0.271987E+000
 0.255487E+000
 0.193287E+000
 0.289147E+000
 0.286181E+000
 0.282072E+000
 0.276434E+000
 0.266398E+000
 0.250294E+000
 0.217216E+000
 0.116343E+000
 0.282544E+000
 0.277988E+000
 0.271950E+000
 0.262736E+000
 0.248417E+000
 0.224287E+000
 0.173239E+000
 0.457216E-001
 0.274724E+000
 0.268621E+000
 0.260153E+000
 0.247795E+000
 0.228635E+000
 0.195425E+000
 0.129545E+000
-0.167417E-001
 0.266540E+000
 0.258928E+000
 0.248413E+000
 0.233003E+000
 0.208898E+000
 0.167869E+000
 0.908583E-001
-0.676522E-001
 0.259354E+000
 0.250798E+000
 0.238639E+000
 0.220673E+000
 0.192706E+000
 0.146080E+000
 0.618295E-001
-0.103822E+000
 0.255107E+000
 0.246087E+000
 0.232991E+000
 0.213586E+000
 0.183524E+000
 0.134020E+000
 0.462344E-001
-0.122640E+000
 0.255107E+000
 0.246087E+000
 0.232991E+000
 0.213586E+000
 0.183524E+000
 0.134020E+000
 0.462344E-001
-0.122640E+000
 0.259354E+000
 0.250798E+000
 0.238639E+000
 0.220673E+000
 0.192706E+000
 0.146080E+000
 0.618295E-001
-0.103822E+000
 0.266540E+000
 0.258928E+000
 0.248413E+000
 0.233003E+000
 0.208898E+000
 0.167869E+000
 0.908583E-001
-0.676522E-001
 0.274724E+000
 0.268621E+000
 0.260153E+000
 0.247795E+000
 0.228635E+000
 0.195425E+000
 0.129545E+000
-0.167417E-001
 0.282544E+000
 0.277988E+000
 0.271950E+000
 0.262736E+000
 0.248417E+000
 0.224287E+000
 0.173239E+000
 0.457216E-001
 0.289147E+000
 0.286181E+000
 0.282072E+000
 0.276434E+000
 0.266398E+000
 0.250294E+000
 0.217216E+000
 0.116343E+000
 0.294256E+000
 0.292693E+000
 0.290395E+000
 0.287173E+000
 0.282391E+000
 0.271987E+000
 0.255487E+000
 0.193287E+000
 0.298132E+000
 0.297453E+000
 0.296773E+000
 0.295560E+000
 0.294387E+000
 0.291185E+000
 0.285253E+000
 0.267552E+000
SCALARS stress_23 FLOAT     1
LOOKUP_TABLE default
 0.000000E+000
 0.000000E+000
 0.000000E+000
 0.000000E+000
 0.000000E+000
 0.000000E+000
 0.000000E+000
 0.000000E+000
 0.000000E+000
 0.000000E+000
 0.000000E+000
 0.000000E+000
 0.000000E+000
 0.000000E+000
 0.000000E+000
 0.000000E+000
 0.000000E+000
 0.000000E+000
 0.000000E+000
 0.000000E+000
 0.000000E+000
 0.000000E+000
 0.000000E+000
 0.000000E+000
 0.000000E+000
 0.000000E+000
 0.000000E+000
 0.000000E+000
 0.000000E+000
 0.000000E+000
 0.000000E+000
 0.000000E+000
 0.000000E+000
 0.000000E+000
 0.000000E+000
 0.000000E+000
 0.000000E+000
 0.000000E+000
 0.000000E+000
 0.000000E+000
 0.000000E+000
 0.000000E+000
 0.000000E+000
 0.000000E+000
 0.000000E+000
 0.000000E+000
 0.000000E+000
 0.000000E+000
 0.000000E+000
 0.000000E+000
 0.000000E+000
 0.000000E+000
 0.000000E+000
 0.000000E+000
 0.000000E+000
 0.000000E+000
 0.000000E+000
 0.000000E+000
 0.000000E+000
 0.000000E+000
 0.000000E+000
 0.000000E+000
 0.000000E+000
 0.000000E+000
 0.000000E+000
 0.000000E+000
 0.000000E+000
 0.000000E+000
 0.000000E+000
 0.000000E+000
 0.000000E+000
 0.000000E+000
 0.000000E+000
 0.000000E+000
 0.000000E+000
 0.000000E+000
 0.000000E+000
 0.000000E+000
 0.000000E+000
 0.000000E+000
 0.000000E+000
 0.000000E+000
 0.000000E+000
 0.000000E+000
 0.000000E+000
 0.000000E+000
 0.000000E+000
 0.000000E+000
 0.000000E+000
 0.000000E+000
 0.000000E+000
 0.000000E+000
 0.000000E+000
 0.000000E+000
 0.000000E+000
 0.000000E+000
 0.000000E+000
 0.000000E+000
 0.000000E+000
 0.000000E+000
 0.000000E+000
 0.000000E+000
 0.000000E+000
 0.000000E+000
 0.000000E+000
 0.000000E+000
 0.000000E+000
 0.000000E+000
 0.000000E+000
 0.000000E+000
 0.000000E+000
 0.000000E+000
 0.000000E+000
 0.000000E+000
 0.000000E+000
 0.000000E+000
 0.000000E+000
 0.000000E+000
 0.000000E+000
 0.000000E+000
 0.000000E+000
 0.000000E+000
 0.000000E+000
 0.000000E+000
 0.000000E+000
 0.000000E+000
 0.000000E+000
 0.000000E+000
 0.000000E+000
 0.000000E+000
 0.000000E+000
 0.000000E+000
 0.000000E+000
 0.000000E+000
 0.000000E+000
 0.000000E+000
 0.000000E+000
 0.000000E+000
 0.000000E+000
 0.000000E+000
 0.000000E+000
 0.000000E+000
 0.000000E+000
 0.000000E+000
 0.000000E+000
 0.000000E+000
 0.000000E+000
 0.000000E+000
 0.000000E+000
 0.000000E+000
 0.000000E+000
 0.000000E+000
 0.000000E+000
 0.000000E+000
 0.000000E+000
 0.000000E+000
 0.000000E+000
 0.000000E+000
 0.000000E+000
 0.000000E+000
 0.000000E+000
 0.000000E+000
 0.000000E+000
 0.000000E+000
 0.000000E+000
 0.000000E+000
 0.000000E+000
 0.000000E+000
 0.000000E+000
 0.000000E+000
 0.000000E+000
 0.000000E+000
 0.000000E+000
 0.000000E+000
 0.000000E+000
 0.000000E+000
 0.000000E+000
 0.000000E+000
 0.000000E+000
 0.000000E+000
 0.000000E+000
 0.000000E+000
 0.000000E+000
 0.000000E+000
 0.000000E+000
 0.000000E+000
 0.000000E+000
 0.000000E+000
 0.000000E+000
 0.000000E+000
 0.000000E+000
 0.000000E+000
 0.000000E+000
 0.000000E+000
 0.000000E+000
 0.000000E+000
 0.000000E+000
 0.000000E+000
 0.000000E+000
 0.000000E+000
 0.000000E+000
 0.000000E+000
 0.000000E+000
 0.000000E+000
 0.000000E+000
 0.000000E+000
 0.000000E+000
 0.000000E+000
 0.000000E+000
 0.000000E+000
 0.000000E+000
 0.000000E+000
 0.000000E+000
 0.000000E+000
 0.000000E+000
 0.000000E+000
 0.000000E+000
 0.000000E+000
 0.000000E+000
 0.000000E+000
 0.000000E+000
 0.000000E+000
 0.000000E+000
 0.000000E+000
 0.000000E+000
 0.000000E+000
 0.000000E+000
 0.000000E+000
 0.000000E+000
 0.000000E+000
 0.000000E+000
 0.000000E+000
 0.000000E+000
 0.000000E+000
 0.000000E+000
 0.000000E+000
 0.000000E+000
 0.000000E+000
 0.000000E+000
 0.000000E+000
 0.000000E+000
 0.000000E+000
 0.000000E+000
 0.000000E+000
 0.000000E+000
 0.000000E+000
 0.000000E+000
 0.000000E+000
 0.000000E+000
 0.000000E+000
 0.000000E+000
 0.000000E+000
 0.000000E+000
 0.000000E+000
 0.000000E+000
 0.000000E+000
 0.000000E+000
 0.000000E+000
 0.000000E+000
 0.000000E+000
 0.000000E+000
 0.000000E+000
 0.000000E+000
 0.000000E+000
 0.000000E+000
 0.000000E+000
 0.000000E+000
 0.000000E+000
 0.000000E+000
 0.000000E+000
 0.000000E+000
 0.000000E+000
 0.000000E+000
 0.000000E+000
 0.000000E+000
 0.000000E+000
 0.000000E+000
 0.000000E+000
 0.000000E+000
 0.000000E+000
 0.000000E+000
 0.000000E+000
 0.000000E+000
 0.000000E+000
 0.000000E+000
 0.000000E+000
 0.000000E+000
 0.000000E+000
 0.000000E+000
 0.000000E+000
 0.000000E+000
 0.000000E+000
 0.000000E+000
 0.000000E+000
 0.000000E+000
 0.000000E+000
 0.000000E+000
 0.000000E+000
 0.000000E+000
 0.000000E+000
 0.000000E+000
 0.000000E+000
 0.000000E+000
 0.000000E+000
 0.000000E+000
 0.000000E+000
 0.000000E+000
 0.000000E+000
 0.000000E+000
 0.000000E+000
 0.000000E+000
 0.000000E+000
 0.000000E+000
 0.000000E+000
 0.000000E+000
 0.000000E+000
 0.000000E+000
 0.000000E+000
 0.000000E+000
 0.000000E+000
 0.000000E+000
 0.000000E+000
 0.000000E+000
 0.000000E+000
 0.000000E+000
 0.000000E+000
 0.000000E+000
 0.000000E+000
 0.000000E+000
 0.000000E+000
 0.000000E+000
 0.000000E+000
 0.000000E+000
 0.000000E+000
 0.000000E+000
 0.000000E+000
 0.000000E+000
 0.000000E+000
 0.000000E+000
 0.000000E+000
 0.000000E+000
 0.000000E+000
 0.000000E+000
 0.000000E+000
 0.000000E+000
 0.000000E+000
 0.000000E+000
 0.000000E+000
 0.000000E+000
 0.000000E+000
 0.000000E+000
 0.000000E+000
 0.000000E+000
 0.000000E+000
 0.000000E+000
 0.000000E+000
 0.000000E+000
 0.000000E+000
 0.000000E+000
 0.000000E+000
 0.000000E+000
 0.000000E+000
 0.000000E+000
 0.000000E+000
 0.000000E+000
 0.000000E+000
 0.000000E+000
 0.000000E+000
 0.000000E+000
 0.000000E+000
 0.000000E+000
 0.000000E+000
 0.000000E+000
 0.000000E+000
 0.000000E+000
 0.000000E+000
 0.000000E+000
 0.000000E+000
 0.000000E+000
 0.000000E+000
 0.000000E+000
 0.000000E+000
 0.000000E+000
 0.000000E+000
 0.000000E+000
 0.000000E+000
 0.000000E+000
 0.000000E+000
 0.000000E+000
 0.000000E+000
 0.000000E+000
 0.000000E+000
 0.000000E+000
 0.000000E+000
 0.000000E+000
 0.000000E+000
 0.000000E+000
 0.000000E+000
 0.000000E+000
 0.000000E+000
 0.000000E+000
 0.000000E+000
 0.000000E+000
 0.000000E+000
 0.000000E+000
 0.000000E+000
 0.000000E+000
 0.000000E+000
 0.000000E+000
 0.000000E+000
 0.000000E+000
 0.000000E+000
 0.000000E+000
 0.000000E+000
 0.000000E+000
 0.000000E+000
 0.000000E+000
 0.000000E+000
 0.000000E+000
 0.000000E+000
 0.000000E+000
 0.000000E+000
 0.000000E+000
 0.000000E+000
 0.000000E+000
 0.000000E+000
 0.000000E+000
 0.000000E+000
 0.000000E+000
 0.000000E+000
 0.000000E+000
 0.000000E+000
 0.000000E+000
 0.000000E+000
 0.000000E+000
 0.000000E+000
 0.000000E+000
 0.000000E+000
 0.000000E+000
 0.000000E+000
 0.000000E+000
 0.000000E+000
 0.000000E+000
 0.000000E+000
 0.000000E+000
 0.000000E+000
 0.000000E+000
 0.000000E+000
 0.000000E+000
 0.000000E+000
 0.000000E+000
 0.000000E+000
 0.000000E+000
 0.000000E+000
 0.000000E+000
 0.000000E+000
 0.000000E+000
 0.000000E+000
 0.000000E+000
 0.000000E+000
 0.000000E+000
 0.000000E+000
 0.000000E+000
 0.000000E+000
 0.000000E+000
 0.000000E+000
 0.000000E+000
 0.000000E+000
 0.000000E+000
 0.000000E+000
 0.000000E+000
 0.000000E+000
 0.000000E+000
 0.000000E+000
 0.000000E+000
 0.000000E+000
 0.000000E+000
 0.000000E+000
 0.000000E+000
 0.000000E+000
 0.000000E+000
 0.000000E+000
 0.000000E+000
 0.000000E+000
 0.000000E+000
 0.000000E+000
 0.000000E+000
 0.000000E+000
 0.000000E+000
 0.000000E+000
 0.000000E+000
 0.000000E+000
 0.000000E+000
 0.000000E+000
 0.000000E+000
 0.000000E+000
 0.000000E+000
 0.000000E+000
 0.000000E+000
 0.000000E+000
 0.000000E+000
 0.000000E+000
 0.000000E+000
 0.000000E+000
 0.000000E+000
 0.000000E+000
 0.000000E+000
 0.000000E+000
 0.000000E+000
 0.000000E+000
 0.000000E+000
 0.000000E+000
SCALARS stress_13 FLOAT     1
LOOKUP_TABLE default
 0.000000E+000
 0.000000E+000
 0.000000E+000
 0.000000E+000
 0.000000E+000
 0.000000E+000
 0.000000E+000
 0.000000E+000
 0.000000E+000
 0.000000E+000
 0.000000E+000
 0.000000E+000
 0.000000E+000
 0.000000E+000
 0.000000E+000
 0.000000E+000
 0.000000E+000
 0.000000E+000
 0.000000E+000
 0.000000E+000
 0.000000E+000
 0.000000E+000
 0.000000E+000
 0.000000E+000
 0.000000E+000
 0.000000E+000
 0.000000E+000
 0.000000E+000
 0.000000E+000
 0.000000E+000
 0.000000E+000
 0.000000E+000
 0.000000E+000
 0.000000E+000
 0.000000E+000
 0.000000E+000
 0.000000E+000
 0.000000E+000
 0.000000E+000
 0.000000E+000
 0.000000E+000
 0.000000E+000
 0.000000E+000
 0.000000E+000
 0.000000E+000
 0.000000E+000
 0.000000E+000
 0.000000E+000
 0.000000E+000
 0.000000E+000
 0.000000E+000
 0.000000E+000
 0.000000E+000
 0.000000E+000
 0.000000E+000
 0.000000E+000
 0.000000E+000
 0.000000E+000
 0.000000E+000
 0.000000E+000
 0.000000E+000
 0.000000E+000
 0.000000E+000
 0.000000E+000
 0.000000E+000
 0.000000E+000
 0.000000E+000
 0.000000E+000
 0.000000E+000
 0.000000E+000
 0.000000E+000
 0.000000E+000
 0.000000E+000
 0.000000E+000
 0.000000E+000
 0.000000E+000
 0.000000E+000
 0.000000E+000
 0.000000E+000
 0.000000E+000
 0.000000E+000
 0.000000E+000
 0.000000E+000
 0.000000E+000
 0.000000E+000
 0.000000E+000
 0.000000E+000
 0.000000E+000
 0.000000E+000
 0.000000E+000
 0.000000E+000
 0.000000E+000
 0.000000E+000
 0.000000E+000
 0.000000E+000
 0.000000E+000
 0.000000E+000
 0.000000E+000
 0.000000E+000
 0.000000E+000
 0.000000E+000
 0.000000E+000
 0.000000E+000
 0.000000E+000
 0.000000E+000
 0.000000E+000
 0.000000E+000
 0.000000E+000
 0.000000E+000
 0.000000E+000
 0.000000E+000
 0.000000E+000
 0.000000E+000
 0.000000E+000
 0.000000E+000
 0.000000E+000
 0.000000E+000
 0.000000E+000
 0.000000E+000
 0.000000E+000
 0.000000E+000
 0.000000E+000
 0.000000E+000
 0.000000E+000
 0.000000E+000
 0.000000E+000
 0.000000E+000
 0.000000E+000
 0.000000E+000
 0.000000E+000
 0.000000E+000
 0.000000E+000
 0.000000E+000
 0.000000E+000
 0.000000E+000
 0.000000E+000
 0.000000E+000
 0.000000E+000
 0.000000E+000
 0.000000E+000
 0.000000E+000
 0.000000E+000
 0.000000E+000
 0.000000E+000
 0.000000E+000
 0.000000E+000
 0.000000E+000
 0.000000E+000
 0.000000E+000
 0.000000E+000
 0.000000E+000
 0.000000E+000
 0.000000E+000
 0.000000E+000
 0.000000E+000
 0.000000E+000
 0.000000E+000
 0.000000E+000
 0.000000E+000
 0.000000E+000
 0.000000E+000
 0.000000E+000
 0.000000E+000
 0.000000E+000
 0.000000E+000
 0.000000E+000
 0.000000E+000
 0.000000E+000
 0.000000E+000
 0.000000E+000
 0.000000E+000
 0.000000E+000
 0.000000E+000
 0.000000E+000
 0.000000E+000
 0.000000E+000
 0.000000E+000
 0.000000E+000
 0.000000E+000
 0.000000E+000
 0.000000E+000
 0.000000E+000
 0.000000E+000
 0.000000E+000
 0.000000E+000
 0.000000E+000
 0.000000E+000
 0.000000E+000
 0.000000E+000
 0.000000E+000
 0.000000E+000
 0.000000E+000
 0.000000E+000
 0.000000E+000
 0.000000E+000
 0.000000E+000
 0.000000E+000
 0.000000E+000
 0.000000E+000
 0.000000E+000
 0.000000E+000
 0.000000E+000
 0.000000E+000
 0.000000E+000
 0.000000E+000
 0.000000E+000
 0.000000E+000
 0.000000E+000
 0.000000E+000
 0.000000E+000
 0.000000E+000
 0.000000E+000
 0.000000E+000
 0.000000E+000
 0.000000E+000
 0.000000E+000
 0.000000E+000
 0.000000E+000
 0.000000E+000
 0.000000E+000
 0.000000E+000
 0.000000E+000
 0.000000E+000
 0.000000E+000
 0.000000E+000
 0.000000E+000
 0.000000E+000
 0.000000E+000
 0.000000E+000
 0.000000E+000
 0.000000E+000
 0.000000E+000
 0.000000E+000
 0.000000E+000
 0.000000E+000
 0.000000E+000
 0.000000E+000
 0.000000E+000
 0.000000E+000
 0.000000E+000
 0.000000E+000
 0.000000E+000
 0.000000E+000
 0.000000E+000
 0.000000E+000
 0.000000E+000
 0.000000E+000
 0.000000E+000
 0.000000E+000
 0.000000E+000
 0.000000E+000
 0.000000E+000
 0.000000E+000
 0.000000E+000
 0.000000E+000
 0.000000E+000
 0.000000E+000
 0.000000E+000
 0.000000E+000
 0.000000E+000
 0.000000E+000
 0.000000E+000
 0.000000E+000
 0.000000E+000
 0.000000E+000
 0.000000E+000
 0.000000E+000
 0.000000E+000
 0.000000E+000
 0.000000E+000
 0.000000E+000
 0.000000E+000
 0.000000E+000
 0.000000E+000
 0.000000E+000
 0.000000E+000
 0.000000E+000
 0.000000E+000
 0.000000E+000
 0.000000E+000
 0.000000E+000
 0.000000E+000
 0.000000E+000
 0.000000E+000
 0.000000E+000
 0.000000E+000
 0.000000E+000
 0.000000E+000
 0.000000E+000
 0.000000E+000
 0.000000E+000
 0.000000E+000
 0.000000E+000
 0.000000E+000
 0.000000E+000
 0.000000E+000
 0.000000E+000
 0.000000E+000
 0.000000E+000
 0.000000E+000
 0.000000E+000
 0.000000E+000
 0.000000E+000
 0.000000E+000
 0.000000E+000
 0.000000E+000
 0.000000E+000
 0.000000E+000
 0.000000E+000
 0.000000E+000
 0.000000E+000
 0.000000E+000
 0.000000E+000
 0.000000E+000
 0.000000E+000
 0.000000E+000
 0.000000E+000
 0.000000E+000
 0.000000E+000
 0.000000E+000
 0.000000E+000
 0.000000E+000
 0.000000E+000
 0.000000E+000
 0.000000E+000
 0.000000E+000
 0.000000E+000
 0.000000E+000
 0.000000E+000
 0.000000E+000
 0.000000E+000
 0.000000E+000
 0.000000E+000
 0.000000E+000
 0.000000E+000
 0.000000E+000
 0.000000E+000
 0.000000E+000
 0.000000E+000
 0.000000E+000
 0.000000E+000
 0.000000E+000
 0.000000E+000
 0.000000E+000
 0.000000E+000
 0.000000E+000
 0.000000E+000
 0.000000E+000
 0.000000E+000
 0.000000E+000
 0.000000E+000
 0.000000E+000
 0.000000E+000
 0.000000E+000
 0.000000E+000
 0.000000E+000
 0.000000E+000
 0.000000E+000
 0.000000E+000
 0.000000E+000
 0.000000E+000
 0.000000E+000
 0.000000E+000
 0.000000E+000
 0.000000E+000
 0.000000E+000
 0.000000E+000
 0.000000E+000
 0.000000E+000
 0.000000E+000
 0.000000E+000
 0.000000E+000
 0.000000E+000
 0.000000E+000
 0.000000E+000
 0.000000E+000
 0.000000E+000
 0.000000E+000
 0.000000E+000
 0.000000E+000
 0.000000E+000
 0.000000E+000
 0.000000E+000
 0.000000E+000
 0.000000E+000
 0.000000E+000
 0.000000E+000
 0.000000E+000
 0.000000E+000
 0.000000E+000
 0.000000E+000
 0.000000E+000
 0.000000E+000
 0.000000E+000
 0.000000E+000
 0.000000E+000
 0.000000E+000
 0.000000E+000
 0.000000E+000
 0.000000E+000
 0.000000E+000
 0.000000E+000
 0.000000E+000
 0.000000E+000
 0.000000E+000
 0.000000E+000
 0.000000E+000
 0.000000E+000
 0.000000E+000
 0.000000E+000
 0.000000E+000
 0.000000E+000
 0.000000E+000
 0.000000E+000
 0.000000E+000
 0.000000E+000
 0.000000E+000
 0.000000E+000
 0.000000E+000
 0.000000E+000
 0.000000E+000
 0.000000E+000
 0.000000E+000
 0.000000E+000
 0.000000E+000
 0.000000E+000
 0.000000E+000
 0.000000E+000
 0.000000E+000
 0.000000E+000
 0.000000E+000
 0.000000E+000
 0.000000E+000
 0.000000E+000
 0.000000E+000
 0.000000E+000
 0.000000E+000
 0.000000E+000
 0.000000E+000
 0.000000E+000
 0.000000E+000
 0.000000E+000
 0.000000E+000
 0.000000E+000
 0.000000E+000
 0.000000E+000
 0.000000E+000
 0.000000E+000
 0.000000E+000
 0.000000E+000
 0.000000E+000
 0.000000E+000
 0.000000E+000
 0.000000E+000
 0.000000E+000
 0.000000E+000
 0.000000E+000
 0.000000E+000
 0.000000E+000
 0.000000E+000
 0.000000E+000
 0.000000E+000
 0.000000E+000
 0.000000E+000
 0.000000E+000
 0.000000E+000
 0.000000E+000
 0.000000E+000
 0.000000E+000
 0.000000E+000
 0.000000E+000
 0.000000E+000
 0.000000E+000
 0.000000E+000
 0.000000E+000
 0.000000E+000
 0.000000E+000
 0.000000E+000
 0.000000E+000
 0.000000E+000
 0.000000E+000
 0.000000E+000
 0.000000E+000
 0.000000E+000
 0.000000E+000
 0.000000E+000
 0.000000E+000
 0.000000E+000
 0.000000E+000
 0.000000E+000
 0.000000E+000
 0.000000E+000
 0.000000E+000
 0.000000E+000
 0.000000E+000
 0.000000E+000
 0.000000E+000
 0.000000E+000
 0.000000E+000
 0.000000E+000
 0.000000E+000
 0.000000E+000
 0.000000E+000
 0.000000E+000
 0.000000E+000
 0.000000E+000
 0.000000E+000
 0.000000E+000
 0.000000E+000
 0.000000E+000
 0.000000E+000
 0.000000E+000
SCALARS stress_12 FLOAT     1
LOOKUP_TABLE default
-0.140859E-001
-0.177258E-001
-0.229250E-001
-0.313230E-001
-0.433886E-001
-0.725744E-001
-0.109052E+000
-0.336166E+000
-0.488091E-002
-0.597684E-002
-0.831733E-002
-0.110717E-001
-0.186510E-001
-0.335176E-001
-0.577320E-001
-0.368276E+000
 0.739993E-002
 0.877578E-002
 0.107420E-001
 0.123547E-001
 0.123929E-001
 0.115729E-001
-0.205979E-001
-0.373992E+000
 0.207543E-001
 0.250879E-001
 0.304048E-001
 0.368572E-001
 0.445685E-001
 0.499986E-001
 0.561149E-002
-0.359932E+000
 0.320677E-001
 0.381789E-001
 0.461083E-001
 0.561987E-001
 0.680599E-001
 0.731363E-001
 0.190219E-001
-0.320506E+000
 0.361118E-001
 0.426574E-001
 0.513056E-001
 0.621121E-001
 0.735339E-001
 0.750485E-001
 0.215710E-001
-0.254387E+000
 0.290692E-001
 0.341299E-001
 0.408646E-001
 0.489670E-001
 0.566278E-001
 0.556479E-001
 0.161045E-001
-0.164074E+000
 0.112076E-001
 0.131216E-001
 0.156661E-001
 0.186322E-001
 0.212609E-001
 0.204855E-001
 0.588756E-002
-0.567423E-001
-0.112076E-001
-0.131216E-001
-0.156661E-001
-0.186322E-001
-0.212609E-001
-0.204855E-001
-0.588756E-002
 0.567423E-001
-0.290692E-001
-0.341299E-001
-0.408646E-001
-0.489670E-001
-0.566278E-001
-0.556479E-001
-0.161045E-001
 0.164074E+000
-0.361118E-001
-0.426574E-001
-0.513056E-001
-0.621121E-001
-0.735339E-001
-0.750485E-001
-0.215710E-001
 0.254387E+000
-0.320677E-001
-0.381789E-001
-0.461083E-001
-0.561987E-001
-0.680599E-001
-0.731363E-001
-0.190219E-001
 0.320506E+000
-0.207543E-001
-0.250879E-001
-0.304048E-001
-0.368572E-001
-0.445685E-001
-0.499986E-001
-0.561149E-002
 0.359932E+000
-0.739993E-002
-0.877578E-002
-0.107420E-001
-0.123547E-001
-0.123929E-001
-0.115729E-001
 0.205979E-001
 0.373992E+000
 0.488091E-002
 0.597684E-002
 0.831733E-002
 0.110717E-001
 0.186510E-001
 0.335176E-001
 0.577320E-001
 0.368276E+000
 0.140859E-001
 0.177258E-001
 0.229250E-001
 0.313230E-001
 0.433886E-001
 0.725744E-001
 0.109052E+000
 0.336166E+000
 0.233906E-001
 0.293790E-001
 0.379188E-001
 0.503228E-001
 0.716643E-001
 0.103511E+000
 0.179703E+000
 0.290568E+000
 0.369116E-001
 0.460400E-001
 0.586348E-001
 0.775718E-001
 0.107437E+000
 0.150305E+000
 0.254334E+000
 0.251642E+000
 0.523819E-001
 0.645966E-001
 0.815862E-001
 0.106994E+000
 0.142531E+000
 0.202938E+000
 0.298928E+000
 0.211137E+000
 0.669798E-001
 0.817806E-001
 0.102612E+000
 0.131615E+000
 0.173893E+000
 0.240714E+000
 0.310989E+000
 0.164494E+000
 0.759393E-001
 0.919647E-001
 0.113945E+000
 0.144460E+000
 0.188599E+000
 0.247946E+000
 0.288070E+000
 0.118811E+000
 0.731963E-001
 0.877612E-001
 0.107869E+000
 0.135620E+000
 0.173203E+000
 0.216698E+000
 0.232868E+000
 0.778184E-001
 0.541181E-001
 0.644713E-001
 0.788900E-001
 0.982211E-001
 0.122828E+000
 0.148237E+000
 0.151309E+000
 0.431396E-001
 0.200975E-001
 0.238737E-001
 0.291233E-001
 0.360220E-001
 0.445031E-001
 0.527172E-001
 0.524494E-001
 0.137040E-001
-0.200975E-001
-0.238737E-001
-0.291233E-001
-0.360220E-001
-0.445031E-001
-0.527172E-001
-0.524494E-001
-0.137040E-001
-0.541181E-001
-0.644713E-001
-0.788900E-001
-0.982211E-001
-0.122828E+000
-0.148237E+000
-0.151309E+000
-0.431396E-001
-0.731963E-001
-0.877612E-001
-0.107869E+000
-0.135620E+000
-0.173203E+000
-0.216698E+000
-0.232868E+000
-0.778184E-001
-0.759393E-001
-0.919647E-001
-0.113945E+000
-0.144460E+000
-0.188599E+000
-0.247946E+000
-0.288070E+000
-0.118811E+000
-0.669798E-001
-0.817806E-001
-0.102612E+000
-0.131615E+000
-0.173893E+000
-0.240714E+000
-0.310989E+000
-0.164494E+000
-0.523819E-001
-0.645966E-001
-0.815862E-001
-0.106994E+000
-0.142531E+000
-0.202938E+000
-0.298928E+000
-0.211137E+000
-0.369116E-001
-0.460400E-001
-0.586348E-001
-0.775718E-001
-0.107437E+000
-0.150305E+000
-0.254334E+000
-0.251642E+000
-0.233906E-001
-0.293790E-001
-0.379188E-001
-0.503228E-001
-0.716643E-001
-0.103511E+000
-0.179703E+000
-0.290568E+000
-0.140859E-001
-0.177258E-001
-0.229250E-001
-0.313230E-001
-0.433886E-001
-0.725744E-001
-0.109052E+000
-0.336166E+000
-0.488091E-002
-0.597684E-002
-0.831733E-002
-0.110717E-001
-0.186510E-001
-0.335176E-001
-0.577320E-001
-0.368276E+000
 0.739993E-002
 0.877578E-002
 0.107420E-001
 0.123547E-001
 0.123929E-001
 0.115729E-001
-0.205979E-001
-0.373992E+000
 0.207543E-001
 0.250879E-001
 0.304048E-001
 0.368572E-001
 0.445685E-001
 0.499986E-001
 0.561149E-002
-0.359932E+000
 0.320677E-001
 0.381789E-001
 0.461083E-001
 0.561987E-001
 0.680599E-001
 0.731363E-001
 0.190219E-001
-0.320506E+000
 0.361118E-001
 0.426574E-001
 0.513056E-001
 0.621121E-001
 0.735339E-001
 0.750485E-001
 0.215710E-001
-0.254387E+000
 0.290692E-001
 0.341299E-001
 0.408646E-001
 0.489670E-001
 0.566278E-001
 0.556479E-001
 0.161045E-001
-0.164074E+000
 0.112076E-001
 0.131216E-001
 0.156661E-001
 0.186322E-001
 0.212609E-001
 0.204855E-001
 0.588756E-002
-0.567423E-001
-0.112076E-001
-0.131216E-001
-0.156661E-001
-0.186322E-001
-0.212609E-001
-0.204855E-001
-0.588756E-002
 0.567423E-001
-0.290692E-001
-0.341299E-001
-0.408646E-001
-0.489670E-001
-0.566278E-001
-0.556479E-001
-0.161045E-001
 0.164074E+000
-0.361118E-001
-0.426574E-001
-0.513056E-001
-0.621121E-001
-0.735339E-001
-0.750485E-001
-0.215710E-001
 0.254387E+000
-0.320677E-001
-0.381789E-001
-0.461083E-001
-0.561987E-001
-0.680599E-001
-0.731363E-001
-0.190219E-001
 0.320506E+000
-0.207543E-001
-0.250879E-001
-0.304048E-001
-0.368572E-001
-0.445685E-001
-0.499986E-001
-0.561149E-002
 0.359932E+000
-0.739993E-002
-0.877578E-002
-0.107420E-001
-0.123547E-001
-0.123929E-001
-0.115729E-001
 0.205979E-001
 0.373992E+000
 0.488091E-002
 0.597684E-002
 0.831733E-002
 0.110717E-001
 0.186510E-001
 0.335176E-001
 0.577320E-001
 0.368276E+000
 0.140859E-001
 0.177258E-001
 0.229250E-001
 0.313230E-001
 0.433886E-001
 0.725744E-001
 0.109052E+000
 0.336166E+000
 0.233906E-001
 0.293790E-001
 0.379188E-001
 0.503228E-001
 0.716643E-001
 0.103511E+000
 0.179703E+000
 0.290568E+000
 0.369116E-001
 0.460400E-001
 0.586348E-001
 0.775718E-001
 0.107437E+000
 0.150305E+000
 0.254334E+000
 0.251642E+000
 0.523819E-001
 0.645966E-001
 0.815862E-001
 0.106994E+000
 0.142531E+000
 0.202938E+000
 0.298928E+000
 0.211137E+000
 0.669798E-001
 0.817806E-001
 0.102612E+000
 0.131615E+000
 0.173893E+000
 0.240714E+000
 0.310989E+000
 0.164494E+000
 0.759393E-001
 0.919647E-001
 0.113945E+000
 0.144460E+000
 0.188599E+000
 0.247946E+000
 0.288070E+000
 0.118811E+000
 0.731963E-001
 0.877612E-001
 0.107869E+000
 0.135620E+000
 0.173203E+000
 0.216698E+000
 0.232868E+000
 0.778184E-001
 0.541181E-001
 0.644713E-001
 0.788900E-001
 0.982211E-001
 0.122828E+000
 0.148237E+000
 0.151309E+000
 0.431396E-001
 0.200975E-001
 0.238737E-001
 0.291233E-001
 0.360220E-001
 0.445031E-001
 0.527172E-001
 0.524494E-001
 0.137040E-001
-0.200975E-001
-0.238737E-001
-0.291233E-001
-0.360220E-001
-0.445031E-001
-0.527172E-001
-0.524494E-001
-0.137040E-001
-0.541181E-001
-0.644713E-001
-0.788900E-001
-0.982211E-001
-0.122828E+000
-0.148237E+000
-0.151309E+000
-0.431396E-001
-0.731963E-001
-0.877612E-001
-0.107869E+000
-0.135620E+000
-0.173203E+000
-0.216698E+000
-0.232868E+000
-0.778184E-001
-0.759393E-001
-0.919647E-001
-0.113945E+000
-0.144460E+000
-0.188599E+000
-0.247946E+000
-0.288070E+000
-0.118811E+000
-0.669798E-001
-0.817806E-001
-0.102612E+000
-0.131615E+000
-0.173893E+000
-0.240714E+000
-0.310989E+000
-0.164494E+000
-0.523819E-001
-0.645966E-001
-0.815862E-001
-0.106994E+000
-0.142531E+000
-0.202938E+000
-0.298928E+000
-0.211137E+000
-0.369116E-001
-0.460400E-001
-0.586348E-001
-0.775718E-001
-0.107437E+000
-0.150305E+000
-0.254334E+000
-0.251642E+000
-0.233906E-001
-0.293790E-001
-0.379188E-001
-0.503228E-001
-0.716643E-001
-0.103511E+000
-0.179703E+000
-0.290568E+000
SCALARS pressure FLOAT     1
LOOKUP_TABLE default
 0.434729E+000
 0.435013E+000
 0.435436E+000
 0.437097E+000
 0.437870E+000
 0.443552E+000
 0.447463E+000
 0.476853E+000
 0.439798E+000
 0.441481E+000
 0.444714E+000
 0.448324E+000
 0.456509E+000
 0.468162E+000
 0.494632E+000
 0.573739E+000
 0.446643E+000
 0.450773E+000
 0.455944E+000
 0.464646E+000
 0.477702E+000
 0.501000E+000
 0.547914E+000
 0.679833E+000
 0.455903E+000
 0.461934E+000
 0.470768E+000
 0.483479E+000
 0.503782E+000
 0.538339E+000
 0.609093E+000
 0.779334E+000
 0.466517E+000
 0.475290E+000
 0.487213E+000
 0.504815E+000
 0.532169E+000
 0.579158E+000
 0.670306E+000
 0.868191E+000
 0.477910E+000
 0.488768E+000
 0.503872E+000
 0.525918E+000
 0.560240E+000
 0.618020E+000
 0.724854E+000
 0.940936E+000
 0.487708E+000
 0.500195E+000
 0.517731E+000
 0.543456E+000
 0.583179E+000
 0.648777E+000
 0.765952E+000
 0.992744E+000
 0.493528E+000
 0.506800E+000
 0.525741E+000
 0.553512E+000
 0.596176E+000
 0.665822E+000
 0.788083E+000
 0.101973E+001
 0.493528E+000
 0.506800E+000
 0.525741E+000
 0.553512E+000
 0.596176E+000
 0.665822E+000
 0.788083E+000
 0.101973E+001
 0.487708E+000
 0.500195E+000
 0.517731E+000
 0.543456E+000
 0.583179E+000
 0.648777E+000
 0.765952E+000
 0.992744E+000
 0.477910E+000
 0.488768E+000
 0.503872E+000
 0.525918E+000
 0.560240E+000
 0.618020E+000
 0.724854E+000
 0.940936E+000
 0.466517E+000
 0.475290E+000
 0.487213E+000
 0.504815E+000
 0.532169E+000
 0.579158E+000
 0.670306E+000
 0.868191E+000
 0.455903E+000
 0.461934E+000
 0.470768E+000
 0.483479E+000
 0.503782E+000
 0.538339E+000
 0.609093E+000
 0.779334E+000
 0.446643E+000
 0.450773E+000
 0.455944E+000
 0.464646E+000
 0.477702E+000
 0.501000E+000
 0.547914E+000
 0.679833E+000
 0.439798E+000
 0.441481E+000
 0.444714E+000
 0.448324E+000
 0.456509E+000
 0.468162E+000
 0.494632E+000
 0.573739E+000
 0.434729E+000
 0.435013E+000
 0.435436E+000
 0.437097E+000
 0.437870E+000
 0.443552E+000
 0.447463E+000
 0.476853E+000
 0.430635E+000
 0.429654E+000
 0.428672E+000
 0.426920E+000
 0.425225E+000
 0.420601E+000
 0.412032E+000
 0.386463E+000
 0.425036E+000
 0.422778E+000
 0.419460E+000
 0.414805E+000
 0.407898E+000
 0.392870E+000
 0.369036E+000
 0.279193E+000
 0.417657E+000
 0.413373E+000
 0.407437E+000
 0.399294E+000
 0.384797E+000
 0.361536E+000
 0.313756E+000
 0.168052E+000
 0.408120E+000
 0.401539E+000
 0.392816E+000
 0.379507E+000
 0.358825E+000
 0.323969E+000
 0.250234E+000
 0.660422E-001
 0.396823E+000
 0.388008E+000
 0.375777E+000
 0.357926E+000
 0.330250E+000
 0.282281E+000
 0.187121E+000
-0.241824E-001
 0.385003E+000
 0.374007E+000
 0.358819E+000
 0.336560E+000
 0.301742E+000
 0.242477E+000
 0.131240E+000
-0.977198E-001
 0.374623E+000
 0.362264E+000
 0.344701E+000
 0.318750E+000
 0.278353E+000
 0.211005E+000
 0.893092E-001
-0.149965E+000
 0.368488E+000
 0.355459E+000
 0.336542E+000
 0.308513E+000
 0.265090E+000
 0.193584E+000
 0.667831E-001
-0.177147E+000
 0.368488E+000
 0.355459E+000
 0.336542E+000
 0.308513E+000
 0.265090E+000
 0.193584E+000
 0.667831E-001
-0.177147E+000
 0.374623E+000
 0.362264E+000
 0.344701E+000
 0.318750E+000
 0.278353E+000
 0.211005E+000
 0.893092E-001
-0.149965E+000
 0.385003E+000
 0.374007E+000
 0.358819E+000
 0.336560E+000
 0.301742E+000
 0.242477E+000
 0.131240E+000
-0.977198E-001
 0.396823E+000
 0.388008E+000
 0.375777E+000
 0.357926E+000
 0.330250E+000
 0.282281E+000
 0.187121E+000
-0.241824E-001
 0.408120E+000
 0.401539E+000
 0.392816E+000
 0.379507E+000
 0.358825E+000
 0.323969E+000
 0.250234E+000
 0.660422E-001
 0.417657E+000
 0.413373E+000
 0.407437E+000
 0.399294E+000
 0.384797E+000
 0.361536E+000
 0.313756E+000
 0.168052E+000
 0.425036E+000
 0.422778E+000
 0.419460E+000
 0.414805E+000
 0.407898E+000
 0.392870E+000
 0.369036E+000
 0.279193E+000
 0.430635E+000
 0.429654E+000
 0.428672E+000
 0.426920E+000
 0.425225E+000
 0.420601E+000
 0.412032E+000
 0.386463E+000
 0.434729E+000
 0.435013E+000
 0.435436E+000
 0.437097E+000
 0.437870E+000
 0.443552E+000
 0.447463E+000
 0.476853E+000
 0.439798E+000
 0.441481E+000
 0.444714E+000
 0.448324E+000
 0.456509E+000
 0.468162E+000
 0.494632E+000
 0.573739E+000
 0.446643E+000
 0.450773E+000
 0.455944E+000
 0.464646E+000
 0.477702E+000
 0.501000E+000
 0.547914E+000
 0.679833E+000
 0.455903E+000
 0.461934E+000
 0.470768E+000
 0.483479E+000
 0.503782E+000
 0.538339E+000
 0.609093E+000
 0.779334E+000
 0.466517E+000
 0.475290E+000
 0.487213E+000
 0.504815E+000
 0.532169E+000
 0.579158E+000
 0.670306E+000
 0.868191E+000
 0.477910E+000
 0.488768E+000
 0.503872E+000
 0.525918E+000
 0.560240E+000
 0.618020E+000
 0.724854E+000
 0.940936E+000
 0.487708E+000
 0.500195E+000
 0.517731E+000
 0.543456E+000
 0.583179E+000
 0.648777E+000
 0.765952E+000
 0.992744E+000
 0.493528E+000
 0.506800E+000
 0.525741E+000
 0.553512E+000
 0.596176E+000
 0.665822E+000
 0.788083E+000
 0.101973E+001
 0.493528E+000
 0.506800E+000
 0.525741E+000
 0.553512E+000
 0.596176E+000
 0.665822E+000
 0.788083E+000
 0.101973E+001
 0.487708E+000
 0.500195E+000
 0.517731E+000
 0.543456E+000
 0.583179E+000
 0.648777E+000
 0.765952E+000
 0.992744E+000
 0.477910E+000
 0.488768E+000
 0.503872E+000
 0.525918E+000
 0.560240E+000
 0.618020E+000
 0.724854E+000
 0.940936E+000
 0.466517E+000
 0.475290E+000
 0.487213E+000
 0.504815E+000
 0.532169E+000
 0.579158E+000
 0.670306E+000
 0.868191E+000
 0.455903E+000
 0.461934E+000
 0.470768E+000
 0.483479E+000
 0.503782E+000
 0.538339E+000
 0.609093E+000
 0.779334E+000
 0.446643E+000
 0.450773E+000
 0.455944E+000
 0.464646E+000
 0.477702E+000
 0.501000E+000
 0.547914E+000
 0.679833E+000
 0.439798E+000
 0.441481E+000
 0.444714E+000
 0.448324E+000
 0.456509E+000
 0.468162E+000
 0.494632E+000
 0.573739E+000
 0.434729E+000
 0.435013E+000
 0.435436E+000
 0.437097E+000
 0.437870E+000
 0.443552E+000
 0.447463E+000
 0.476853E+000
 0.430635E+000
 0.429654E+000
 0.428672E+000
 0.426920E+000
 0.425225E+000
 0.420601E+000
 0.412032E+000
 0.386463E+000
 0.425036E+000
 0.422778E+000
 0.419460E+000
 0.414805E+000
 0.407898E+000
 0.392870E+000
 0.369036E+000
 0.279193E+000
 0.417657E+000
 0.413373E+000
 0.407437E+000
 0.399294E+000
 0.384797E+000
 0.361536E+000
 0.313756E+000
 0.168052E+000
 0.408120E+000
 0.401539E+000
 0.392816E+000
 0.379507E+000
 0.358825E+000
 0.323969E+000
 0.250234E+000
 0.660422E-001
 0.396823E+000
 0.388008E+000
 0.375777E+000
 0.357926E+000
 0.330250E+000
 0.282281E+000
 0.187121E+000
-0.241824E-001
 0.385003E+000
 0.374007E+000
 0.358819E+000
 0.336560E+000
 0.301742E+000
 0.242477E+000
 0.131240E+000
-0.977198E-001
 0.374623E+000
 0.362264E+000
 0.344701E+000
 0.318750E+000
 0.278353E+000
 0.211005E+000
 0.893092E-001
-0.149965E+000
 0.368488E+000
 0.355459E+000
 0.336542E+000
 0.308513E+000
 0.265090E+000
 0.193584E+000
 0.667831E-001
-0.177147E+000
 0.368488E+000
 0.355459E+000
 0.336542E+000
 0.308513E+000
 0.265090E+000
 0.193584E+000
 0.667831E-001
-0.177147E+000
 0.374623E+000
 0.362264E+000
 0.344701E+000
 0.318750E+000
 0.278353E+000
 0.211005E+000
 0.893092E-001
-0.149965E+000
 0.385003E+000
 0.374007E+000
 0.358819E+000
 0.336560E+000
 0.301742E+000
 0.242477E+000
 0.131240E+000
-0.977198E-001
 0.396823E+000
 0.388008E+000
 0.375777E+000
 0.357926E+000
 0.330250E+000
 0.282281E+000
 0.187121E+000
-0.241824E-001
 0.408120E+000
 0.401539E+000
 0.392816E+000
 0.379507E+000
 0.358825E+000
 0.323969E+000
 0.250234E+000
 0.660422E-001
 0.417657E+000
 0.413373E+000
 0.407437E+000
 0.399294E+000
 0.384797E+000
 0.361536E+000
 0.313756E+000
 0.168052E+000
 0.425036E+000
 0.422778E+000
 0.419460E+000
 0.414805E+000
 0.407898E+000
 0.392870E+000
 0.369036E+000
 0.279193E+000
 0.430635E+000
 0.429654E+000
 0.428672E+000
 0.426920E+000
 0.425225E+000
 0.420601E+000
 0.412032E+000
 0.386463E+000
SCALARS von_Mises FLOAT     1
LOOKUP_TABLE default
 0.950207E+000
 0.965302E+000
 0.985990E+000
 0.101623E+001
 0.105862E+001
 0.112342E+001
 0.122168E+001
 0.103232E+001
 0.958201E+000
 0.974530E+000
 0.997103E+000
 0.102851E+001
 0.107124E+001
 0.114677E+001
 0.120155E+001
 0.116508E+001
 0.960258E+000
 0.976832E+000
 0.999052E+000
 0.102851E+001
 0.107376E+001
 0.113749E+001
 0.117566E+001
 0.128906E+001
 0.953251E+000
 0.968012E+000
 0.986965E+000
 0.101383E+001
 0.105302E+001
 0.110266E+001
 0.114071E+001
 0.141258E+001
 0.934651E+000
 0.945108E+000
 0.959077E+000
 0.979193E+000
 0.100827E+001
 0.104547E+001
 0.110540E+001
 0.152601E+001
 0.905516E+000
 0.910049E+000
 0.916770E+000
 0.927730E+000
 0.945492E+000
 0.977766E+000
 0.107526E+001
 0.162117E+001
 0.873486E+000
 0.871519E+000
 0.870703E+000
 0.872532E+000
 0.881710E+000
 0.916006E+000
 0.105393E+001
 0.168996E+001
 0.851699E+000
 0.845328E+000
 0.839484E+000
 0.835633E+000
 0.840464E+000
 0.878575E+000
 0.104305E+001
 0.172610E+001
 0.851699E+000
 0.845328E+000
 0.839484E+000
 0.835633E+000
 0.840464E+000
 0.878575E+000
 0.104305E+001
 0.172610E+001
 0.873486E+000
 0.871519E+000
 0.870703E+000
 0.872532E+000
 0.881710E+000
 0.916006E+000
 0.105393E+001
 0.168996E+001
 0.905516E+000
 0.910049E+000
 0.916770E+000
 0.927730E+000
 0.945492E+000
 0.977766E+000
 0.107526E+001
 0.162117E+001
 0.934651E+000
 0.945108E+000
 0.959077E+000
 0.979193E+000
 0.100827E+001
 0.104547E+001
 0.110540E+001
 0.152601E+001
 0.953251E+000
 0.968012E+000
 0.986965E+000
 0.101383E+001
 0.105302E+001
 0.110266E+001
 0.114071E+001
 0.141258E+001
 0.960258E+000
 0.976832E+000
 0.999052E+000
 0.102851E+001
 0.107376E+001
 0.113749E+001
 0.117566E+001
 0.128906E+001
 0.958201E+000
 0.974530E+000
 0.997103E+000
 0.102851E+001
 0.107124E+001
 0.114677E+001
 0.120155E+001
 0.116508E+001
 0.950207E+000
 0.965302E+000
 0.985990E+000
 0.101623E+001
 0.105862E+001
 0.112342E+001
 0.122168E+001
 0.103232E+001
 0.945677E+000
 0.960061E+000
 0.979766E+000
 0.100720E+001
 0.104986E+001
 0.110249E+001
 0.121618E+001
 0.892505E+000
 0.943063E+000
 0.956745E+000
 0.974744E+000
 0.100119E+001
 0.103482E+001
 0.109405E+001
 0.116041E+001
 0.761171E+000
 0.931553E+000
 0.942270E+000
 0.956724E+000
 0.975876E+000
 0.100297E+001
 0.105196E+001
 0.106062E+001
 0.649072E+000
 0.906967E+000
 0.912285E+000
 0.918896E+000
 0.927570E+000
 0.944274E+000
 0.965655E+000
 0.925609E+000
 0.558357E+000
 0.866876E+000
 0.863261E+000
 0.858105E+000
 0.853182E+000
 0.849224E+000
 0.836076E+000
 0.765180E+000
 0.496727E+000
 0.813267E+000
 0.797679E+000
 0.777986E+000
 0.753454E+000
 0.721276E+000
 0.674221E+000
 0.588411E+000
 0.465056E+000
 0.757317E+000
 0.729108E+000
 0.693107E+000
 0.645739E+000
 0.582728E+000
 0.501959E+000
 0.410337E+000
 0.455217E+000
 0.719800E+000
 0.682602E+000
 0.634522E+000
 0.569762E+000
 0.481987E+000
 0.370366E+000
 0.271381E+000
 0.454658E+000
 0.719800E+000
 0.682602E+000
 0.634522E+000
 0.569762E+000
 0.481987E+000
 0.370366E+000
 0.271381E+000
 0.454658E+000
 0.757317E+000
 0.729108E+000
 0.693107E+000
 0.645739E+000
 0.582728E+000
 0.501959E+000
 0.410337E+000
 0.455217E+000
 0.813267E+000
 0.797679E+000
 0.777986E+000
 0.753454E+000
 0.721276E+000
 0.674221E+000
 0.588411E+000
 0.465056E+000
 0.866876E+000
 0.863261E+000
 0.858105E+000
 0.853182E+000
 0.849224E+000
 0.836076E+000
 0.765180E+000
 0.496727E+000
 0.906967E+000
 0.912285E+000
 0.918896E+000
 0.927570E+000
 0.944274E+000
 0.965655E+000
 0.925609E+000
 0.558357E+000
 0.931553E+000
 0.942270E+000
 0.956724E+000
 0.975876E+000
 0.100297E+001
 0.105196E+001
 0.106062E+001
 0.649072E+000
 0.943063E+000
 0.956745E+000
 0.974744E+000
 0.100119E+001
 0.103482E+001
 0.109405E+001
 0.116041E+001
 0.761171E+000
 0.945677E+000
 0.960061E+000
 0.979766E+000
 0.100720E+001
 0.104986E+001
 0.110249E+001
 0.121618E+001
 0.892505E+000
 0.950207E+000
 0.965302E+000
 0.985990E+000
 0.101623E+001
 0.105862E+001
 0.112342E+001
 0.122168E+001
 0.103232E+001
 0.958201E+000
 0.974530E+000
 0.997103E+000
 0.102851E+001
 0.107124E+001
 0.114677E+001
 0.120155E+001
 0.116508E+001
 0.960258E+000
 0.976832E+000
 0.999052E+000
 0.102851E+001
 0.107376E+001
 0.113749E+001
 0.117566E+001
 0.128906E+001
 0.953251E+000
 0.968012E+000
 0.986965E+000
 0.101383E+001
 0.105302E+001
 0.110266E+001
 0.114071E+001
 0.141258E+001
 0.934651E+000
 0.945108E+000
 0.959077E+000
 0.979193E+000
 0.100827E+001
 0.104547E+001
 0.110540E+001
 0.152601E+001
 0.905516E+000
 0.910049E+000
 0.916770E+000
 0.927730E+000
 0.945492E+000
 0.977766E+000
 0.107526E+001
 0.162117E+001
 0.873486E+000
 0.871519E+000
 0.870703E+000
 0.872532E+000
 0.881710E+000
 0.916006E+000
 0.105393E+001
 0.168996E+001
 0.851699E+000
 0.845328E+000
 0.839484E+000
 0.835633E+000
 0.840464E+000
 0.878575E+000
 0.104305E+001
 0.172610E+001
 0.851699E+000
 0.845328E+000
 0.839484E+000
 0.835633E+000
 0.840464E+000
 0.878575E+000
 0.104305E+001
 0.172610E+001
 0.873486E+000
 0.871519E+000
 0.870703E+000
 0.872532E+000
 0.881710E+000
 0.916006E+000
 0.105393E+001
 0.168996E+001
 0.905516E+000
 0.910049E+000
 0.916770E+000
 0.927730E+000
 0.945492E+000
 0.977766E+000
 0.107526E+001
 0.162117E+001
 0.934651E+000
 0.945108E+000
 0.959077E+000
 0.979193E+000
 0.100827E+001
 0.104547E+001
 0.110540E+001
 0.152601E+001
 0.953251E+000
 0.968012E+000
 0.986965E+000
 0.101383E+001
 0.105302E+001
 0.110266E+001
 0.114071E+001
 0.141258E+001
 0.960258E+000
 0.976832E+000
 0.999052E+000
 0.102851E+001
 0.107376E+001
 0.113749E+001
 0.117566E+001
 0.128906E+001
 0.958201E+000
 0.974530E+000
 0.997103E+000
 0.102851E+001
 0.107124E+001
 0.114677E+001
 0.120155E+001
 0.116508E+001
 0.950207E+000
 0.965302E+000
 0.985990E+000
 0.101623E+001
 0.105862E+001
 0.112342E+001
 0.122168E+001
 0.103232E+001
 0.945677E+000
 0.960061E+000
 0.979766E+000
 0.100720E+001
 0.104986E+001
 0.110249E+001
 0.121618E+001
 0.892505E+000
 0.943063E+000
 0.956745E+000
 0.974744E+000
 0.100119E+001
 0.103482E+001
 0.109405E+001
 0.116041E+001
 0.761171E+000
 0.931553E+000
 0.942270E+000
 0.956724E+000
 0.975876E+000
 0.100297E+001
 0.105196E+001
 0.106062E+001
 0.649072E+000
 0.906967E+000
 0.912285E+000
 0.918896E+000
 0.927570E+000
 0.944274E+000
 0.965655E+000
 0.925609E+000
 0.558357E+000
 0.866876E+000
 0.863261E+000
 0.858105E+000
 0.853182E+000
 0.849224E+000
 0.836076E+000
 0.765180E+000
 0.496727E+000
 0.813267E+000
 0.797679E+000
 0.777986E+000
 0.753454E+000
 0.721276E+000
 0.674221E+000
 0.588411E+000
 0.465056E+000
 0.757317E+000
 0.729108E+000
 0.693107E+000
 0.645739E+000
 0.582728E+000
 0.501959E+000
 0.410337E+000
 0.455217E+000
 0.719800E+000
 0.682602E+000
 0.634522E+000
 0.569762E+000
 0.481987E+000
 0.370366E+000
 0.271381E+000
 0.454658E+000
 0.719800E+000
 0.682602E+000
 0.634522E+000
 0.569762E+000
 0.481987E+000
 0.370366E+000
 0.271381E+000
 0.454658E+000
 0.757317E+000
 0.729108E+000
 0.693107E+000
 0.645739E+000
 0.582728E+000
 0.501959E+000
 0.410337E+000
 0.455217E+000
 0.813267E+000
 0.797679E+000
 0.777986E+000
 0.753454E+000
 0.721276E+000
 0.674221E+000
 0.588411E+000
 0.465056E+000
 0.866876E+000
 0.863261E+000
 0.858105E+000
 0.853182E+000
 0.849224E+000
 0.836076E+000
 0.765180E+000
 0.496727E+000
 0.906967E+000
 0.912285E+000
 0.918896E+000
 0.927570E+000
 0.944274E+000
 0.965655E+000
 0.925609E+000
 0.558357E+000
 0.931553E+000
 0.942270E+000
 0.956724E+000
 0.975876E+000
 0.100297E+001
 0.105196E+001
 0.106062E+001
 0.649072E+000
 0.943063E+000
 0.956745E+000
 0.974744E+000
 0.100119E+001
 0.103482E+001
 0.109405E+001
 0.116041E+001
 0.761171E+000
 0.945677E+000
 0.960061E+000
 0.979766E+000
 0.100720E+001
 0.104986E+001
 0.110249E+001
 0.121618E+001
 0.892505E+000
