# vtk DataFile Version 3.0
output
ASCII
DATASET UNSTRUCTURED_GRID
POINTS  2176 FLOAT
-0.100000E+001 -0.100000E+001  0.000000E+000
-0.937500E+000 -0.100000E+001  0.000000E+000
-0.948549E+000 -0.948549E+000  0.000000E+000
-0.889399E+000 -0.949077E+000  0.000000E+000
-0.100000E+001 -0.937500E+000  0.000000E+000
-0.949077E+000 -0.889399E+000  0.000000E+000
-0.875000E+000 -0.100000E+001  0.000000E+000
-0.830225E+000 -0.949578E+000  0.000000E+000
-0.897097E+000 -0.897097E+000  0.000000E+000
-0.841299E+000 -0.898155E+000  0.000000E+000
-0.898155E+000 -0.841299E+000  0.000000E+000
-0.785450E+000 -0.899157E+000  0.000000E+000
-0.100000E+001 -0.875000E+000  0.000000E+000
-0.949578E+000 -0.830225E+000  0.000000E+000
-0.899157E+000 -0.785450E+000  0.000000E+000
-0.812500E+000 -0.100000E+001  0.000000E+000
-0.771027E+000 -0.950050E+000  0.000000E+000
-0.729553E+000 -0.900100E+000  0.000000E+000
-0.845646E+000 -0.845646E+000  0.000000E+000
-0.793198E+000 -0.847232E+000  0.000000E+000
-0.847232E+000 -0.793198E+000  0.000000E+000
-0.740675E+000 -0.848735E+000  0.000000E+000
-0.848735E+000 -0.740675E+000  0.000000E+000
-0.688080E+000 -0.850150E+000  0.000000E+000
-0.100000E+001 -0.812500E+000  0.000000E+000
-0.950050E+000 -0.771027E+000  0.000000E+000
-0.900100E+000 -0.729553E+000  0.000000E+000
-0.850150E+000 -0.688080E+000  0.000000E+000
-0.750000E+000 -0.100000E+001  0.000000E+000
-0.711806E+000 -0.950492E+000  0.000000E+000
-0.673612E+000 -0.900983E+000  0.000000E+000
-0.635417E+000 -0.851475E+000  0.000000E+000
-0.794194E+000 -0.794194E+000  0.000000E+000
-0.745097E+000 -0.796309E+000  0.000000E+000
-0.796309E+000 -0.745097E+000  0.000000E+000
-0.695900E+000 -0.798313E+000  0.000000E+000
-0.798313E+000 -0.695900E+000  0.000000E+000
-0.646606E+000 -0.800200E+000  0.000000E+000
-0.800200E+000 -0.646606E+000  0.000000E+000
-0.597223E+000 -0.801967E+000  0.000000E+000
-0.100000E+001 -0.750000E+000  0.000000E+000
-0.950492E+000 -0.711806E+000  0.000000E+000
-0.900983E+000 -0.673612E+000  0.000000E+000
-0.851475E+000 -0.635417E+000  0.000000E+000
-0.801967E+000 -0.597223E+000  0.000000E+000
-0.687500E+000 -0.100000E+001  0.000000E+000
-0.652564E+000 -0.950902E+000  0.000000E+000
-0.617628E+000 -0.901804E+000  0.000000E+000
-0.582692E+000 -0.852706E+000  0.000000E+000
-0.547756E+000 -0.803608E+000  0.000000E+000
-0.742743E+000 -0.742743E+000  0.000000E+000
-0.696997E+000 -0.745387E+000  0.000000E+000
-0.745387E+000 -0.696997E+000  0.000000E+000
-0.651124E+000 -0.747891E+000  0.000000E+000
-0.747891E+000 -0.651124E+000  0.000000E+000
-0.605133E+000 -0.750251E+000  0.000000E+000
-0.750251E+000 -0.605133E+000  0.000000E+000
-0.559029E+000 -0.752459E+000  0.000000E+000
-0.752459E+000 -0.559029E+000  0.000000E+000
-0.512821E+000 -0.754510E+000  0.000000E+000
-0.100000E+001 -0.687500E+000  0.000000E+000
-0.950902E+000 -0.652564E+000  0.000000E+000
-0.901804E+000 -0.617628E+000  0.000000E+000
-0.852706E+000 -0.582692E+000  0.000000E+000
-0.803608E+000 -0.547756E+000  0.000000E+000
-0.754510E+000 -0.512821E+000  0.000000E+000
-0.625000E+000 -0.100000E+001  0.000000E+000
-0.593303E+000 -0.951280E+000  0.000000E+000
-0.561606E+000 -0.902560E+000  0.000000E+000
-0.529909E+000 -0.853840E+000  0.000000E+000
-0.498212E+000 -0.805120E+000  0.000000E+000
-0.466515E+000 -0.756400E+000  0.000000E+000
-0.691291E+000 -0.691291E+000  0.000000E+000
-0.648896E+000 -0.694464E+000  0.000000E+000
-0.694464E+000 -0.648896E+000  0.000000E+000
-0.606349E+000 -0.697470E+000  0.000000E+000
-0.697470E+000 -0.606349E+000  0.000000E+000
-0.563659E+000 -0.700301E+000  0.000000E+000
-0.700301E+000 -0.563659E+000  0.000000E+000
-0.520835E+000 -0.702950E+000  0.000000E+000
-0.702950E+000 -0.520835E+000  0.000000E+000
-0.477885E+000 -0.705412E+000  0.000000E+000
-0.705412E+000 -0.477885E+000  0.000000E+000
-0.434818E+000 -0.707680E+000  0.000000E+000
-0.100000E+001 -0.625000E+000  0.000000E+000
-0.951280E+000 -0.593303E+000  0.000000E+000
-0.902560E+000 -0.561606E+000  0.000000E+000
-0.853840E+000 -0.529909E+000  0.000000E+000
-0.805120E+000 -0.498212E+000  0.000000E+000
-0.756400E+000 -0.466515E+000  0.000000E+000
-0.707680E+000 -0.434818E+000  0.000000E+000
-0.562500E+000 -0.100000E+001  0.000000E+000
-0.534024E+000 -0.951625E+000  0.000000E+000
-0.505549E+000 -0.903250E+000  0.000000E+000
-0.477073E+000 -0.854874E+000  0.000000E+000
-0.448597E+000 -0.806499E+000  0.000000E+000
-0.420121E+000 -0.758124E+000  0.000000E+000
-0.391646E+000 -0.709749E+000  0.000000E+000
-0.639840E+000 -0.639840E+000  0.000000E+000
-0.600796E+000 -0.643542E+000  0.000000E+000
-0.643542E+000 -0.600796E+000  0.000000E+000
-0.561574E+000 -0.647048E+000  0.000000E+000
-0.647048E+000 -0.561574E+000  0.000000E+000
-0.522186E+000 -0.650351E+000  0.000000E+000
-0.650351E+000 -0.522186E+000  0.000000E+000
-0.482640E+000 -0.653442E+000  0.000000E+000
-0.653442E+000 -0.482640E+000  0.000000E+000
-0.442949E+000 -0.656314E+000  0.000000E+000
-0.656314E+000 -0.442949E+000  0.000000E+000
-0.403122E+000 -0.658960E+000  0.000000E+000
-0.658960E+000 -0.403122E+000  0.000000E+000
-0.363170E+000 -0.661374E+000  0.000000E+000
-0.100000E+001 -0.562500E+000  0.000000E+000
-0.951625E+000 -0.534024E+000  0.000000E+000
-0.903250E+000 -0.505549E+000  0.000000E+000
-0.854874E+000 -0.477073E+000  0.000000E+000
-0.806499E+000 -0.448597E+000  0.000000E+000
-0.758124E+000 -0.420121E+000  0.000000E+000
-0.709749E+000 -0.391646E+000  0.000000E+000
-0.661374E+000 -0.363170E+000  0.000000E+000
-0.500000E+000 -0.100000E+001  0.000000E+000
-0.474729E+000 -0.951936E+000  0.000000E+000
-0.449459E+000 -0.903871E+000  0.000000E+000
-0.424188E+000 -0.855807E+000  0.000000E+000
-0.398918E+000 -0.807742E+000  0.000000E+000
-0.373647E+000 -0.759678E+000  0.000000E+000
-0.348377E+000 -0.711614E+000  0.000000E+000
-0.323106E+000 -0.663549E+000  0.000000E+000
-0.588388E+000 -0.588388E+000  0.000000E+000
-0.552695E+000 -0.592619E+000  0.000000E+000
-0.592619E+000 -0.552695E+000  0.000000E+000
-0.516799E+000 -0.596626E+000  0.000000E+000
-0.596626E+000 -0.516799E+000  0.000000E+000
-0.480712E+000 -0.600401E+000  0.000000E+000
-0.600401E+000 -0.480712E+000  0.000000E+000
-0.444446E+000 -0.603934E+000  0.000000E+000
-0.603934E+000 -0.444446E+000  0.000000E+000
-0.408013E+000 -0.607216E+000  0.000000E+000
-0.607216E+000 -0.408013E+000  0.000000E+000
-0.371425E+000 -0.610240E+000  0.000000E+000
-0.610240E+000 -0.371425E+000  0.000000E+000
-0.334694E+000 -0.612999E+000  0.000000E+000
-0.612999E+000 -0.334694E+000  0.000000E+000
-0.297835E+000 -0.615485E+000  0.000000E+000
-0.100000E+001 -0.500000E+000  0.000000E+000
-0.951936E+000 -0.474729E+000  0.000000E+000
-0.903871E+000 -0.449459E+000  0.000000E+000
-0.855807E+000 -0.424188E+000  0.000000E+000
-0.807742E+000 -0.398918E+000  0.000000E+000
-0.759678E+000 -0.373647E+000  0.000000E+000
-0.711614E+000 -0.348377E+000  0.000000E+000
-0.663549E+000 -0.323106E+000  0.000000E+000
-0.615485E+000 -0.297835E+000  0.000000E+000
-0.437500E+000 -0.100000E+001  0.000000E+000
-0.415420E+000 -0.952212E+000  0.000000E+000
-0.393340E+000 -0.904423E+000  0.000000E+000
-0.371260E+000 -0.856635E+000  0.000000E+000
-0.349181E+000 -0.808847E+000  0.000000E+000
-0.327101E+000 -0.761058E+000  0.000000E+000
-0.305021E+000 -0.713270E+000  0.000000E+000
-0.282941E+000 -0.665481E+000  0.000000E+000
-0.260861E+000 -0.617693E+000  0.000000E+000
-0.536937E+000 -0.536937E+000  0.000000E+000
-0.504594E+000 -0.541696E+000  0.000000E+000
-0.541696E+000 -0.504594E+000  0.000000E+000
-0.472024E+000 -0.546205E+000  0.000000E+000
-0.546205E+000 -0.472024E+000  0.000000E+000
-0.439239E+000 -0.550451E+000  0.000000E+000
-0.550451E+000 -0.439239E+000  0.000000E+000
-0.406252E+000 -0.554425E+000  0.000000E+000
-0.554425E+000 -0.406252E+000  0.000000E+000
-0.373077E+000 -0.558118E+000  0.000000E+000
-0.558118E+000 -0.373077E+000  0.000000E+000
-0.339728E+000 -0.561520E+000  0.000000E+000
-0.561520E+000 -0.339728E+000  0.000000E+000
-0.306219E+000 -0.564623E+000  0.000000E+000
-0.564623E+000 -0.306219E+000  0.000000E+000
-0.272565E+000 -0.567421E+000  0.000000E+000
-0.567421E+000 -0.272565E+000  0.000000E+000
-0.238781E+000 -0.569905E+000  0.000000E+000
-0.100000E+001 -0.437500E+000  0.000000E+000
-0.952212E+000 -0.415420E+000  0.000000E+000
-0.904423E+000 -0.393340E+000  0.000000E+000
-0.856635E+000 -0.371260E+000  0.000000E+000
-0.808847E+000 -0.349181E+000  0.000000E+000
-0.761058E+000 -0.327101E+000  0.000000E+000
-0.713270E+000 -0.305021E+000  0.000000E+000
-0.665481E+000 -0.282941E+000  0.000000E+000
-0.617693E+000 -0.260861E+000  0.000000E+000
-0.569905E+000 -0.238781E+000  0.000000E+000
-0.375000E+000 -0.100000E+001  0.000000E+000
-0.356098E+000 -0.952452E+000  0.000000E+000
-0.337196E+000 -0.904904E+000  0.000000E+000
-0.318295E+000 -0.857357E+000  0.000000E+000
-0.299393E+000 -0.809809E+000  0.000000E+000
-0.280491E+000 -0.762261E+000  0.000000E+000
-0.261589E+000 -0.714713E+000  0.000000E+000
-0.242687E+000 -0.667165E+000  0.000000E+000
-0.223786E+000 -0.619618E+000  0.000000E+000
-0.204884E+000 -0.572070E+000  0.000000E+000
-0.485485E+000 -0.485485E+000  0.000000E+000
-0.456494E+000 -0.490774E+000  0.000000E+000
-0.490774E+000 -0.456494E+000  0.000000E+000
-0.427249E+000 -0.495783E+000  0.000000E+000
-0.495783E+000 -0.427249E+000  0.000000E+000
-0.397766E+000 -0.500501E+000  0.000000E+000
-0.500501E+000 -0.397766E+000  0.000000E+000
-0.368058E+000 -0.504917E+000  0.000000E+000
-0.504917E+000 -0.368058E+000  0.000000E+000
-0.338141E+000 -0.509020E+000  0.000000E+000
-0.509020E+000 -0.338141E+000  0.000000E+000
-0.308031E+000 -0.512800E+000  0.000000E+000
-0.512800E+000 -0.308031E+000  0.000000E+000
-0.277743E+000 -0.516248E+000  0.000000E+000
-0.516248E+000 -0.277743E+000  0.000000E+000
-0.247294E+000 -0.519356E+000  0.000000E+000
-0.519356E+000 -0.247294E+000  0.000000E+000
-0.216702E+000 -0.522116E+000  0.000000E+000
-0.522116E+000 -0.216702E+000  0.000000E+000
-0.185982E+000 -0.524522E+000  0.000000E+000
-0.100000E+001 -0.375000E+000  0.000000E+000
-0.952452E+000 -0.356098E+000  0.000000E+000
-0.904904E+000 -0.337196E+000  0.000000E+000
-0.857357E+000 -0.318295E+000  0.000000E+000
-0.809809E+000 -0.299393E+000  0.000000E+000
-0.762261E+000 -0.280491E+000  0.000000E+000
-0.714713E+000 -0.261589E+000  0.000000E+000
-0.667165E+000 -0.242687E+000  0.000000E+000
-0.619618E+000 -0.223786E+000  0.000000E+000
-0.572070E+000 -0.204884E+000  0.000000E+000
-0.524522E+000 -0.185982E+000  0.000000E+000
-0.312500E+000 -0.100000E+001  0.000000E+000
-0.296765E+000 -0.952657E+000  0.000000E+000
-0.281031E+000 -0.905313E+000  0.000000E+000
-0.265296E+000 -0.857970E+000  0.000000E+000
-0.249561E+000 -0.810627E+000  0.000000E+000
-0.233827E+000 -0.763284E+000  0.000000E+000
-0.218092E+000 -0.715940E+000  0.000000E+000
-0.202357E+000 -0.668597E+000  0.000000E+000
-0.186623E+000 -0.621254E+000  0.000000E+000
-0.170888E+000 -0.573911E+000  0.000000E+000
-0.155153E+000 -0.526567E+000  0.000000E+000
-0.434034E+000 -0.434034E+000  0.000000E+000
-0.408393E+000 -0.439851E+000  0.000000E+000
-0.439851E+000 -0.408393E+000  0.000000E+000
-0.382474E+000 -0.445361E+000  0.000000E+000
-0.445361E+000 -0.382474E+000  0.000000E+000
-0.356292E+000 -0.450551E+000  0.000000E+000
-0.450551E+000 -0.356292E+000  0.000000E+000
-0.329864E+000 -0.455409E+000  0.000000E+000
-0.455409E+000 -0.329864E+000  0.000000E+000
-0.303205E+000 -0.459922E+000  0.000000E+000
-0.459922E+000 -0.303205E+000  0.000000E+000
-0.276334E+000 -0.464080E+000  0.000000E+000
-0.464080E+000 -0.276334E+000  0.000000E+000
-0.249267E+000 -0.467873E+000  0.000000E+000
-0.467873E+000 -0.249267E+000  0.000000E+000
-0.222024E+000 -0.471292E+000  0.000000E+000
-0.471292E+000 -0.222024E+000  0.000000E+000
-0.194622E+000 -0.474328E+000  0.000000E+000
-0.474328E+000 -0.194622E+000  0.000000E+000
-0.167080E+000 -0.476974E+000  0.000000E+000
-0.476974E+000 -0.167080E+000  0.000000E+000
-0.139418E+000 -0.479224E+000  0.000000E+000
-0.100000E+001 -0.312500E+000  0.000000E+000
-0.952657E+000 -0.296765E+000  0.000000E+000
-0.905313E+000 -0.281031E+000  0.000000E+000
-0.857970E+000 -0.265296E+000  0.000000E+000
-0.810627E+000 -0.249561E+000  0.000000E+000
-0.763284E+000 -0.233827E+000  0.000000E+000
-0.715940E+000 -0.218092E+000  0.000000E+000
-0.668597E+000 -0.202357E+000  0.000000E+000
-0.621254E+000 -0.186623E+000  0.000000E+000
-0.573911E+000 -0.170888E+000  0.000000E+000
-0.526567E+000 -0.155153E+000  0.000000E+000
-0.479224E+000 -0.139418E+000  0.000000E+000
-0.250000E+000 -0.100000E+001  0.000000E+000
-0.237423E+000 -0.952825E+000  0.000000E+000
-0.224847E+000 -0.905650E+000  0.000000E+000
-0.212270E+000 -0.858474E+000  0.000000E+000
-0.199693E+000 -0.811299E+000  0.000000E+000
-0.187116E+000 -0.764124E+000  0.000000E+000
-0.174540E+000 -0.716949E+000  0.000000E+000
-0.161963E+000 -0.669773E+000  0.000000E+000
-0.149386E+000 -0.622598E+000  0.000000E+000
-0.136810E+000 -0.575423E+000  0.000000E+000
-0.124233E+000 -0.528248E+000  0.000000E+000
-0.111656E+000 -0.481072E+000  0.000000E+000
-0.382583E+000 -0.382583E+000  0.000000E+000
-0.360292E+000 -0.388928E+000  0.000000E+000
-0.388928E+000 -0.360292E+000  0.000000E+000
-0.337699E+000 -0.394939E+000  0.000000E+000
-0.394939E+000 -0.337699E+000  0.000000E+000
-0.314819E+000 -0.400601E+000  0.000000E+000
-0.400601E+000 -0.314819E+000  0.000000E+000
-0.291669E+000 -0.405901E+000  0.000000E+000
-0.405901E+000 -0.291669E+000  0.000000E+000
-0.268269E+000 -0.410824E+000  0.000000E+000
-0.410824E+000 -0.268269E+000  0.000000E+000
-0.244637E+000 -0.415360E+000  0.000000E+000
-0.415360E+000 -0.244637E+000  0.000000E+000
-0.220792E+000 -0.419498E+000  0.000000E+000
-0.419498E+000 -0.220792E+000  0.000000E+000
-0.196753E+000 -0.423227E+000  0.000000E+000
-0.423227E+000 -0.196753E+000  0.000000E+000
-0.172542E+000 -0.426540E+000  0.000000E+000
-0.426540E+000 -0.172542E+000  0.000000E+000
-0.148178E+000 -0.429426E+000  0.000000E+000
-0.429426E+000 -0.148178E+000  0.000000E+000
-0.123684E+000 -0.431881E+000  0.000000E+000
-0.431881E+000 -0.123684E+000  0.000000E+000
-0.990794E-001 -0.433897E+000  0.000000E+000
-0.100000E+001 -0.250000E+000  0.000000E+000
-0.952825E+000 -0.237423E+000  0.000000E+000
-0.905650E+000 -0.224847E+000  0.000000E+000
-0.858474E+000 -0.212270E+000  0.000000E+000
-0.811299E+000 -0.199693E+000  0.000000E+000
-0.764124E+000 -0.187116E+000  0.000000E+000
-0.716949E+000 -0.174540E+000  0.000000E+000
-0.669773E+000 -0.161963E+000  0.000000E+000
-0.622598E+000 -0.149386E+000  0.000000E+000
-0.575423E+000 -0.136810E+000  0.000000E+000
-0.528248E+000 -0.124233E+000  0.000000E+000
-0.481072E+000 -0.111656E+000  0.000000E+000
-0.433897E+000 -0.990794E-001  0.000000E+000
-0.187500E+000 -0.100000E+001  0.000000E+000
-0.178074E+000 -0.952956E+000  0.000000E+000
-0.168648E+000 -0.905912E+000  0.000000E+000
-0.159222E+000 -0.858868E+000  0.000000E+000
-0.149796E+000 -0.811824E+000  0.000000E+000
-0.140370E+000 -0.764779E+000  0.000000E+000
-0.130943E+000 -0.717735E+000  0.000000E+000
-0.121517E+000 -0.670691E+000  0.000000E+000
-0.112091E+000 -0.623647E+000  0.000000E+000
-0.102665E+000 -0.576603E+000  0.000000E+000
-0.932391E-001 -0.529559E+000  0.000000E+000
-0.838131E-001 -0.482515E+000  0.000000E+000
-0.743870E-001 -0.435471E+000  0.000000E+000
-0.331131E+000 -0.331131E+000  0.000000E+000
-0.312192E+000 -0.338006E+000  0.000000E+000
-0.338006E+000 -0.312192E+000  0.000000E+000
-0.292924E+000 -0.344518E+000  0.000000E+000
-0.344518E+000 -0.292924E+000  0.000000E+000
-0.273345E+000 -0.350652E+000  0.000000E+000
-0.350652E+000 -0.273345E+000  0.000000E+000
-0.253475E+000 -0.356392E+000  0.000000E+000
-0.356392E+000 -0.253475E+000  0.000000E+000
-0.233333E+000 -0.361726E+000  0.000000E+000
-0.361726E+000 -0.233333E+000  0.000000E+000
-0.212940E+000 -0.366640E+000  0.000000E+000
-0.366640E+000 -0.212940E+000  0.000000E+000
-0.192316E+000 -0.371123E+000  0.000000E+000
-0.371123E+000 -0.192316E+000  0.000000E+000
-0.171483E+000 -0.375163E+000  0.000000E+000
-0.375163E+000 -0.171483E+000  0.000000E+000
-0.150462E+000 -0.378751E+000  0.000000E+000
-0.378751E+000 -0.150462E+000  0.000000E+000
-0.129277E+000 -0.381879E+000  0.000000E+000
-0.381879E+000 -0.129277E+000  0.000000E+000
-0.107949E+000 -0.384538E+000  0.000000E+000
-0.384538E+000 -0.107949E+000  0.000000E+000
-0.865027E-001 -0.386722E+000  0.000000E+000
-0.386722E+000 -0.865027E-001  0.000000E+000
-0.649609E-001 -0.388426E+000  0.000000E+000
-0.100000E+001 -0.187500E+000  0.000000E+000
-0.952956E+000 -0.178074E+000  0.000000E+000
-0.905912E+000 -0.168648E+000  0.000000E+000
-0.858868E+000 -0.159222E+000  0.000000E+000
-0.811824E+000 -0.149796E+000  0.000000E+000
-0.764779E+000 -0.140370E+000  0.000000E+000
-0.717735E+000 -0.130943E+000  0.000000E+000
-0.670691E+000 -0.121517E+000  0.000000E+000
-0.623647E+000 -0.112091E+000  0.000000E+000
-0.576603E+000 -0.102665E+000  0.000000E+000
-0.529559E+000 -0.932391E-001  0.000000E+000
-0.482515E+000 -0.838131E-001  0.000000E+000
-0.435471E+000 -0.743870E-001  0.000000E+000
-0.388426E+000 -0.649609E-001  0.000000E+000
-0.125000E+000 -0.100000E+001  0.000000E+000
-0.118719E+000 -0.953050E+000  0.000000E+000
-0.112438E+000 -0.906100E+000  0.000000E+000
-0.106157E+000 -0.859149E+000  0.000000E+000
-0.998761E-001 -0.812199E+000  0.000000E+000
-0.935951E-001 -0.765249E+000  0.000000E+000
-0.873141E-001 -0.718299E+000  0.000000E+000
-0.810331E-001 -0.671348E+000  0.000000E+000
-0.747521E-001 -0.624398E+000  0.000000E+000
-0.684712E-001 -0.577448E+000  0.000000E+000
-0.621902E-001 -0.530498E+000  0.000000E+000
-0.559092E-001 -0.483547E+000  0.000000E+000
-0.496282E-001 -0.436597E+000  0.000000E+000
-0.433472E-001 -0.389647E+000  0.000000E+000
-0.279680E+000 -0.279680E+000  0.000000E+000
-0.264091E+000 -0.287083E+000  0.000000E+000
-0.287083E+000 -0.264091E+000  0.000000E+000
-0.248149E+000 -0.294096E+000  0.000000E+000
-0.294096E+000 -0.248149E+000  0.000000E+000
-0.231872E+000 -0.300702E+000  0.000000E+000
-0.300702E+000 -0.231872E+000  0.000000E+000
-0.215281E+000 -0.306884E+000  0.000000E+000
-0.306884E+000 -0.215281E+000  0.000000E+000
-0.198397E+000 -0.312628E+000  0.000000E+000
-0.312628E+000 -0.198397E+000  0.000000E+000
-0.181243E+000 -0.317920E+000  0.000000E+000
-0.317920E+000 -0.181243E+000  0.000000E+000
-0.163840E+000 -0.322748E+000  0.000000E+000
-0.322748E+000 -0.163840E+000  0.000000E+000
-0.146212E+000 -0.327099E+000  0.000000E+000
-0.327099E+000 -0.146212E+000  0.000000E+000
-0.128382E+000 -0.330963E+000  0.000000E+000
-0.330963E+000 -0.128382E+000  0.000000E+000
-0.110375E+000 -0.334331E+000  0.000000E+000
-0.334331E+000 -0.110375E+000  0.000000E+000
-0.922144E-001 -0.337194E+000  0.000000E+000
-0.337194E+000 -0.922144E-001  0.000000E+000
-0.739260E-001 -0.339547E+000  0.000000E+000
-0.339547E+000 -0.739260E-001  0.000000E+000
-0.555348E-001 -0.341382E+000  0.000000E+000
-0.341382E+000 -0.555348E-001  0.000000E+000
-0.370662E-001 -0.342697E+000  0.000000E+000
-0.100000E+001 -0.125000E+000  0.000000E+000
-0.953050E+000 -0.118719E+000  0.000000E+000
-0.906100E+000 -0.112438E+000  0.000000E+000
-0.859149E+000 -0.106157E+000  0.000000E+000
-0.812199E+000 -0.998761E-001  0.000000E+000
-0.765249E+000 -0.935951E-001  0.000000E+000
-0.718299E+000 -0.873141E-001  0.000000E+000
-0.671348E+000 -0.810331E-001  0.000000E+000
-0.624398E+000 -0.747521E-001  0.000000E+000
-0.577448E+000 -0.684712E-001  0.000000E+000
-0.530498E+000 -0.621902E-001  0.000000E+000
-0.483547E+000 -0.559092E-001  0.000000E+000
-0.436597E+000 -0.496282E-001  0.000000E+000
-0.389647E+000 -0.433472E-001  0.000000E+000
-0.342697E+000 -0.370662E-001  0.000000E+000
-0.625000E-001 -0.100000E+001  0.000000E+000
-0.593604E-001 -0.953106E+000  0.000000E+000
-0.562209E-001 -0.906212E+000  0.000000E+000
-0.530813E-001 -0.859319E+000  0.000000E+000
-0.499417E-001 -0.812425E+000  0.000000E+000
-0.468022E-001 -0.765531E+000  0.000000E+000
-0.436626E-001 -0.718637E+000  0.000000E+000
-0.405230E-001 -0.671743E+000  0.000000E+000
-0.373835E-001 -0.624849E+000  0.000000E+000
-0.342439E-001 -0.577956E+000  0.000000E+000
-0.311043E-001 -0.531062E+000  0.000000E+000
-0.279648E-001 -0.484168E+000  0.000000E+000
-0.248252E-001 -0.437274E+000  0.000000E+000
-0.216856E-001 -0.390380E+000  0.000000E+000
-0.185461E-001 -0.343487E+000  0.000000E+000
-0.228228E+000 -0.228228E+000  0.000000E+000
-0.215990E+000 -0.236160E+000  0.000000E+000
-0.236160E+000 -0.215990E+000  0.000000E+000
-0.203373E+000 -0.243674E+000  0.000000E+000
-0.243674E+000 -0.203373E+000  0.000000E+000
-0.190398E+000 -0.250752E+000  0.000000E+000
-0.250752E+000 -0.190398E+000  0.000000E+000
-0.177087E+000 -0.257376E+000  0.000000E+000
-0.257376E+000 -0.177087E+000  0.000000E+000
-0.163462E+000 -0.263530E+000  0.000000E+000
-0.263530E+000 -0.163462E+000  0.000000E+000
-0.149546E+000 -0.269200E+000  0.000000E+000
-0.269200E+000 -0.149546E+000  0.000000E+000
-0.135364E+000 -0.274372E+000  0.000000E+000
-0.274372E+000 -0.135364E+000  0.000000E+000
-0.120941E+000 -0.279034E+000  0.000000E+000
-0.279034E+000 -0.120941E+000  0.000000E+000
-0.106302E+000 -0.283174E+000  0.000000E+000
-0.283174E+000 -0.106302E+000  0.000000E+000
-0.914730E-001 -0.286783E+000  0.000000E+000
-0.286783E+000 -0.914730E-001  0.000000E+000
-0.764797E-001 -0.289851E+000  0.000000E+000
-0.289851E+000 -0.764797E-001  0.000000E+000
-0.613493E-001 -0.292372E+000  0.000000E+000
-0.292372E+000 -0.613493E-001  0.000000E+000
-0.461087E-001 -0.294338E+000  0.000000E+000
-0.294338E+000 -0.461087E-001  0.000000E+000
-0.307853E-001 -0.295746E+000  0.000000E+000
-0.295746E+000 -0.307853E-001  0.000000E+000
-0.154065E-001 -0.296593E+000  0.000000E+000
-0.100000E+001 -0.625000E-001  0.000000E+000
-0.953106E+000 -0.593604E-001  0.000000E+000
-0.906212E+000 -0.562209E-001  0.000000E+000
-0.859319E+000 -0.530813E-001  0.000000E+000
-0.812425E+000 -0.499417E-001  0.000000E+000
-0.765531E+000 -0.468022E-001  0.000000E+000
-0.718637E+000 -0.436626E-001  0.000000E+000
-0.671743E+000 -0.405230E-001  0.000000E+000
-0.624849E+000 -0.373835E-001  0.000000E+000
-0.577956E+000 -0.342439E-001  0.000000E+000
-0.531062E+000 -0.311043E-001  0.000000E+000
-0.484168E+000 -0.279648E-001  0.000000E+000
-0.437274E+000 -0.248252E-001  0.000000E+000
-0.390380E+000 -0.216856E-001  0.000000E+000
-0.343487E+000 -0.185461E-001  0.000000E+000
-0.296593E+000 -0.154065E-001  0.000000E+000
 0.000000E+000 -0.100000E+001  0.000000E+000
-0.287027E-017 -0.953125E+000  0.000000E+000
-0.574053E-017 -0.906250E+000  0.000000E+000
-0.861080E-017 -0.859375E+000  0.000000E+000
-0.114811E-016 -0.812500E+000  0.000000E+000
-0.143513E-016 -0.765625E+000  0.000000E+000
-0.172216E-016 -0.718750E+000  0.000000E+000
-0.200919E-016 -0.671875E+000  0.000000E+000
-0.229621E-016 -0.625000E+000  0.000000E+000
-0.258324E-016 -0.578125E+000  0.000000E+000
-0.287027E-016 -0.531250E+000  0.000000E+000
-0.315729E-016 -0.484375E+000  0.000000E+000
-0.344432E-016 -0.437500E+000  0.000000E+000
-0.373135E-016 -0.390625E+000  0.000000E+000
-0.401837E-016 -0.343750E+000  0.000000E+000
-0.430540E-016 -0.296875E+000  0.000000E+000
-0.176777E+000 -0.176777E+000  0.000000E+000
-0.167890E+000 -0.185238E+000  0.000000E+000
-0.185238E+000 -0.167890E+000  0.000000E+000
-0.158598E+000 -0.193253E+000  0.000000E+000
-0.193253E+000 -0.158598E+000  0.000000E+000
-0.148925E+000 -0.200802E+000  0.000000E+000
-0.200802E+000 -0.148925E+000  0.000000E+000
-0.138893E+000 -0.207867E+000  0.000000E+000
-0.207867E+000 -0.138893E+000  0.000000E+000
-0.128526E+000 -0.214432E+000  0.000000E+000
-0.214432E+000 -0.128526E+000  0.000000E+000
-0.117849E+000 -0.220480E+000  0.000000E+000
-0.220480E+000 -0.117849E+000  0.000000E+000
-0.106889E+000 -0.225997E+000  0.000000E+000
-0.225997E+000 -0.106889E+000  0.000000E+000
-0.956709E-001 -0.230970E+000  0.000000E+000
-0.230970E+000 -0.956709E-001  0.000000E+000
-0.842225E-001 -0.235386E+000  0.000000E+000
-0.235386E+000 -0.842225E-001  0.000000E+000
-0.725712E-001 -0.239235E+000  0.000000E+000
-0.239235E+000 -0.725712E-001  0.000000E+000
-0.607450E-001 -0.242508E+000  0.000000E+000
-0.242508E+000 -0.607450E-001  0.000000E+000
-0.487726E-001 -0.245196E+000  0.000000E+000
-0.245196E+000 -0.487726E-001  0.000000E+000
-0.366826E-001 -0.247294E+000  0.000000E+000
-0.247294E+000 -0.366826E-001  0.000000E+000
-0.245043E-001 -0.248796E+000  0.000000E+000
-0.248796E+000 -0.245043E-001  0.000000E+000
-0.122669E-001 -0.249699E+000  0.000000E+000
-0.249699E+000 -0.122669E-001  0.000000E+000
-0.459243E-016 -0.250000E+000  0.000000E+000
-0.100000E+001  0.000000E+000  0.000000E+000
-0.953125E+000  0.574053E-017  0.000000E+000
-0.906250E+000  0.114811E-016  0.000000E+000
-0.859375E+000  0.172216E-016  0.000000E+000
-0.812500E+000  0.229621E-016  0.000000E+000
-0.765625E+000  0.287027E-016  0.000000E+000
-0.718750E+000  0.344432E-016  0.000000E+000
-0.671875E+000  0.401837E-016  0.000000E+000
-0.625000E+000  0.459243E-016  0.000000E+000
-0.578125E+000  0.516648E-016  0.000000E+000
-0.531250E+000  0.574053E-016  0.000000E+000
-0.484375E+000  0.631459E-016  0.000000E+000
-0.437500E+000  0.688864E-016  0.000000E+000
-0.390625E+000  0.746269E-016  0.000000E+000
-0.343750E+000  0.803674E-016  0.000000E+000
-0.296875E+000  0.861080E-016  0.000000E+000
-0.250000E+000  0.918485E-016  0.000000E+000
 0.625000E-001 -0.100000E+001  0.000000E+000
 0.593604E-001 -0.953106E+000  0.000000E+000
 0.562209E-001 -0.906212E+000  0.000000E+000
 0.530813E-001 -0.859319E+000  0.000000E+000
 0.499417E-001 -0.812425E+000  0.000000E+000
 0.468022E-001 -0.765531E+000  0.000000E+000
 0.436626E-001 -0.718637E+000  0.000000E+000
 0.405230E-001 -0.671743E+000  0.000000E+000
 0.373835E-001 -0.624849E+000  0.000000E+000
 0.342439E-001 -0.577956E+000  0.000000E+000
 0.311043E-001 -0.531062E+000  0.000000E+000
 0.279648E-001 -0.484168E+000  0.000000E+000
 0.248252E-001 -0.437274E+000  0.000000E+000
 0.216856E-001 -0.390380E+000  0.000000E+000
 0.185461E-001 -0.343487E+000  0.000000E+000
 0.154065E-001 -0.296593E+000  0.000000E+000
 0.122669E-001 -0.249699E+000  0.000000E+000
-0.100000E+001  0.625000E-001  0.000000E+000
-0.953106E+000  0.593604E-001  0.000000E+000
-0.906212E+000  0.562209E-001  0.000000E+000
-0.859319E+000  0.530813E-001  0.000000E+000
-0.812425E+000  0.499417E-001  0.000000E+000
-0.765531E+000  0.468022E-001  0.000000E+000
-0.718637E+000  0.436626E-001  0.000000E+000
-0.671743E+000  0.405230E-001  0.000000E+000
-0.624849E+000  0.373835E-001  0.000000E+000
-0.577956E+000  0.342439E-001  0.000000E+000
-0.531062E+000  0.311043E-001  0.000000E+000
-0.484168E+000  0.279648E-001  0.000000E+000
-0.437274E+000  0.248252E-001  0.000000E+000
-0.390380E+000  0.216856E-001  0.000000E+000
-0.343487E+000  0.185461E-001  0.000000E+000
-0.296593E+000  0.154065E-001  0.000000E+000
-0.249699E+000  0.122669E-001  0.000000E+000
 0.125000E+000 -0.100000E+001  0.000000E+000
 0.118719E+000 -0.953050E+000  0.000000E+000
 0.112438E+000 -0.906100E+000  0.000000E+000
 0.106157E+000 -0.859149E+000  0.000000E+000
 0.998761E-001 -0.812199E+000  0.000000E+000
 0.935951E-001 -0.765249E+000  0.000000E+000
 0.873141E-001 -0.718299E+000  0.000000E+000
 0.810331E-001 -0.671348E+000  0.000000E+000
 0.747521E-001 -0.624398E+000  0.000000E+000
 0.684712E-001 -0.577448E+000  0.000000E+000
 0.621902E-001 -0.530498E+000  0.000000E+000
 0.559092E-001 -0.483547E+000  0.000000E+000
 0.496282E-001 -0.436597E+000  0.000000E+000
 0.433472E-001 -0.389647E+000  0.000000E+000
 0.370662E-001 -0.342697E+000  0.000000E+000
 0.307853E-001 -0.295746E+000  0.000000E+000
 0.245043E-001 -0.248796E+000  0.000000E+000
-0.100000E+001  0.125000E+000  0.000000E+000
-0.953050E+000  0.118719E+000  0.000000E+000
-0.906100E+000  0.112438E+000  0.000000E+000
-0.859149E+000  0.106157E+000  0.000000E+000
-0.812199E+000  0.998761E-001  0.000000E+000
-0.765249E+000  0.935951E-001  0.000000E+000
-0.718299E+000  0.873141E-001  0.000000E+000
-0.671348E+000  0.810331E-001  0.000000E+000
-0.624398E+000  0.747521E-001  0.000000E+000
-0.577448E+000  0.684712E-001  0.000000E+000
-0.530498E+000  0.621902E-001  0.000000E+000
-0.483547E+000  0.559092E-001  0.000000E+000
-0.436597E+000  0.496282E-001  0.000000E+000
-0.389647E+000  0.433472E-001  0.000000E+000
-0.342697E+000  0.370662E-001  0.000000E+000
-0.295746E+000  0.307853E-001  0.000000E+000
-0.248796E+000  0.245043E-001  0.000000E+000
 0.187500E+000 -0.100000E+001  0.000000E+000
 0.178074E+000 -0.952956E+000  0.000000E+000
 0.168648E+000 -0.905912E+000  0.000000E+000
 0.159222E+000 -0.858868E+000  0.000000E+000
 0.149796E+000 -0.811824E+000  0.000000E+000
 0.140370E+000 -0.764779E+000  0.000000E+000
 0.130943E+000 -0.717735E+000  0.000000E+000
 0.121517E+000 -0.670691E+000  0.000000E+000
 0.112091E+000 -0.623647E+000  0.000000E+000
 0.102665E+000 -0.576603E+000  0.000000E+000
 0.932391E-001 -0.529559E+000  0.000000E+000
 0.838131E-001 -0.482515E+000  0.000000E+000
 0.743870E-001 -0.435471E+000  0.000000E+000
 0.649609E-001 -0.388426E+000  0.000000E+000
 0.555348E-001 -0.341382E+000  0.000000E+000
 0.461087E-001 -0.294338E+000  0.000000E+000
 0.366826E-001 -0.247294E+000  0.000000E+000
-0.100000E+001  0.187500E+000  0.000000E+000
-0.952956E+000  0.178074E+000  0.000000E+000
-0.905912E+000  0.168648E+000  0.000000E+000
-0.858868E+000  0.159222E+000  0.000000E+000
-0.811824E+000  0.149796E+000  0.000000E+000
-0.764779E+000  0.140370E+000  0.000000E+000
-0.717735E+000  0.130943E+000  0.000000E+000
-0.670691E+000  0.121517E+000  0.000000E+000
-0.623647E+000  0.112091E+000  0.000000E+000
-0.576603E+000  0.102665E+000  0.000000E+000
-0.529559E+000  0.932391E-001  0.000000E+000
-0.482515E+000  0.838131E-001  0.000000E+000
-0.435471E+000  0.743870E-001  0.000000E+000
-0.388426E+000  0.649609E-001  0.000000E+000
-0.341382E+000  0.555348E-001  0.000000E+000
-0.294338E+000  0.461087E-001  0.000000E+000
-0.247294E+000  0.366826E-001  0.000000E+000
 0.250000E+000 -0.100000E+001  0.000000E+000
 0.237423E+000 -0.952825E+000  0.000000E+000
 0.224847E+000 -0.905650E+000  0.000000E+000
 0.212270E+000 -0.858474E+000  0.000000E+000
 0.199693E+000 -0.811299E+000  0.000000E+000
 0.187116E+000 -0.764124E+000  0.000000E+000
 0.174540E+000 -0.716949E+000  0.000000E+000
 0.161963E+000 -0.669773E+000  0.000000E+000
 0.149386E+000 -0.622598E+000  0.000000E+000
 0.136810E+000 -0.575423E+000  0.000000E+000
 0.124233E+000 -0.528248E+000  0.000000E+000
 0.111656E+000 -0.481072E+000  0.000000E+000
 0.990794E-001 -0.433897E+000  0.000000E+000
 0.865027E-001 -0.386722E+000  0.000000E+000
 0.739260E-001 -0.339547E+000  0.000000E+000
 0.613493E-001 -0.292372E+000  0.000000E+000
 0.487726E-001 -0.245196E+000  0.000000E+000
-0.100000E+001  0.250000E+000  0.000000E+000
-0.952825E+000  0.237423E+000  0.000000E+000
-0.905650E+000  0.224847E+000  0.000000E+000
-0.858474E+000  0.212270E+000  0.000000E+000
-0.811299E+000  0.199693E+000  0.000000E+000
-0.764124E+000  0.187116E+000  0.000000E+000
-0.716949E+000  0.174540E+000  0.000000E+000
-0.669773E+000  0.161963E+000  0.000000E+000
-0.622598E+000  0.149386E+000  0.000000E+000
-0.575423E+000  0.136810E+000  0.000000E+000
-0.528248E+000  0.124233E+000  0.000000E+000
-0.481072E+000  0.111656E+000  0.000000E+000
-0.433897E+000  0.990794E-001  0.000000E+000
-0.386722E+000  0.865027E-001  0.000000E+000
-0.339547E+000  0.739260E-001  0.000000E+000
-0.292372E+000  0.613493E-001  0.000000E+000
-0.245196E+000  0.487726E-001  0.000000E+000
 0.312500E+000 -0.100000E+001  0.000000E+000
 0.296765E+000 -0.952657E+000  0.000000E+000
 0.281031E+000 -0.905313E+000  0.000000E+000
 0.265296E+000 -0.857970E+000  0.000000E+000
 0.249561E+000 -0.810627E+000  0.000000E+000
 0.233827E+000 -0.763284E+000  0.000000E+000
 0.218092E+000 -0.715940E+000  0.000000E+000
 0.202357E+000 -0.668597E+000  0.000000E+000
 0.186623E+000 -0.621254E+000  0.000000E+000
 0.170888E+000 -0.573911E+000  0.000000E+000
 0.155153E+000 -0.526567E+000  0.000000E+000
 0.139418E+000 -0.479224E+000  0.000000E+000
 0.123684E+000 -0.431881E+000  0.000000E+000
 0.107949E+000 -0.384538E+000  0.000000E+000
 0.922144E-001 -0.337194E+000  0.000000E+000
 0.764797E-001 -0.289851E+000  0.000000E+000
 0.607450E-001 -0.242508E+000  0.000000E+000
-0.100000E+001  0.312500E+000  0.000000E+000
-0.952657E+000  0.296765E+000  0.000000E+000
-0.905313E+000  0.281031E+000  0.000000E+000
-0.857970E+000  0.265296E+000  0.000000E+000
-0.810627E+000  0.249561E+000  0.000000E+000
-0.763284E+000  0.233827E+000  0.000000E+000
-0.715940E+000  0.218092E+000  0.000000E+000
-0.668597E+000  0.202357E+000  0.000000E+000
-0.621254E+000  0.186623E+000  0.000000E+000
-0.573911E+000  0.170888E+000  0.000000E+000
-0.526567E+000  0.155153E+000  0.000000E+000
-0.479224E+000  0.139418E+000  0.000000E+000
-0.431881E+000  0.123684E+000  0.000000E+000
-0.384538E+000  0.107949E+000  0.000000E+000
-0.337194E+000  0.922144E-001  0.000000E+000
-0.289851E+000  0.764797E-001  0.000000E+000
-0.242508E+000  0.607450E-001  0.000000E+000
 0.375000E+000 -0.100000E+001  0.000000E+000
 0.356098E+000 -0.952452E+000  0.000000E+000
 0.337196E+000 -0.904904E+000  0.000000E+000
 0.318295E+000 -0.857357E+000  0.000000E+000
 0.299393E+000 -0.809809E+000  0.000000E+000
 0.280491E+000 -0.762261E+000  0.000000E+000
 0.261589E+000 -0.714713E+000  0.000000E+000
 0.242687E+000 -0.667165E+000  0.000000E+000
 0.223786E+000 -0.619618E+000  0.000000E+000
 0.204884E+000 -0.572070E+000  0.000000E+000
 0.185982E+000 -0.524522E+000  0.000000E+000
 0.167080E+000 -0.476974E+000  0.000000E+000
 0.148178E+000 -0.429426E+000  0.000000E+000
 0.129277E+000 -0.381879E+000  0.000000E+000
 0.110375E+000 -0.334331E+000  0.000000E+000
 0.914730E-001 -0.286783E+000  0.000000E+000
 0.725712E-001 -0.239235E+000  0.000000E+000
-0.100000E+001  0.375000E+000  0.000000E+000
-0.952452E+000  0.356098E+000  0.000000E+000
-0.904904E+000  0.337196E+000  0.000000E+000
-0.857357E+000  0.318295E+000  0.000000E+000
-0.809809E+000  0.299393E+000  0.000000E+000
-0.762261E+000  0.280491E+000  0.000000E+000
-0.714713E+000  0.261589E+000  0.000000E+000
-0.667165E+000  0.242687E+000  0.000000E+000
-0.619618E+000  0.223786E+000  0.000000E+000
-0.572070E+000  0.204884E+000  0.000000E+000
-0.524522E+000  0.185982E+000  0.000000E+000
-0.476974E+000  0.167080E+000  0.000000E+000
-0.429426E+000  0.148178E+000  0.000000E+000
-0.381879E+000  0.129277E+000  0.000000E+000
-0.334331E+000  0.110375E+000  0.000000E+000
-0.286783E+000  0.914730E-001  0.000000E+000
-0.239235E+000  0.725712E-001  0.000000E+000
 0.437500E+000 -0.100000E+001  0.000000E+000
 0.415420E+000 -0.952212E+000  0.000000E+000
 0.393340E+000 -0.904423E+000  0.000000E+000
 0.371260E+000 -0.856635E+000  0.000000E+000
 0.349181E+000 -0.808847E+000  0.000000E+000
 0.327101E+000 -0.761058E+000  0.000000E+000
 0.305021E+000 -0.713270E+000  0.000000E+000
 0.282941E+000 -0.665481E+000  0.000000E+000
 0.260861E+000 -0.617693E+000  0.000000E+000
 0.238781E+000 -0.569905E+000  0.000000E+000
 0.216702E+000 -0.522116E+000  0.000000E+000
 0.194622E+000 -0.474328E+000  0.000000E+000
 0.172542E+000 -0.426540E+000  0.000000E+000
 0.150462E+000 -0.378751E+000  0.000000E+000
 0.128382E+000 -0.330963E+000  0.000000E+000
 0.106302E+000 -0.283174E+000  0.000000E+000
 0.842225E-001 -0.235386E+000  0.000000E+000
-0.100000E+001  0.437500E+000  0.000000E+000
-0.952212E+000  0.415420E+000  0.000000E+000
-0.904423E+000  0.393340E+000  0.000000E+000
-0.856635E+000  0.371260E+000  0.000000E+000
-0.808847E+000  0.349181E+000  0.000000E+000
-0.761058E+000  0.327101E+000  0.000000E+000
-0.713270E+000  0.305021E+000  0.000000E+000
-0.665481E+000  0.282941E+000  0.000000E+000
-0.617693E+000  0.260861E+000  0.000000E+000
-0.569905E+000  0.238781E+000  0.000000E+000
-0.522116E+000  0.216702E+000  0.000000E+000
-0.474328E+000  0.194622E+000  0.000000E+000
-0.426540E+000  0.172542E+000  0.000000E+000
-0.378751E+000  0.150462E+000  0.000000E+000
-0.330963E+000  0.128382E+000  0.000000E+000
-0.283174E+000  0.106302E+000  0.000000E+000
-0.235386E+000  0.842225E-001  0.000000E+000
 0.500000E+000 -0.100000E+001  0.000000E+000
 0.474729E+000 -0.951936E+000  0.000000E+000
 0.449459E+000 -0.903871E+000  0.000000E+000
 0.424188E+000 -0.855807E+000  0.000000E+000
 0.398918E+000 -0.807742E+000  0.000000E+000
 0.373647E+000 -0.759678E+000  0.000000E+000
 0.348377E+000 -0.711614E+000  0.000000E+000
 0.323106E+000 -0.663549E+000  0.000000E+000
 0.297835E+000 -0.615485E+000  0.000000E+000
 0.272565E+000 -0.567421E+000  0.000000E+000
 0.247294E+000 -0.519356E+000  0.000000E+000
 0.222024E+000 -0.471292E+000  0.000000E+000
 0.196753E+000 -0.423227E+000  0.000000E+000
 0.171483E+000 -0.375163E+000  0.000000E+000
 0.146212E+000 -0.327099E+000  0.000000E+000
 0.120941E+000 -0.279034E+000  0.000000E+000
 0.956709E-001 -0.230970E+000  0.000000E+000
-0.100000E+001  0.500000E+000  0.000000E+000
-0.951936E+000  0.474729E+000  0.000000E+000
-0.903871E+000  0.449459E+000  0.000000E+000
-0.855807E+000  0.424188E+000  0.000000E+000
-0.807742E+000  0.398918E+000  0.000000E+000
-0.759678E+000  0.373647E+000  0.000000E+000
-0.711614E+000  0.348377E+000  0.000000E+000
-0.663549E+000  0.323106E+000  0.000000E+000
-0.615485E+000  0.297835E+000  0.000000E+000
-0.567421E+000  0.272565E+000  0.000000E+000
-0.519356E+000  0.247294E+000  0.000000E+000
-0.471292E+000  0.222024E+000  0.000000E+000
-0.423227E+000  0.196753E+000  0.000000E+000
-0.375163E+000  0.171483E+000  0.000000E+000
-0.327099E+000  0.146212E+000  0.000000E+000
-0.279034E+000  0.120941E+000  0.000000E+000
-0.230970E+000  0.956709E-001  0.000000E+000
 0.562500E+000 -0.100000E+001  0.000000E+000
 0.534024E+000 -0.951625E+000  0.000000E+000
 0.505549E+000 -0.903250E+000  0.000000E+000
 0.477073E+000 -0.854874E+000  0.000000E+000
 0.448597E+000 -0.806499E+000  0.000000E+000
 0.420121E+000 -0.758124E+000  0.000000E+000
 0.391646E+000 -0.709749E+000  0.000000E+000
 0.363170E+000 -0.661374E+000  0.000000E+000
 0.334694E+000 -0.612999E+000  0.000000E+000
 0.306219E+000 -0.564623E+000  0.000000E+000
 0.277743E+000 -0.516248E+000  0.000000E+000
 0.249267E+000 -0.467873E+000  0.000000E+000
 0.220792E+000 -0.419498E+000  0.000000E+000
 0.192316E+000 -0.371123E+000  0.000000E+000
 0.163840E+000 -0.322748E+000  0.000000E+000
 0.135364E+000 -0.274372E+000  0.000000E+000
 0.106889E+000 -0.225997E+000  0.000000E+000
-0.100000E+001  0.562500E+000  0.000000E+000
-0.951625E+000  0.534024E+000  0.000000E+000
-0.903250E+000  0.505549E+000  0.000000E+000
-0.854874E+000  0.477073E+000  0.000000E+000
-0.806499E+000  0.448597E+000  0.000000E+000
-0.758124E+000  0.420121E+000  0.000000E+000
-0.709749E+000  0.391646E+000  0.000000E+000
-0.661374E+000  0.363170E+000  0.000000E+000
-0.612999E+000  0.334694E+000  0.000000E+000
-0.564623E+000  0.306219E+000  0.000000E+000
-0.516248E+000  0.277743E+000  0.000000E+000
-0.467873E+000  0.249267E+000  0.000000E+000
-0.419498E+000  0.220792E+000  0.000000E+000
-0.371123E+000  0.192316E+000  0.000000E+000
-0.322748E+000  0.163840E+000  0.000000E+000
-0.274372E+000  0.135364E+000  0.000000E+000
-0.225997E+000  0.106889E+000  0.000000E+000
 0.625000E+000 -0.100000E+001  0.000000E+000
 0.593303E+000 -0.951280E+000  0.000000E+000
 0.561606E+000 -0.902560E+000  0.000000E+000
 0.529909E+000 -0.853840E+000  0.000000E+000
 0.498212E+000 -0.805120E+000  0.000000E+000
 0.466515E+000 -0.756400E+000  0.000000E+000
 0.434818E+000 -0.707680E+000  0.000000E+000
 0.403122E+000 -0.658960E+000  0.000000E+000
 0.371425E+000 -0.610240E+000  0.000000E+000
 0.339728E+000 -0.561520E+000  0.000000E+000
 0.308031E+000 -0.512800E+000  0.000000E+000
 0.276334E+000 -0.464080E+000  0.000000E+000
 0.244637E+000 -0.415360E+000  0.000000E+000
 0.212940E+000 -0.366640E+000  0.000000E+000
 0.181243E+000 -0.317920E+000  0.000000E+000
 0.149546E+000 -0.269200E+000  0.000000E+000
 0.117849E+000 -0.220480E+000  0.000000E+000
-0.100000E+001  0.625000E+000  0.000000E+000
-0.951280E+000  0.593303E+000  0.000000E+000
-0.902560E+000  0.561606E+000  0.000000E+000
-0.853840E+000  0.529909E+000  0.000000E+000
-0.805120E+000  0.498212E+000  0.000000E+000
-0.756400E+000  0.466515E+000  0.000000E+000
-0.707680E+000  0.434818E+000  0.000000E+000
-0.658960E+000  0.403122E+000  0.000000E+000
-0.610240E+000  0.371425E+000  0.000000E+000
-0.561520E+000  0.339728E+000  0.000000E+000
-0.512800E+000  0.308031E+000  0.000000E+000
-0.464080E+000  0.276334E+000  0.000000E+000
-0.415360E+000  0.244637E+000  0.000000E+000
-0.366640E+000  0.212940E+000  0.000000E+000
-0.317920E+000  0.181243E+000  0.000000E+000
-0.269200E+000  0.149546E+000  0.000000E+000
-0.220480E+000  0.117849E+000  0.000000E+000
 0.687500E+000 -0.100000E+001  0.000000E+000
 0.652564E+000 -0.950902E+000  0.000000E+000
 0.617628E+000 -0.901804E+000  0.000000E+000
 0.582692E+000 -0.852706E+000  0.000000E+000
 0.547756E+000 -0.803608E+000  0.000000E+000
 0.512821E+000 -0.754510E+000  0.000000E+000
 0.477885E+000 -0.705412E+000  0.000000E+000
 0.442949E+000 -0.656314E+000  0.000000E+000
 0.408013E+000 -0.607216E+000  0.000000E+000
 0.373077E+000 -0.558118E+000  0.000000E+000
 0.338141E+000 -0.509020E+000  0.000000E+000
 0.303205E+000 -0.459922E+000  0.000000E+000
 0.268269E+000 -0.410824E+000  0.000000E+000
 0.233333E+000 -0.361726E+000  0.000000E+000
 0.198397E+000 -0.312628E+000  0.000000E+000
 0.163462E+000 -0.263530E+000  0.000000E+000
 0.128526E+000 -0.214432E+000  0.000000E+000
-0.100000E+001  0.687500E+000  0.000000E+000
-0.950902E+000  0.652564E+000  0.000000E+000
-0.901804E+000  0.617628E+000  0.000000E+000
-0.852706E+000  0.582692E+000  0.000000E+000
-0.803608E+000  0.547756E+000  0.000000E+000
-0.754510E+000  0.512821E+000  0.000000E+000
-0.705412E+000  0.477885E+000  0.000000E+000
-0.656314E+000  0.442949E+000  0.000000E+000
-0.607216E+000  0.408013E+000  0.000000E+000
-0.558118E+000  0.373077E+000  0.000000E+000
-0.509020E+000  0.338141E+000  0.000000E+000
-0.459922E+000  0.303205E+000  0.000000E+000
-0.410824E+000  0.268269E+000  0.000000E+000
-0.361726E+000  0.233333E+000  0.000000E+000
-0.312628E+000  0.198397E+000  0.000000E+000
-0.263530E+000  0.163462E+000  0.000000E+000
-0.214432E+000  0.128526E+000  0.000000E+000
 0.750000E+000 -0.100000E+001  0.000000E+000
 0.711806E+000 -0.950492E+000  0.000000E+000
 0.673612E+000 -0.900983E+000  0.000000E+000
 0.635417E+000 -0.851475E+000  0.000000E+000
 0.597223E+000 -0.801967E+000  0.000000E+000
 0.559029E+000 -0.752459E+000  0.000000E+000
 0.520835E+000 -0.702950E+000  0.000000E+000
 0.482640E+000 -0.653442E+000  0.000000E+000
 0.444446E+000 -0.603934E+000  0.000000E+000
 0.406252E+000 -0.554425E+000  0.000000E+000
 0.368058E+000 -0.504917E+000  0.000000E+000
 0.329864E+000 -0.455409E+000  0.000000E+000
 0.291669E+000 -0.405901E+000  0.000000E+000
 0.253475E+000 -0.356392E+000  0.000000E+000
 0.215281E+000 -0.306884E+000  0.000000E+000
 0.177087E+000 -0.257376E+000  0.000000E+000
 0.138893E+000 -0.207867E+000  0.000000E+000
-0.100000E+001  0.750000E+000  0.000000E+000
-0.950492E+000  0.711806E+000  0.000000E+000
-0.900983E+000  0.673612E+000  0.000000E+000
-0.851475E+000  0.635417E+000  0.000000E+000
-0.801967E+000  0.597223E+000  0.000000E+000
-0.752459E+000  0.559029E+000  0.000000E+000
-0.702950E+000  0.520835E+000  0.000000E+000
-0.653442E+000  0.482640E+000  0.000000E+000
-0.603934E+000  0.444446E+000  0.000000E+000
-0.554425E+000  0.406252E+000  0.000000E+000
-0.504917E+000  0.368058E+000  0.000000E+000
-0.455409E+000  0.329864E+000  0.000000E+000
-0.405901E+000  0.291669E+000  0.000000E+000
-0.356392E+000  0.253475E+000  0.000000E+000
-0.306884E+000  0.215281E+000  0.000000E+000
-0.257376E+000  0.177087E+000  0.000000E+000
-0.207867E+000  0.138893E+000  0.000000E+000
 0.812500E+000 -0.100000E+001  0.000000E+000
 0.771027E+000 -0.950050E+000  0.000000E+000
 0.729553E+000 -0.900100E+000  0.000000E+000
 0.688080E+000 -0.850150E+000  0.000000E+000
 0.646606E+000 -0.800200E+000  0.000000E+000
 0.605133E+000 -0.750251E+000  0.000000E+000
 0.563659E+000 -0.700301E+000  0.000000E+000
 0.522186E+000 -0.650351E+000  0.000000E+000
 0.480712E+000 -0.600401E+000  0.000000E+000
 0.439239E+000 -0.550451E+000  0.000000E+000
 0.397766E+000 -0.500501E+000  0.000000E+000
 0.356292E+000 -0.450551E+000  0.000000E+000
 0.314819E+000 -0.400601E+000  0.000000E+000
 0.273345E+000 -0.350652E+000  0.000000E+000
 0.231872E+000 -0.300702E+000  0.000000E+000
 0.190398E+000 -0.250752E+000  0.000000E+000
 0.148925E+000 -0.200802E+000  0.000000E+000
-0.100000E+001  0.812500E+000  0.000000E+000
-0.950050E+000  0.771027E+000  0.000000E+000
-0.900100E+000  0.729553E+000  0.000000E+000
-0.850150E+000  0.688080E+000  0.000000E+000
-0.800200E+000  0.646606E+000  0.000000E+000
-0.750251E+000  0.605133E+000  0.000000E+000
-0.700301E+000  0.563659E+000  0.000000E+000
-0.650351E+000  0.522186E+000  0.000000E+000
-0.600401E+000  0.480712E+000  0.000000E+000
-0.550451E+000  0.439239E+000  0.000000E+000
-0.500501E+000  0.397766E+000  0.000000E+000
-0.450551E+000  0.356292E+000  0.000000E+000
-0.400601E+000  0.314819E+000  0.000000E+000
-0.350652E+000  0.273345E+000  0.000000E+000
-0.300702E+000  0.231872E+000  0.000000E+000
-0.250752E+000  0.190398E+000  0.000000E+000
-0.200802E+000  0.148925E+000  0.000000E+000
 0.875000E+000 -0.100000E+001  0.000000E+000
 0.830225E+000 -0.949578E+000  0.000000E+000
 0.785450E+000 -0.899157E+000  0.000000E+000
 0.740675E+000 -0.848735E+000  0.000000E+000
 0.695900E+000 -0.798313E+000  0.000000E+000
 0.651124E+000 -0.747891E+000  0.000000E+000
 0.606349E+000 -0.697470E+000  0.000000E+000
 0.561574E+000 -0.647048E+000  0.000000E+000
 0.516799E+000 -0.596626E+000  0.000000E+000
 0.472024E+000 -0.546205E+000  0.000000E+000
 0.427249E+000 -0.495783E+000  0.000000E+000
 0.382474E+000 -0.445361E+000  0.000000E+000
 0.337699E+000 -0.394939E+000  0.000000E+000
 0.292924E+000 -0.344518E+000  0.000000E+000
 0.248149E+000 -0.294096E+000  0.000000E+000
 0.203373E+000 -0.243674E+000  0.000000E+000
 0.158598E+000 -0.193253E+000  0.000000E+000
-0.100000E+001  0.875000E+000  0.000000E+000
-0.949578E+000  0.830225E+000  0.000000E+000
-0.899157E+000  0.785450E+000  0.000000E+000
-0.848735E+000  0.740675E+000  0.000000E+000
-0.798313E+000  0.695900E+000  0.000000E+000
-0.747891E+000  0.651124E+000  0.000000E+000
-0.697470E+000  0.606349E+000  0.000000E+000
-0.647048E+000  0.561574E+000  0.000000E+000
-0.596626E+000  0.516799E+000  0.000000E+000
-0.546205E+000  0.472024E+000  0.000000E+000
-0.495783E+000  0.427249E+000  0.000000E+000
-0.445361E+000  0.382474E+000  0.000000E+000
-0.394939E+000  0.337699E+000  0.000000E+000
-0.344518E+000  0.292924E+000  0.000000E+000
-0.294096E+000  0.248149E+000  0.000000E+000
-0.243674E+000  0.203373E+000  0.000000E+000
-0.193253E+000  0.158598E+000  0.000000E+000
 0.937500E+000 -0.100000E+001  0.000000E+000
 0.889399E+000 -0.949077E+000  0.000000E+000
 0.841299E+000 -0.898155E+000  0.000000E+000
 0.793198E+000 -0.847232E+000  0.000000E+000
 0.745097E+000 -0.796309E+000  0.000000E+000
 0.696997E+000 -0.745387E+000  0.000000E+000
 0.648896E+000 -0.694464E+000  0.000000E+000
 0.600796E+000 -0.643542E+000  0.000000E+000
 0.552695E+000 -0.592619E+000  0.000000E+000
 0.504594E+000 -0.541696E+000  0.000000E+000
 0.456494E+000 -0.490774E+000  0.000000E+000
 0.408393E+000 -0.439851E+000  0.000000E+000
 0.360292E+000 -0.388928E+000  0.000000E+000
 0.312192E+000 -0.338006E+000  0.000000E+000
 0.264091E+000 -0.287083E+000  0.000000E+000
 0.215990E+000 -0.236160E+000  0.000000E+000
 0.167890E+000 -0.185238E+000  0.000000E+000
-0.100000E+001  0.937500E+000  0.000000E+000
-0.949077E+000  0.889399E+000  0.000000E+000
-0.898155E+000  0.841299E+000  0.000000E+000
-0.847232E+000  0.793198E+000  0.000000E+000
-0.796309E+000  0.745097E+000  0.000000E+000
-0.745387E+000  0.696997E+000  0.000000E+000
-0.694464E+000  0.648896E+000  0.000000E+000
-0.643542E+000  0.600796E+000  0.000000E+000
-0.592619E+000  0.552695E+000  0.000000E+000
-0.541696E+000  0.504594E+000  0.000000E+000
-0.490774E+000  0.456494E+000  0.000000E+000
-0.439851E+000  0.408393E+000  0.000000E+000
-0.388928E+000  0.360292E+000  0.000000E+000
-0.338006E+000  0.312192E+000  0.000000E+000
-0.287083E+000  0.264091E+000  0.000000E+000
-0.236160E+000  0.215990E+000  0.000000E+000
-0.185238E+000  0.167890E+000  0.000000E+000
 0.100000E+001 -0.100000E+001  0.000000E+000
 0.948549E+000 -0.948549E+000  0.000000E+000
 0.897097E+000 -0.897097E+000  0.000000E+000
 0.845646E+000 -0.845646E+000  0.000000E+000
 0.794194E+000 -0.794194E+000  0.000000E+000
 0.742743E+000 -0.742743E+000  0.000000E+000
 0.691291E+000 -0.691291E+000  0.000000E+000
 0.639840E+000 -0.639840E+000  0.000000E+000
 0.588388E+000 -0.588388E+000  0.000000E+000
 0.536937E+000 -0.536937E+000  0.000000E+000
 0.485485E+000 -0.485485E+000  0.000000E+000
 0.434034E+000 -0.434034E+000  0.000000E+000
 0.382583E+000 -0.382583E+000  0.000000E+000
 0.331131E+000 -0.331131E+000  0.000000E+000
 0.279680E+000 -0.279680E+000  0.000000E+000
 0.228228E+000 -0.228228E+000  0.000000E+000
 0.176777E+000 -0.176777E+000  0.000000E+000
-0.100000E+001  0.100000E+001  0.000000E+000
-0.948549E+000  0.948549E+000  0.000000E+000
-0.897097E+000  0.897097E+000  0.000000E+000
-0.845646E+000  0.845646E+000  0.000000E+000
-0.794194E+000  0.794194E+000  0.000000E+000
-0.742743E+000  0.742743E+000  0.000000E+000
-0.691291E+000  0.691291E+000  0.000000E+000
-0.639840E+000  0.639840E+000  0.000000E+000
-0.588388E+000  0.588388E+000  0.000000E+000
-0.536937E+000  0.536937E+000  0.000000E+000
-0.485485E+000  0.485485E+000  0.000000E+000
-0.434034E+000  0.434034E+000  0.000000E+000
-0.382583E+000  0.382583E+000  0.000000E+000
-0.331131E+000  0.331131E+000  0.000000E+000
-0.279680E+000  0.279680E+000  0.000000E+000
-0.228228E+000  0.228228E+000  0.000000E+000
-0.176777E+000  0.176777E+000  0.000000E+000
 0.100000E+001 -0.937500E+000  0.000000E+000
 0.949077E+000 -0.889399E+000  0.000000E+000
 0.898155E+000 -0.841299E+000  0.000000E+000
 0.847232E+000 -0.793198E+000  0.000000E+000
 0.796309E+000 -0.745097E+000  0.000000E+000
 0.745387E+000 -0.696997E+000  0.000000E+000
 0.694464E+000 -0.648896E+000  0.000000E+000
 0.643542E+000 -0.600796E+000  0.000000E+000
 0.592619E+000 -0.552695E+000  0.000000E+000
 0.541696E+000 -0.504594E+000  0.000000E+000
 0.490774E+000 -0.456494E+000  0.000000E+000
 0.439851E+000 -0.408393E+000  0.000000E+000
 0.388928E+000 -0.360292E+000  0.000000E+000
 0.338006E+000 -0.312192E+000  0.000000E+000
 0.287083E+000 -0.264091E+000  0.000000E+000
 0.236160E+000 -0.215990E+000  0.000000E+000
 0.185238E+000 -0.167890E+000  0.000000E+000
-0.937500E+000  0.100000E+001  0.000000E+000
-0.889399E+000  0.949077E+000  0.000000E+000
-0.841299E+000  0.898155E+000  0.000000E+000
-0.793198E+000  0.847232E+000  0.000000E+000
-0.745097E+000  0.796309E+000  0.000000E+000
-0.696997E+000  0.745387E+000  0.000000E+000
-0.648896E+000  0.694464E+000  0.000000E+000
-0.600796E+000  0.643542E+000  0.000000E+000
-0.552695E+000  0.592619E+000  0.000000E+000
-0.504594E+000  0.541696E+000  0.000000E+000
-0.456494E+000  0.490774E+000  0.000000E+000
-0.408393E+000  0.439851E+000  0.000000E+000
-0.360292E+000  0.388928E+000  0.000000E+000
-0.312192E+000  0.338006E+000  0.000000E+000
-0.264091E+000  0.287083E+000  0.000000E+000
-0.215990E+000  0.236160E+000  0.000000E+000
-0.167890E+000  0.185238E+000  0.000000E+000
 0.100000E+001 -0.875000E+000  0.000000E+000
 0.949578E+000 -0.830225E+000  0.000000E+000
 0.899157E+000 -0.785450E+000  0.000000E+000
 0.848735E+000 -0.740675E+000  0.000000E+000
 0.798313E+000 -0.695900E+000  0.000000E+000
 0.747891E+000 -0.651124E+000  0.000000E+000
 0.697470E+000 -0.606349E+000  0.000000E+000
 0.647048E+000 -0.561574E+000  0.000000E+000
 0.596626E+000 -0.516799E+000  0.000000E+000
 0.546205E+000 -0.472024E+000  0.000000E+000
 0.495783E+000 -0.427249E+000  0.000000E+000
 0.445361E+000 -0.382474E+000  0.000000E+000
 0.394939E+000 -0.337699E+000  0.000000E+000
 0.344518E+000 -0.292924E+000  0.000000E+000
 0.294096E+000 -0.248149E+000  0.000000E+000
 0.243674E+000 -0.203373E+000  0.000000E+000
 0.193253E+000 -0.158598E+000  0.000000E+000
-0.875000E+000  0.100000E+001  0.000000E+000
-0.830225E+000  0.949578E+000  0.000000E+000
-0.785450E+000  0.899157E+000  0.000000E+000
-0.740675E+000  0.848735E+000  0.000000E+000
-0.695900E+000  0.798313E+000  0.000000E+000
-0.651124E+000  0.747891E+000  0.000000E+000
-0.606349E+000  0.697470E+000  0.000000E+000
-0.561574E+000  0.647048E+000  0.000000E+000
-0.516799E+000  0.596626E+000  0.000000E+000
-0.472024E+000  0.546205E+000  0.000000E+000
-0.427249E+000  0.495783E+000  0.000000E+000
-0.382474E+000  0.445361E+000  0.000000E+000
-0.337699E+000  0.394939E+000  0.000000E+000
-0.292924E+000  0.344518E+000  0.000000E+000
-0.248149E+000  0.294096E+000  0.000000E+000
-0.203373E+000  0.243674E+000  0.000000E+000
-0.158598E+000  0.193253E+000  0.000000E+000
 0.100000E+001 -0.812500E+000  0.000000E+000
 0.950050E+000 -0.771027E+000  0.000000E+000
 0.900100E+000 -0.729553E+000  0.000000E+000
 0.850150E+000 -0.688080E+000  0.000000E+000
 0.800200E+000 -0.646606E+000  0.000000E+000
 0.750251E+000 -0.605133E+000  0.000000E+000
 0.700301E+000 -0.563659E+000  0.000000E+000
 0.650351E+000 -0.522186E+000  0.000000E+000
 0.600401E+000 -0.480712E+000  0.000000E+000
 0.550451E+000 -0.439239E+000  0.000000E+000
 0.500501E+000 -0.397766E+000  0.000000E+000
 0.450551E+000 -0.356292E+000  0.000000E+000
 0.400601E+000 -0.314819E+000  0.000000E+000
 0.350652E+000 -0.273345E+000  0.000000E+000
 0.300702E+000 -0.231872E+000  0.000000E+000
 0.250752E+000 -0.190398E+000  0.000000E+000
 0.200802E+000 -0.148925E+000  0.000000E+000
-0.812500E+000  0.100000E+001  0.000000E+000
-0.771027E+000  0.950050E+000  0.000000E+000
-0.729553E+000  0.900100E+000  0.000000E+000
-0.688080E+000  0.850150E+000  0.000000E+000
-0.646606E+000  0.800200E+000  0.000000E+000
-0.605133E+000  0.750251E+000  0.000000E+000
-0.563659E+000  0.700301E+000  0.000000E+000
-0.522186E+000  0.650351E+000  0.000000E+000
-0.480712E+000  0.600401E+000  0.000000E+000
-0.439239E+000  0.550451E+000  0.000000E+000
-0.397766E+000  0.500501E+000  0.000000E+000
-0.356292E+000  0.450551E+000  0.000000E+000
-0.314819E+000  0.400601E+000  0.000000E+000
-0.273345E+000  0.350652E+000  0.000000E+000
-0.231872E+000  0.300702E+000  0.000000E+000
-0.190398E+000  0.250752E+000  0.000000E+000
-0.148925E+000  0.200802E+000  0.000000E+000
 0.100000E+001 -0.750000E+000  0.000000E+000
 0.950492E+000 -0.711806E+000  0.000000E+000
 0.900983E+000 -0.673612E+000  0.000000E+000
 0.851475E+000 -0.635417E+000  0.000000E+000
 0.801967E+000 -0.597223E+000  0.000000E+000
 0.752459E+000 -0.559029E+000  0.000000E+000
 0.702950E+000 -0.520835E+000  0.000000E+000
 0.653442E+000 -0.482640E+000  0.000000E+000
 0.603934E+000 -0.444446E+000  0.000000E+000
 0.554425E+000 -0.406252E+000  0.000000E+000
 0.504917E+000 -0.368058E+000  0.000000E+000
 0.455409E+000 -0.329864E+000  0.000000E+000
 0.405901E+000 -0.291669E+000  0.000000E+000
 0.356392E+000 -0.253475E+000  0.000000E+000
 0.306884E+000 -0.215281E+000  0.000000E+000
 0.257376E+000 -0.177087E+000  0.000000E+000
 0.207867E+000 -0.138893E+000  0.000000E+000
-0.750000E+000  0.100000E+001  0.000000E+000
-0.711806E+000  0.950492E+000  0.000000E+000
-0.673612E+000  0.900983E+000  0.000000E+000
-0.635417E+000  0.851475E+000  0.000000E+000
-0.597223E+000  0.801967E+000  0.000000E+000
-0.559029E+000  0.752459E+000  0.000000E+000
-0.520835E+000  0.702950E+000  0.000000E+000
-0.482640E+000  0.653442E+000  0.000000E+000
-0.444446E+000  0.603934E+000  0.000000E+000
-0.406252E+000  0.554425E+000  0.000000E+000
-0.368058E+000  0.504917E+000  0.000000E+000
-0.329864E+000  0.455409E+000  0.000000E+000
-0.291669E+000  0.405901E+000  0.000000E+000
-0.253475E+000  0.356392E+000  0.000000E+000
-0.215281E+000  0.306884E+000  0.000000E+000
-0.177087E+000  0.257376E+000  0.000000E+000
-0.138893E+000  0.207867E+000  0.000000E+000
 0.100000E+001 -0.687500E+000  0.000000E+000
 0.950902E+000 -0.652564E+000  0.000000E+000
 0.901804E+000 -0.617628E+000  0.000000E+000
 0.852706E+000 -0.582692E+000  0.000000E+000
 0.803608E+000 -0.547756E+000  0.000000E+000
 0.754510E+000 -0.512821E+000  0.000000E+000
 0.705412E+000 -0.477885E+000  0.000000E+000
 0.656314E+000 -0.442949E+000  0.000000E+000
 0.607216E+000 -0.408013E+000  0.000000E+000
 0.558118E+000 -0.373077E+000  0.000000E+000
 0.509020E+000 -0.338141E+000  0.000000E+000
 0.459922E+000 -0.303205E+000  0.000000E+000
 0.410824E+000 -0.268269E+000  0.000000E+000
 0.361726E+000 -0.233333E+000  0.000000E+000
 0.312628E+000 -0.198397E+000  0.000000E+000
 0.263530E+000 -0.163462E+000  0.000000E+000
 0.214432E+000 -0.128526E+000  0.000000E+000
-0.687500E+000  0.100000E+001  0.000000E+000
-0.652564E+000  0.950902E+000  0.000000E+000
-0.617628E+000  0.901804E+000  0.000000E+000
-0.582692E+000  0.852706E+000  0.000000E+000
-0.547756E+000  0.803608E+000  0.000000E+000
-0.512821E+000  0.754510E+000  0.000000E+000
-0.477885E+000  0.705412E+000  0.000000E+000
-0.442949E+000  0.656314E+000  0.000000E+000
-0.408013E+000  0.607216E+000  0.000000E+000
-0.373077E+000  0.558118E+000  0.000000E+000
-0.338141E+000  0.509020E+000  0.000000E+000
-0.303205E+000  0.459922E+000  0.000000E+000
-0.268269E+000  0.410824E+000  0.000000E+000
-0.233333E+000  0.361726E+000  0.000000E+000
-0.198397E+000  0.312628E+000  0.000000E+000
-0.163462E+000  0.263530E+000  0.000000E+000
-0.128526E+000  0.214432E+000  0.000000E+000
 0.100000E+001 -0.625000E+000  0.000000E+000
 0.951280E+000 -0.593303E+000  0.000000E+000
 0.902560E+000 -0.561606E+000  0.000000E+000
 0.853840E+000 -0.529909E+000  0.000000E+000
 0.805120E+000 -0.498212E+000  0.000000E+000
 0.756400E+000 -0.466515E+000  0.000000E+000
 0.707680E+000 -0.434818E+000  0.000000E+000
 0.658960E+000 -0.403122E+000  0.000000E+000
 0.610240E+000 -0.371425E+000  0.000000E+000
 0.561520E+000 -0.339728E+000  0.000000E+000
 0.512800E+000 -0.308031E+000  0.000000E+000
 0.464080E+000 -0.276334E+000  0.000000E+000
 0.415360E+000 -0.244637E+000  0.000000E+000
 0.366640E+000 -0.212940E+000  0.000000E+000
 0.317920E+000 -0.181243E+000  0.000000E+000
 0.269200E+000 -0.149546E+000  0.000000E+000
 0.220480E+000 -0.117849E+000  0.000000E+000
-0.625000E+000  0.100000E+001  0.000000E+000
-0.593303E+000  0.951280E+000  0.000000E+000
-0.561606E+000  0.902560E+000  0.000000E+000
-0.529909E+000  0.853840E+000  0.000000E+000
-0.498212E+000  0.805120E+000  0.000000E+000
-0.466515E+000  0.756400E+000  0.000000E+000
-0.434818E+000  0.707680E+000  0.000000E+000
-0.403122E+000  0.658960E+000  0.000000E+000
-0.371425E+000  0.610240E+000  0.000000E+000
-0.339728E+000  0.561520E+000  0.000000E+000
-0.308031E+000  0.512800E+000  0.000000E+000
-0.276334E+000  0.464080E+000  0.000000E+000
-0.244637E+000  0.415360E+000  0.000000E+000
-0.212940E+000  0.366640E+000  0.000000E+000
-0.181243E+000  0.317920E+000  0.000000E+000
-0.149546E+000  0.269200E+000  0.000000E+000
-0.117849E+000  0.220480E+000  0.000000E+000
 0.100000E+001 -0.562500E+000  0.000000E+000
 0.951625E+000 -0.534024E+000  0.000000E+000
 0.903250E+000 -0.505549E+000  0.000000E+000
 0.854874E+000 -0.477073E+000  0.000000E+000
 0.806499E+000 -0.448597E+000  0.000000E+000
 0.758124E+000 -0.420121E+000  0.000000E+000
 0.709749E+000 -0.391646E+000  0.000000E+000
 0.661374E+000 -0.363170E+000  0.000000E+000
 0.612999E+000 -0.334694E+000  0.000000E+000
 0.564623E+000 -0.306219E+000  0.000000E+000
 0.516248E+000 -0.277743E+000  0.000000E+000
 0.467873E+000 -0.249267E+000  0.000000E+000
 0.419498E+000 -0.220792E+000  0.000000E+000
 0.371123E+000 -0.192316E+000  0.000000E+000
 0.322748E+000 -0.163840E+000  0.000000E+000
 0.274372E+000 -0.135364E+000  0.000000E+000
 0.225997E+000 -0.106889E+000  0.000000E+000
-0.562500E+000  0.100000E+001  0.000000E+000
-0.534024E+000  0.951625E+000  0.000000E+000
-0.505549E+000  0.903250E+000  0.000000E+000
-0.477073E+000  0.854874E+000  0.000000E+000
-0.448597E+000  0.806499E+000  0.000000E+000
-0.420121E+000  0.758124E+000  0.000000E+000
-0.391646E+000  0.709749E+000  0.000000E+000
-0.363170E+000  0.661374E+000  0.000000E+000
-0.334694E+000  0.612999E+000  0.000000E+000
-0.306219E+000  0.564623E+000  0.000000E+000
-0.277743E+000  0.516248E+000  0.000000E+000
-0.249267E+000  0.467873E+000  0.000000E+000
-0.220792E+000  0.419498E+000  0.000000E+000
-0.192316E+000  0.371123E+000  0.000000E+000
-0.163840E+000  0.322748E+000  0.000000E+000
-0.135364E+000  0.274372E+000  0.000000E+000
-0.106889E+000  0.225997E+000  0.000000E+000
 0.100000E+001 -0.500000E+000  0.000000E+000
 0.951936E+000 -0.474729E+000  0.000000E+000
 0.903871E+000 -0.449459E+000  0.000000E+000
 0.855807E+000 -0.424188E+000  0.000000E+000
 0.807742E+000 -0.398918E+000  0.000000E+000
 0.759678E+000 -0.373647E+000  0.000000E+000
 0.711614E+000 -0.348377E+000  0.000000E+000
 0.663549E+000 -0.323106E+000  0.000000E+000
 0.615485E+000 -0.297835E+000  0.000000E+000
 0.567421E+000 -0.272565E+000  0.000000E+000
 0.519356E+000 -0.247294E+000  0.000000E+000
 0.471292E+000 -0.222024E+000  0.000000E+000
 0.423227E+000 -0.196753E+000  0.000000E+000
 0.375163E+000 -0.171483E+000  0.000000E+000
 0.327099E+000 -0.146212E+000  0.000000E+000
 0.279034E+000 -0.120941E+000  0.000000E+000
 0.230970E+000 -0.956709E-001  0.000000E+000
-0.500000E+000  0.100000E+001  0.000000E+000
-0.474729E+000  0.951936E+000  0.000000E+000
-0.449459E+000  0.903871E+000  0.000000E+000
-0.424188E+000  0.855807E+000  0.000000E+000
-0.398918E+000  0.807742E+000  0.000000E+000
-0.373647E+000  0.759678E+000  0.000000E+000
-0.348377E+000  0.711614E+000  0.000000E+000
-0.323106E+000  0.663549E+000  0.000000E+000
-0.297835E+000  0.615485E+000  0.000000E+000
-0.272565E+000  0.567421E+000  0.000000E+000
-0.247294E+000  0.519356E+000  0.000000E+000
-0.222024E+000  0.471292E+000  0.000000E+000
-0.196753E+000  0.423227E+000  0.000000E+000
-0.171483E+000  0.375163E+000  0.000000E+000
-0.146212E+000  0.327099E+000  0.000000E+000
-0.120941E+000  0.279034E+000  0.000000E+000
-0.956709E-001  0.230970E+000  0.000000E+000
 0.100000E+001 -0.437500E+000  0.000000E+000
 0.952212E+000 -0.415420E+000  0.000000E+000
 0.904423E+000 -0.393340E+000  0.000000E+000
 0.856635E+000 -0.371260E+000  0.000000E+000
 0.808847E+000 -0.349181E+000  0.000000E+000
 0.761058E+000 -0.327101E+000  0.000000E+000
 0.713270E+000 -0.305021E+000  0.000000E+000
 0.665481E+000 -0.282941E+000  0.000000E+000
 0.617693E+000 -0.260861E+000  0.000000E+000
 0.569905E+000 -0.238781E+000  0.000000E+000
 0.522116E+000 -0.216702E+000  0.000000E+000
 0.474328E+000 -0.194622E+000  0.000000E+000
 0.426540E+000 -0.172542E+000  0.000000E+000
 0.378751E+000 -0.150462E+000  0.000000E+000
 0.330963E+000 -0.128382E+000  0.000000E+000
 0.283174E+000 -0.106302E+000  0.000000E+000
 0.235386E+000 -0.842225E-001  0.000000E+000
-0.437500E+000  0.100000E+001  0.000000E+000
-0.415420E+000  0.952212E+000  0.000000E+000
-0.393340E+000  0.904423E+000  0.000000E+000
-0.371260E+000  0.856635E+000  0.000000E+000
-0.349181E+000  0.808847E+000  0.000000E+000
-0.327101E+000  0.761058E+000  0.000000E+000
-0.305021E+000  0.713270E+000  0.000000E+000
-0.282941E+000  0.665481E+000  0.000000E+000
-0.260861E+000  0.617693E+000  0.000000E+000
-0.238781E+000  0.569905E+000  0.000000E+000
-0.216702E+000  0.522116E+000  0.000000E+000
-0.194622E+000  0.474328E+000  0.000000E+000
-0.172542E+000  0.426540E+000  0.000000E+000
-0.150462E+000  0.378751E+000  0.000000E+000
-0.128382E+000  0.330963E+000  0.000000E+000
-0.106302E+000  0.283174E+000  0.000000E+000
-0.842225E-001  0.235386E+000  0.000000E+000
 0.100000E+001 -0.375000E+000  0.000000E+000
 0.952452E+000 -0.356098E+000  0.000000E+000
 0.904904E+000 -0.337196E+000  0.000000E+000
 0.857357E+000 -0.318295E+000  0.000000E+000
 0.809809E+000 -0.299393E+000  0.000000E+000
 0.762261E+000 -0.280491E+000  0.000000E+000
 0.714713E+000 -0.261589E+000  0.000000E+000
 0.667165E+000 -0.242687E+000  0.000000E+000
 0.619618E+000 -0.223786E+000  0.000000E+000
 0.572070E+000 -0.204884E+000  0.000000E+000
 0.524522E+000 -0.185982E+000  0.000000E+000
 0.476974E+000 -0.167080E+000  0.000000E+000
 0.429426E+000 -0.148178E+000  0.000000E+000
 0.381879E+000 -0.129277E+000  0.000000E+000
 0.334331E+000 -0.110375E+000  0.000000E+000
 0.286783E+000 -0.914730E-001  0.000000E+000
 0.239235E+000 -0.725712E-001  0.000000E+000
-0.375000E+000  0.100000E+001  0.000000E+000
-0.356098E+000  0.952452E+000  0.000000E+000
-0.337196E+000  0.904904E+000  0.000000E+000
-0.318295E+000  0.857357E+000  0.000000E+000
-0.299393E+000  0.809809E+000  0.000000E+000
-0.280491E+000  0.762261E+000  0.000000E+000
-0.261589E+000  0.714713E+000  0.000000E+000
-0.242687E+000  0.667165E+000  0.000000E+000
-0.223786E+000  0.619618E+000  0.000000E+000
-0.204884E+000  0.572070E+000  0.000000E+000
-0.185982E+000  0.524522E+000  0.000000E+000
-0.167080E+000  0.476974E+000  0.000000E+000
-0.148178E+000  0.429426E+000  0.000000E+000
-0.129277E+000  0.381879E+000  0.000000E+000
-0.110375E+000  0.334331E+000  0.000000E+000
-0.914730E-001  0.286783E+000  0.000000E+000
-0.725712E-001  0.239235E+000  0.000000E+000
 0.100000E+001 -0.312500E+000  0.000000E+000
 0.952657E+000 -0.296765E+000  0.000000E+000
 0.905313E+000 -0.281031E+000  0.000000E+000
 0.857970E+000 -0.265296E+000  0.000000E+000
 0.810627E+000 -0.249561E+000  0.000000E+000
 0.763284E+000 -0.233827E+000  0.000000E+000
 0.715940E+000 -0.218092E+000  0.000000E+000
 0.668597E+000 -0.202357E+000  0.000000E+000
 0.621254E+000 -0.186623E+000  0.000000E+000
 0.573911E+000 -0.170888E+000  0.000000E+000
 0.526567E+000 -0.155153E+000  0.000000E+000
 0.479224E+000 -0.139418E+000  0.000000E+000
 0.431881E+000 -0.123684E+000  0.000000E+000
 0.384538E+000 -0.107949E+000  0.000000E+000
 0.337194E+000 -0.922144E-001  0.000000E+000
 0.289851E+000 -0.764797E-001  0.000000E+000
 0.242508E+000 -0.607450E-001  0.000000E+000
-0.312500E+000  0.100000E+001  0.000000E+000
-0.296765E+000  0.952657E+000  0.000000E+000
-0.281031E+000  0.905313E+000  0.000000E+000
-0.265296E+000  0.857970E+000  0.000000E+000
-0.249561E+000  0.810627E+000  0.000000E+000
-0.233827E+000  0.763284E+000  0.000000E+000
-0.218092E+000  0.715940E+000  0.000000E+000
-0.202357E+000  0.668597E+000  0.000000E+000
-0.186623E+000  0.621254E+000  0.000000E+000
-0.170888E+000  0.573911E+000  0.000000E+000
-0.155153E+000  0.526567E+000  0.000000E+000
-0.139418E+000  0.479224E+000  0.000000E+000
-0.123684E+000  0.431881E+000  0.000000E+000
-0.107949E+000  0.384538E+000  0.000000E+000
-0.922144E-001  0.337194E+000  0.000000E+000
-0.764797E-001  0.289851E+000  0.000000E+000
-0.607450E-001  0.242508E+000  0.000000E+000
 0.100000E+001 -0.250000E+000  0.000000E+000
 0.952825E+000 -0.237423E+000  0.000000E+000
 0.905650E+000 -0.224847E+000  0.000000E+000
 0.858474E+000 -0.212270E+000  0.000000E+000
 0.811299E+000 -0.199693E+000  0.000000E+000
 0.764124E+000 -0.187116E+000  0.000000E+000
 0.716949E+000 -0.174540E+000  0.000000E+000
 0.669773E+000 -0.161963E+000  0.000000E+000
 0.622598E+000 -0.149386E+000  0.000000E+000
 0.575423E+000 -0.136810E+000  0.000000E+000
 0.528248E+000 -0.124233E+000  0.000000E+000
 0.481072E+000 -0.111656E+000  0.000000E+000
 0.433897E+000 -0.990794E-001  0.000000E+000
 0.386722E+000 -0.865027E-001  0.000000E+000
 0.339547E+000 -0.739260E-001  0.000000E+000
 0.292372E+000 -0.613493E-001  0.000000E+000
 0.245196E+000 -0.487726E-001  0.000000E+000
-0.250000E+000  0.100000E+001  0.000000E+000
-0.237423E+000  0.952825E+000  0.000000E+000
-0.224847E+000  0.905650E+000  0.000000E+000
-0.212270E+000  0.858474E+000  0.000000E+000
-0.199693E+000  0.811299E+000  0.000000E+000
-0.187116E+000  0.764124E+000  0.000000E+000
-0.174540E+000  0.716949E+000  0.000000E+000
-0.161963E+000  0.669773E+000  0.000000E+000
-0.149386E+000  0.622598E+000  0.000000E+000
-0.136810E+000  0.575423E+000  0.000000E+000
-0.124233E+000  0.528248E+000  0.000000E+000
-0.111656E+000  0.481072E+000  0.000000E+000
-0.990794E-001  0.433897E+000  0.000000E+000
-0.865027E-001  0.386722E+000  0.000000E+000
-0.739260E-001  0.339547E+000  0.000000E+000
-0.613493E-001  0.292372E+000  0.000000E+000
-0.487726E-001  0.245196E+000  0.000000E+000
 0.100000E+001 -0.187500E+000  0.000000E+000
 0.952956E+000 -0.178074E+000  0.000000E+000
 0.905912E+000 -0.168648E+000  0.000000E+000
 0.858868E+000 -0.159222E+000  0.000000E+000
 0.811824E+000 -0.149796E+000  0.000000E+000
 0.764779E+000 -0.140370E+000  0.000000E+000
 0.717735E+000 -0.130943E+000  0.000000E+000
 0.670691E+000 -0.121517E+000  0.000000E+000
 0.623647E+000 -0.112091E+000  0.000000E+000
 0.576603E+000 -0.102665E+000  0.000000E+000
 0.529559E+000 -0.932391E-001  0.000000E+000
 0.482515E+000 -0.838131E-001  0.000000E+000
 0.435471E+000 -0.743870E-001  0.000000E+000
 0.388426E+000 -0.649609E-001  0.000000E+000
 0.341382E+000 -0.555348E-001  0.000000E+000
 0.294338E+000 -0.461087E-001  0.000000E+000
 0.247294E+000 -0.366826E-001  0.000000E+000
-0.187500E+000  0.100000E+001  0.000000E+000
-0.178074E+000  0.952956E+000  0.000000E+000
-0.168648E+000  0.905912E+000  0.000000E+000
-0.159222E+000  0.858868E+000  0.000000E+000
-0.149796E+000  0.811824E+000  0.000000E+000
-0.140370E+000  0.764779E+000  0.000000E+000
-0.130943E+000  0.717735E+000  0.000000E+000
-0.121517E+000  0.670691E+000  0.000000E+000
-0.112091E+000  0.623647E+000  0.000000E+000
-0.102665E+000  0.576603E+000  0.000000E+000
-0.932391E-001  0.529559E+000  0.000000E+000
-0.838131E-001  0.482515E+000  0.000000E+000
-0.743870E-001  0.435471E+000  0.000000E+000
-0.649609E-001  0.388426E+000  0.000000E+000
-0.555348E-001  0.341382E+000  0.000000E+000
-0.461087E-001  0.294338E+000  0.000000E+000
-0.366826E-001  0.247294E+000  0.000000E+000
 0.100000E+001 -0.125000E+000  0.000000E+000
 0.953050E+000 -0.118719E+000  0.000000E+000
 0.906100E+000 -0.112438E+000  0.000000E+000
 0.859149E+000 -0.106157E+000  0.000000E+000
 0.812199E+000 -0.998761E-001  0.000000E+000
 0.765249E+000 -0.935951E-001  0.000000E+000
 0.718299E+000 -0.873141E-001  0.000000E+000
 0.671348E+000 -0.810331E-001  0.000000E+000
 0.624398E+000 -0.747521E-001  0.000000E+000
 0.577448E+000 -0.684712E-001  0.000000E+000
 0.530498E+000 -0.621902E-001  0.000000E+000
 0.483547E+000 -0.559092E-001  0.000000E+000
 0.436597E+000 -0.496282E-001  0.000000E+000
 0.389647E+000 -0.433472E-001  0.000000E+000
 0.342697E+000 -0.370662E-001  0.000000E+000
 0.295746E+000 -0.307853E-001  0.000000E+000
 0.248796E+000 -0.245043E-001  0.000000E+000
-0.125000E+000  0.100000E+001  0.000000E+000
-0.118719E+000  0.953050E+000  0.000000E+000
-0.112438E+000  0.906100E+000  0.000000E+000
-0.106157E+000  0.859149E+000  0.000000E+000
-0.998761E-001  0.812199E+000  0.000000E+000
-0.935951E-001  0.765249E+000  0.000000E+000
-0.873141E-001  0.718299E+000  0.000000E+000
-0.810331E-001  0.671348E+000  0.000000E+000
-0.747521E-001  0.624398E+000  0.000000E+000
-0.684712E-001  0.577448E+000  0.000000E+000
-0.621902E-001  0.530498E+000  0.000000E+000
-0.559092E-001  0.483547E+000  0.000000E+000
-0.496282E-001  0.436597E+000  0.000000E+000
-0.433472E-001  0.389647E+000  0.000000E+000
-0.370662E-001  0.342697E+000  0.000000E+000
-0.307853E-001  0.295746E+000  0.000000E+000
-0.245043E-001  0.248796E+000  0.000000E+000
 0.100000E+001 -0.625000E-001  0.000000E+000
 0.953106E+000 -0.593604E-001  0.000000E+000
 0.906212E+000 -0.562209E-001  0.000000E+000
 0.859319E+000 -0.530813E-001  0.000000E+000
 0.812425E+000 -0.499417E-001  0.000000E+000
 0.765531E+000 -0.468022E-001  0.000000E+000
 0.718637E+000 -0.436626E-001  0.000000E+000
 0.671743E+000 -0.405230E-001  0.000000E+000
 0.624849E+000 -0.373835E-001  0.000000E+000
 0.577956E+000 -0.342439E-001  0.000000E+000
 0.531062E+000 -0.311043E-001  0.000000E+000
 0.484168E+000 -0.279648E-001  0.000000E+000
 0.437274E+000 -0.248252E-001  0.000000E+000
 0.390380E+000 -0.216856E-001  0.000000E+000
 0.343487E+000 -0.185461E-001  0.000000E+000
 0.296593E+000 -0.154065E-001  0.000000E+000
 0.249699E+000 -0.122669E-001  0.000000E+000
-0.625000E-001  0.100000E+001  0.000000E+000
-0.593604E-001  0.953106E+000  0.000000E+000
-0.562209E-001  0.906212E+000  0.000000E+000
-0.530813E-001  0.859319E+000  0.000000E+000
-0.499417E-001  0.812425E+000  0.000000E+000
-0.468022E-001  0.765531E+000  0.000000E+000
-0.436626E-001  0.718637E+000  0.000000E+000
-0.405230E-001  0.671743E+000  0.000000E+000
-0.373835E-001  0.624849E+000  0.000000E+000
-0.342439E-001  0.577956E+000  0.000000E+000
-0.311043E-001  0.531062E+000  0.000000E+000
-0.279648E-001  0.484168E+000  0.000000E+000
-0.248252E-001  0.437274E+000  0.000000E+000
-0.216856E-001  0.390380E+000  0.000000E+000
-0.185461E-001  0.343487E+000  0.000000E+000
-0.154065E-001  0.296593E+000  0.000000E+000
-0.122669E-001  0.249699E+000  0.000000E+000
 0.100000E+001  0.000000E+000  0.000000E+000
 0.953125E+000 -0.382702E-017  0.000000E+000
 0.906250E+000 -0.765404E-017  0.000000E+000
 0.859375E+000 -0.114811E-016  0.000000E+000
 0.812500E+000 -0.153081E-016  0.000000E+000
 0.765625E+000 -0.191351E-016  0.000000E+000
 0.718750E+000 -0.229621E-016  0.000000E+000
 0.671875E+000 -0.267891E-016  0.000000E+000
 0.625000E+000 -0.306162E-016  0.000000E+000
 0.578125E+000 -0.344432E-016  0.000000E+000
 0.531250E+000 -0.382702E-016  0.000000E+000
 0.484375E+000 -0.420972E-016  0.000000E+000
 0.437500E+000 -0.459243E-016  0.000000E+000
 0.390625E+000 -0.497513E-016  0.000000E+000
 0.343750E+000 -0.535783E-016  0.000000E+000
 0.296875E+000 -0.574053E-016  0.000000E+000
 0.250000E+000 -0.612323E-016  0.000000E+000
 0.000000E+000  0.100000E+001  0.000000E+000
 0.478378E-017  0.953125E+000  0.000000E+000
 0.956755E-017  0.906250E+000  0.000000E+000
 0.143513E-016  0.859375E+000  0.000000E+000
 0.191351E-016  0.812500E+000  0.000000E+000
 0.239189E-016  0.765625E+000  0.000000E+000
 0.287027E-016  0.718750E+000  0.000000E+000
 0.334864E-016  0.671875E+000  0.000000E+000
 0.382702E-016  0.625000E+000  0.000000E+000
 0.430540E-016  0.578125E+000  0.000000E+000
 0.478378E-016  0.531250E+000  0.000000E+000
 0.526215E-016  0.484375E+000  0.000000E+000
 0.574053E-016  0.437500E+000  0.000000E+000
 0.621891E-016  0.390625E+000  0.000000E+000
 0.669729E-016  0.343750E+000  0.000000E+000
 0.717566E-016  0.296875E+000  0.000000E+000
 0.765404E-016  0.250000E+000  0.000000E+000
 0.100000E+001  0.625000E-001  0.000000E+000
 0.953106E+000  0.593604E-001  0.000000E+000
 0.906212E+000  0.562209E-001  0.000000E+000
 0.859319E+000  0.530813E-001  0.000000E+000
 0.812425E+000  0.499417E-001  0.000000E+000
 0.765531E+000  0.468022E-001  0.000000E+000
 0.718637E+000  0.436626E-001  0.000000E+000
 0.671743E+000  0.405230E-001  0.000000E+000
 0.624849E+000  0.373835E-001  0.000000E+000
 0.577956E+000  0.342439E-001  0.000000E+000
 0.531062E+000  0.311043E-001  0.000000E+000
 0.484168E+000  0.279648E-001  0.000000E+000
 0.437274E+000  0.248252E-001  0.000000E+000
 0.390380E+000  0.216856E-001  0.000000E+000
 0.343487E+000  0.185461E-001  0.000000E+000
 0.296593E+000  0.154065E-001  0.000000E+000
 0.249699E+000  0.122669E-001  0.000000E+000
 0.625000E-001  0.100000E+001  0.000000E+000
 0.593604E-001  0.953106E+000  0.000000E+000
 0.562209E-001  0.906212E+000  0.000000E+000
 0.530813E-001  0.859319E+000  0.000000E+000
 0.499417E-001  0.812425E+000  0.000000E+000
 0.468022E-001  0.765531E+000  0.000000E+000
 0.436626E-001  0.718637E+000  0.000000E+000
 0.405230E-001  0.671743E+000  0.000000E+000
 0.373835E-001  0.624849E+000  0.000000E+000
 0.342439E-001  0.577956E+000  0.000000E+000
 0.311043E-001  0.531062E+000  0.000000E+000
 0.279648E-001  0.484168E+000  0.000000E+000
 0.248252E-001  0.437274E+000  0.000000E+000
 0.216856E-001  0.390380E+000  0.000000E+000
 0.185461E-001  0.343487E+000  0.000000E+000
 0.154065E-001  0.296593E+000  0.000000E+000
 0.122669E-001  0.249699E+000  0.000000E+000
 0.100000E+001  0.125000E+000  0.000000E+000
 0.953050E+000  0.118719E+000  0.000000E+000
 0.906100E+000  0.112438E+000  0.000000E+000
 0.859149E+000  0.106157E+000  0.000000E+000
 0.812199E+000  0.998761E-001  0.000000E+000
 0.765249E+000  0.935951E-001  0.000000E+000
 0.718299E+000  0.873141E-001  0.000000E+000
 0.671348E+000  0.810331E-001  0.000000E+000
 0.624398E+000  0.747521E-001  0.000000E+000
 0.577448E+000  0.684712E-001  0.000000E+000
 0.530498E+000  0.621902E-001  0.000000E+000
 0.483547E+000  0.559092E-001  0.000000E+000
 0.436597E+000  0.496282E-001  0.000000E+000
 0.389647E+000  0.433472E-001  0.000000E+000
 0.342697E+000  0.370662E-001  0.000000E+000
 0.295746E+000  0.307853E-001  0.000000E+000
 0.248796E+000  0.245043E-001  0.000000E+000
 0.125000E+000  0.100000E+001  0.000000E+000
 0.118719E+000  0.953050E+000  0.000000E+000
 0.112438E+000  0.906100E+000  0.000000E+000
 0.106157E+000  0.859149E+000  0.000000E+000
 0.998761E-001  0.812199E+000  0.000000E+000
 0.935951E-001  0.765249E+000  0.000000E+000
 0.873141E-001  0.718299E+000  0.000000E+000
 0.810331E-001  0.671348E+000  0.000000E+000
 0.747521E-001  0.624398E+000  0.000000E+000
 0.684712E-001  0.577448E+000  0.000000E+000
 0.621902E-001  0.530498E+000  0.000000E+000
 0.559092E-001  0.483547E+000  0.000000E+000
 0.496282E-001  0.436597E+000  0.000000E+000
 0.433472E-001  0.389647E+000  0.000000E+000
 0.370662E-001  0.342697E+000  0.000000E+000
 0.307853E-001  0.295746E+000  0.000000E+000
 0.245043E-001  0.248796E+000  0.000000E+000
 0.100000E+001  0.187500E+000  0.000000E+000
 0.952956E+000  0.178074E+000  0.000000E+000
 0.905912E+000  0.168648E+000  0.000000E+000
 0.858868E+000  0.159222E+000  0.000000E+000
 0.811824E+000  0.149796E+000  0.000000E+000
 0.764779E+000  0.140370E+000  0.000000E+000
 0.717735E+000  0.130943E+000  0.000000E+000
 0.670691E+000  0.121517E+000  0.000000E+000
 0.623647E+000  0.112091E+000  0.000000E+000
 0.576603E+000  0.102665E+000  0.000000E+000
 0.529559E+000  0.932391E-001  0.000000E+000
 0.482515E+000  0.838131E-001  0.000000E+000
 0.435471E+000  0.743870E-001  0.000000E+000
 0.388426E+000  0.649609E-001  0.000000E+000
 0.341382E+000  0.555348E-001  0.000000E+000
 0.294338E+000  0.461087E-001  0.000000E+000
 0.247294E+000  0.366826E-001  0.000000E+000
 0.187500E+000  0.100000E+001  0.000000E+000
 0.178074E+000  0.952956E+000  0.000000E+000
 0.168648E+000  0.905912E+000  0.000000E+000
 0.159222E+000  0.858868E+000  0.000000E+000
 0.149796E+000  0.811824E+000  0.000000E+000
 0.140370E+000  0.764779E+000  0.000000E+000
 0.130943E+000  0.717735E+000  0.000000E+000
 0.121517E+000  0.670691E+000  0.000000E+000
 0.112091E+000  0.623647E+000  0.000000E+000
 0.102665E+000  0.576603E+000  0.000000E+000
 0.932391E-001  0.529559E+000  0.000000E+000
 0.838131E-001  0.482515E+000  0.000000E+000
 0.743870E-001  0.435471E+000  0.000000E+000
 0.649609E-001  0.388426E+000  0.000000E+000
 0.555348E-001  0.341382E+000  0.000000E+000
 0.461087E-001  0.294338E+000  0.000000E+000
 0.366826E-001  0.247294E+000  0.000000E+000
 0.100000E+001  0.250000E+000  0.000000E+000
 0.952825E+000  0.237423E+000  0.000000E+000
 0.905650E+000  0.224847E+000  0.000000E+000
 0.858474E+000  0.212270E+000  0.000000E+000
 0.811299E+000  0.199693E+000  0.000000E+000
 0.764124E+000  0.187116E+000  0.000000E+000
 0.716949E+000  0.174540E+000  0.000000E+000
 0.669773E+000  0.161963E+000  0.000000E+000
 0.622598E+000  0.149386E+000  0.000000E+000
 0.575423E+000  0.136810E+000  0.000000E+000
 0.528248E+000  0.124233E+000  0.000000E+000
 0.481072E+000  0.111656E+000  0.000000E+000
 0.433897E+000  0.990794E-001  0.000000E+000
 0.386722E+000  0.865027E-001  0.000000E+000
 0.339547E+000  0.739260E-001  0.000000E+000
 0.292372E+000  0.613493E-001  0.000000E+000
 0.245196E+000  0.487726E-001  0.000000E+000
 0.250000E+000  0.100000E+001  0.000000E+000
 0.237423E+000  0.952825E+000  0.000000E+000
 0.224847E+000  0.905650E+000  0.000000E+000
 0.212270E+000  0.858474E+000  0.000000E+000
 0.199693E+000  0.811299E+000  0.000000E+000
 0.187116E+000  0.764124E+000  0.000000E+000
 0.174540E+000  0.716949E+000  0.000000E+000
 0.161963E+000  0.669773E+000  0.000000E+000
 0.149386E+000  0.622598E+000  0.000000E+000
 0.136810E+000  0.575423E+000  0.000000E+000
 0.124233E+000  0.528248E+000  0.000000E+000
 0.111656E+000  0.481072E+000  0.000000E+000
 0.990794E-001  0.433897E+000  0.000000E+000
 0.865027E-001  0.386722E+000  0.000000E+000
 0.739260E-001  0.339547E+000  0.000000E+000
 0.613493E-001  0.292372E+000  0.000000E+000
 0.487726E-001  0.245196E+000  0.000000E+000
 0.100000E+001  0.312500E+000  0.000000E+000
 0.952657E+000  0.296765E+000  0.000000E+000
 0.905313E+000  0.281031E+000  0.000000E+000
 0.857970E+000  0.265296E+000  0.000000E+000
 0.810627E+000  0.249561E+000  0.000000E+000
 0.763284E+000  0.233827E+000  0.000000E+000
 0.715940E+000  0.218092E+000  0.000000E+000
 0.668597E+000  0.202357E+000  0.000000E+000
 0.621254E+000  0.186623E+000  0.000000E+000
 0.573911E+000  0.170888E+000  0.000000E+000
 0.526567E+000  0.155153E+000  0.000000E+000
 0.479224E+000  0.139418E+000  0.000000E+000
 0.431881E+000  0.123684E+000  0.000000E+000
 0.384538E+000  0.107949E+000  0.000000E+000
 0.337194E+000  0.922144E-001  0.000000E+000
 0.289851E+000  0.764797E-001  0.000000E+000
 0.242508E+000  0.607450E-001  0.000000E+000
 0.312500E+000  0.100000E+001  0.000000E+000
 0.296765E+000  0.952657E+000  0.000000E+000
 0.281031E+000  0.905313E+000  0.000000E+000
 0.265296E+000  0.857970E+000  0.000000E+000
 0.249561E+000  0.810627E+000  0.000000E+000
 0.233827E+000  0.763284E+000  0.000000E+000
 0.218092E+000  0.715940E+000  0.000000E+000
 0.202357E+000  0.668597E+000  0.000000E+000
 0.186623E+000  0.621254E+000  0.000000E+000
 0.170888E+000  0.573911E+000  0.000000E+000
 0.155153E+000  0.526567E+000  0.000000E+000
 0.139418E+000  0.479224E+000  0.000000E+000
 0.123684E+000  0.431881E+000  0.000000E+000
 0.107949E+000  0.384538E+000  0.000000E+000
 0.922144E-001  0.337194E+000  0.000000E+000
 0.764797E-001  0.289851E+000  0.000000E+000
 0.607450E-001  0.242508E+000  0.000000E+000
 0.100000E+001  0.375000E+000  0.000000E+000
 0.952452E+000  0.356098E+000  0.000000E+000
 0.904904E+000  0.337196E+000  0.000000E+000
 0.857357E+000  0.318295E+000  0.000000E+000
 0.809809E+000  0.299393E+000  0.000000E+000
 0.762261E+000  0.280491E+000  0.000000E+000
 0.714713E+000  0.261589E+000  0.000000E+000
 0.667165E+000  0.242687E+000  0.000000E+000
 0.619618E+000  0.223786E+000  0.000000E+000
 0.572070E+000  0.204884E+000  0.000000E+000
 0.524522E+000  0.185982E+000  0.000000E+000
 0.476974E+000  0.167080E+000  0.000000E+000
 0.429426E+000  0.148178E+000  0.000000E+000
 0.381879E+000  0.129277E+000  0.000000E+000
 0.334331E+000  0.110375E+000  0.000000E+000
 0.286783E+000  0.914730E-001  0.000000E+000
 0.239235E+000  0.725712E-001  0.000000E+000
 0.375000E+000  0.100000E+001  0.000000E+000
 0.356098E+000  0.952452E+000  0.000000E+000
 0.337196E+000  0.904904E+000  0.000000E+000
 0.318295E+000  0.857357E+000  0.000000E+000
 0.299393E+000  0.809809E+000  0.000000E+000
 0.280491E+000  0.762261E+000  0.000000E+000
 0.261589E+000  0.714713E+000  0.000000E+000
 0.242687E+000  0.667165E+000  0.000000E+000
 0.223786E+000  0.619618E+000  0.000000E+000
 0.204884E+000  0.572070E+000  0.000000E+000
 0.185982E+000  0.524522E+000  0.000000E+000
 0.167080E+000  0.476974E+000  0.000000E+000
 0.148178E+000  0.429426E+000  0.000000E+000
 0.129277E+000  0.381879E+000  0.000000E+000
 0.110375E+000  0.334331E+000  0.000000E+000
 0.914730E-001  0.286783E+000  0.000000E+000
 0.725712E-001  0.239235E+000  0.000000E+000
 0.100000E+001  0.437500E+000  0.000000E+000
 0.952212E+000  0.415420E+000  0.000000E+000
 0.904423E+000  0.393340E+000  0.000000E+000
 0.856635E+000  0.371260E+000  0.000000E+000
 0.808847E+000  0.349181E+000  0.000000E+000
 0.761058E+000  0.327101E+000  0.000000E+000
 0.713270E+000  0.305021E+000  0.000000E+000
 0.665481E+000  0.282941E+000  0.000000E+000
 0.617693E+000  0.260861E+000  0.000000E+000
 0.569905E+000  0.238781E+000  0.000000E+000
 0.522116E+000  0.216702E+000  0.000000E+000
 0.474328E+000  0.194622E+000  0.000000E+000
 0.426540E+000  0.172542E+000  0.000000E+000
 0.378751E+000  0.150462E+000  0.000000E+000
 0.330963E+000  0.128382E+000  0.000000E+000
 0.283174E+000  0.106302E+000  0.000000E+000
 0.235386E+000  0.842225E-001  0.000000E+000
 0.437500E+000  0.100000E+001  0.000000E+000
 0.415420E+000  0.952212E+000  0.000000E+000
 0.393340E+000  0.904423E+000  0.000000E+000
 0.371260E+000  0.856635E+000  0.000000E+000
 0.349181E+000  0.808847E+000  0.000000E+000
 0.327101E+000  0.761058E+000  0.000000E+000
 0.305021E+000  0.713270E+000  0.000000E+000
 0.282941E+000  0.665481E+000  0.000000E+000
 0.260861E+000  0.617693E+000  0.000000E+000
 0.238781E+000  0.569905E+000  0.000000E+000
 0.216702E+000  0.522116E+000  0.000000E+000
 0.194622E+000  0.474328E+000  0.000000E+000
 0.172542E+000  0.426540E+000  0.000000E+000
 0.150462E+000  0.378751E+000  0.000000E+000
 0.128382E+000  0.330963E+000  0.000000E+000
 0.106302E+000  0.283174E+000  0.000000E+000
 0.842225E-001  0.235386E+000  0.000000E+000
 0.100000E+001  0.500000E+000  0.000000E+000
 0.951936E+000  0.474729E+000  0.000000E+000
 0.903871E+000  0.449459E+000  0.000000E+000
 0.855807E+000  0.424188E+000  0.000000E+000
 0.807742E+000  0.398918E+000  0.000000E+000
 0.759678E+000  0.373647E+000  0.000000E+000
 0.711614E+000  0.348377E+000  0.000000E+000
 0.663549E+000  0.323106E+000  0.000000E+000
 0.615485E+000  0.297835E+000  0.000000E+000
 0.567421E+000  0.272565E+000  0.000000E+000
 0.519356E+000  0.247294E+000  0.000000E+000
 0.471292E+000  0.222024E+000  0.000000E+000
 0.423227E+000  0.196753E+000  0.000000E+000
 0.375163E+000  0.171483E+000  0.000000E+000
 0.327099E+000  0.146212E+000  0.000000E+000
 0.279034E+000  0.120941E+000  0.000000E+000
 0.230970E+000  0.956709E-001  0.000000E+000
 0.500000E+000  0.100000E+001  0.000000E+000
 0.474729E+000  0.951936E+000  0.000000E+000
 0.449459E+000  0.903871E+000  0.000000E+000
 0.424188E+000  0.855807E+000  0.000000E+000
 0.398918E+000  0.807742E+000  0.000000E+000
 0.373647E+000  0.759678E+000  0.000000E+000
 0.348377E+000  0.711614E+000  0.000000E+000
 0.323106E+000  0.663549E+000  0.000000E+000
 0.297835E+000  0.615485E+000  0.000000E+000
 0.272565E+000  0.567421E+000  0.000000E+000
 0.247294E+000  0.519356E+000  0.000000E+000
 0.222024E+000  0.471292E+000  0.000000E+000
 0.196753E+000  0.423227E+000  0.000000E+000
 0.171483E+000  0.375163E+000  0.000000E+000
 0.146212E+000  0.327099E+000  0.000000E+000
 0.120941E+000  0.279034E+000  0.000000E+000
 0.956709E-001  0.230970E+000  0.000000E+000
 0.100000E+001  0.562500E+000  0.000000E+000
 0.951625E+000  0.534024E+000  0.000000E+000
 0.903250E+000  0.505549E+000  0.000000E+000
 0.854874E+000  0.477073E+000  0.000000E+000
 0.806499E+000  0.448597E+000  0.000000E+000
 0.758124E+000  0.420121E+000  0.000000E+000
 0.709749E+000  0.391646E+000  0.000000E+000
 0.661374E+000  0.363170E+000  0.000000E+000
 0.612999E+000  0.334694E+000  0.000000E+000
 0.564623E+000  0.306219E+000  0.000000E+000
 0.516248E+000  0.277743E+000  0.000000E+000
 0.467873E+000  0.249267E+000  0.000000E+000
 0.419498E+000  0.220792E+000  0.000000E+000
 0.371123E+000  0.192316E+000  0.000000E+000
 0.322748E+000  0.163840E+000  0.000000E+000
 0.274372E+000  0.135364E+000  0.000000E+000
 0.225997E+000  0.106889E+000  0.000000E+000
 0.562500E+000  0.100000E+001  0.000000E+000
 0.534024E+000  0.951625E+000  0.000000E+000
 0.505549E+000  0.903250E+000  0.000000E+000
 0.477073E+000  0.854874E+000  0.000000E+000
 0.448597E+000  0.806499E+000  0.000000E+000
 0.420121E+000  0.758124E+000  0.000000E+000
 0.391646E+000  0.709749E+000  0.000000E+000
 0.363170E+000  0.661374E+000  0.000000E+000
 0.334694E+000  0.612999E+000  0.000000E+000
 0.306219E+000  0.564623E+000  0.000000E+000
 0.277743E+000  0.516248E+000  0.000000E+000
 0.249267E+000  0.467873E+000  0.000000E+000
 0.220792E+000  0.419498E+000  0.000000E+000
 0.192316E+000  0.371123E+000  0.000000E+000
 0.163840E+000  0.322748E+000  0.000000E+000
 0.135364E+000  0.274372E+000  0.000000E+000
 0.106889E+000  0.225997E+000  0.000000E+000
 0.100000E+001  0.625000E+000  0.000000E+000
 0.951280E+000  0.593303E+000  0.000000E+000
 0.902560E+000  0.561606E+000  0.000000E+000
 0.853840E+000  0.529909E+000  0.000000E+000
 0.805120E+000  0.498212E+000  0.000000E+000
 0.756400E+000  0.466515E+000  0.000000E+000
 0.707680E+000  0.434818E+000  0.000000E+000
 0.658960E+000  0.403122E+000  0.000000E+000
 0.610240E+000  0.371425E+000  0.000000E+000
 0.561520E+000  0.339728E+000  0.000000E+000
 0.512800E+000  0.308031E+000  0.000000E+000
 0.464080E+000  0.276334E+000  0.000000E+000
 0.415360E+000  0.244637E+000  0.000000E+000
 0.366640E+000  0.212940E+000  0.000000E+000
 0.317920E+000  0.181243E+000  0.000000E+000
 0.269200E+000  0.149546E+000  0.000000E+000
 0.220480E+000  0.117849E+000  0.000000E+000
 0.625000E+000  0.100000E+001  0.000000E+000
 0.593303E+000  0.951280E+000  0.000000E+000
 0.561606E+000  0.902560E+000  0.000000E+000
 0.529909E+000  0.853840E+000  0.000000E+000
 0.498212E+000  0.805120E+000  0.000000E+000
 0.466515E+000  0.756400E+000  0.000000E+000
 0.434818E+000  0.707680E+000  0.000000E+000
 0.403122E+000  0.658960E+000  0.000000E+000
 0.371425E+000  0.610240E+000  0.000000E+000
 0.339728E+000  0.561520E+000  0.000000E+000
 0.308031E+000  0.512800E+000  0.000000E+000
 0.276334E+000  0.464080E+000  0.000000E+000
 0.244637E+000  0.415360E+000  0.000000E+000
 0.212940E+000  0.366640E+000  0.000000E+000
 0.181243E+000  0.317920E+000  0.000000E+000
 0.149546E+000  0.269200E+000  0.000000E+000
 0.117849E+000  0.220480E+000  0.000000E+000
 0.100000E+001  0.687500E+000  0.000000E+000
 0.950902E+000  0.652564E+000  0.000000E+000
 0.901804E+000  0.617628E+000  0.000000E+000
 0.852706E+000  0.582692E+000  0.000000E+000
 0.803608E+000  0.547756E+000  0.000000E+000
 0.754510E+000  0.512821E+000  0.000000E+000
 0.705412E+000  0.477885E+000  0.000000E+000
 0.656314E+000  0.442949E+000  0.000000E+000
 0.607216E+000  0.408013E+000  0.000000E+000
 0.558118E+000  0.373077E+000  0.000000E+000
 0.509020E+000  0.338141E+000  0.000000E+000
 0.459922E+000  0.303205E+000  0.000000E+000
 0.410824E+000  0.268269E+000  0.000000E+000
 0.361726E+000  0.233333E+000  0.000000E+000
 0.312628E+000  0.198397E+000  0.000000E+000
 0.263530E+000  0.163462E+000  0.000000E+000
 0.214432E+000  0.128526E+000  0.000000E+000
 0.687500E+000  0.100000E+001  0.000000E+000
 0.652564E+000  0.950902E+000  0.000000E+000
 0.617628E+000  0.901804E+000  0.000000E+000
 0.582692E+000  0.852706E+000  0.000000E+000
 0.547756E+000  0.803608E+000  0.000000E+000
 0.512821E+000  0.754510E+000  0.000000E+000
 0.477885E+000  0.705412E+000  0.000000E+000
 0.442949E+000  0.656314E+000  0.000000E+000
 0.408013E+000  0.607216E+000  0.000000E+000
 0.373077E+000  0.558118E+000  0.000000E+000
 0.338141E+000  0.509020E+000  0.000000E+000
 0.303205E+000  0.459922E+000  0.000000E+000
 0.268269E+000  0.410824E+000  0.000000E+000
 0.233333E+000  0.361726E+000  0.000000E+000
 0.198397E+000  0.312628E+000  0.000000E+000
 0.163462E+000  0.263530E+000  0.000000E+000
 0.128526E+000  0.214432E+000  0.000000E+000
 0.100000E+001  0.750000E+000  0.000000E+000
 0.950492E+000  0.711806E+000  0.000000E+000
 0.900983E+000  0.673612E+000  0.000000E+000
 0.851475E+000  0.635417E+000  0.000000E+000
 0.801967E+000  0.597223E+000  0.000000E+000
 0.752459E+000  0.559029E+000  0.000000E+000
 0.702950E+000  0.520835E+000  0.000000E+000
 0.653442E+000  0.482640E+000  0.000000E+000
 0.603934E+000  0.444446E+000  0.000000E+000
 0.554425E+000  0.406252E+000  0.000000E+000
 0.504917E+000  0.368058E+000  0.000000E+000
 0.455409E+000  0.329864E+000  0.000000E+000
 0.405901E+000  0.291669E+000  0.000000E+000
 0.356392E+000  0.253475E+000  0.000000E+000
 0.306884E+000  0.215281E+000  0.000000E+000
 0.257376E+000  0.177087E+000  0.000000E+000
 0.207867E+000  0.138893E+000  0.000000E+000
 0.750000E+000  0.100000E+001  0.000000E+000
 0.711806E+000  0.950492E+000  0.000000E+000
 0.673612E+000  0.900983E+000  0.000000E+000
 0.635417E+000  0.851475E+000  0.000000E+000
 0.597223E+000  0.801967E+000  0.000000E+000
 0.559029E+000  0.752459E+000  0.000000E+000
 0.520835E+000  0.702950E+000  0.000000E+000
 0.482640E+000  0.653442E+000  0.000000E+000
 0.444446E+000  0.603934E+000  0.000000E+000
 0.406252E+000  0.554425E+000  0.000000E+000
 0.368058E+000  0.504917E+000  0.000000E+000
 0.329864E+000  0.455409E+000  0.000000E+000
 0.291669E+000  0.405901E+000  0.000000E+000
 0.253475E+000  0.356392E+000  0.000000E+000
 0.215281E+000  0.306884E+000  0.000000E+000
 0.177087E+000  0.257376E+000  0.000000E+000
 0.138893E+000  0.207867E+000  0.000000E+000
 0.100000E+001  0.812500E+000  0.000000E+000
 0.950050E+000  0.771027E+000  0.000000E+000
 0.900100E+000  0.729553E+000  0.000000E+000
 0.850150E+000  0.688080E+000  0.000000E+000
 0.800200E+000  0.646606E+000  0.000000E+000
 0.750251E+000  0.605133E+000  0.000000E+000
 0.700301E+000  0.563659E+000  0.000000E+000
 0.650351E+000  0.522186E+000  0.000000E+000
 0.600401E+000  0.480712E+000  0.000000E+000
 0.550451E+000  0.439239E+000  0.000000E+000
 0.500501E+000  0.397766E+000  0.000000E+000
 0.450551E+000  0.356292E+000  0.000000E+000
 0.400601E+000  0.314819E+000  0.000000E+000
 0.350652E+000  0.273345E+000  0.000000E+000
 0.300702E+000  0.231872E+000  0.000000E+000
 0.250752E+000  0.190398E+000  0.000000E+000
 0.200802E+000  0.148925E+000  0.000000E+000
 0.812500E+000  0.100000E+001  0.000000E+000
 0.771027E+000  0.950050E+000  0.000000E+000
 0.729553E+000  0.900100E+000  0.000000E+000
 0.688080E+000  0.850150E+000  0.000000E+000
 0.646606E+000  0.800200E+000  0.000000E+000
 0.605133E+000  0.750251E+000  0.000000E+000
 0.563659E+000  0.700301E+000  0.000000E+000
 0.522186E+000  0.650351E+000  0.000000E+000
 0.480712E+000  0.600401E+000  0.000000E+000
 0.439239E+000  0.550451E+000  0.000000E+000
 0.397766E+000  0.500501E+000  0.000000E+000
 0.356292E+000  0.450551E+000  0.000000E+000
 0.314819E+000  0.400601E+000  0.000000E+000
 0.273345E+000  0.350652E+000  0.000000E+000
 0.231872E+000  0.300702E+000  0.000000E+000
 0.190398E+000  0.250752E+000  0.000000E+000
 0.148925E+000  0.200802E+000  0.000000E+000
 0.100000E+001  0.875000E+000  0.000000E+000
 0.949578E+000  0.830225E+000  0.000000E+000
 0.899157E+000  0.785450E+000  0.000000E+000
 0.848735E+000  0.740675E+000  0.000000E+000
 0.798313E+000  0.695900E+000  0.000000E+000
 0.747891E+000  0.651124E+000  0.000000E+000
 0.697470E+000  0.606349E+000  0.000000E+000
 0.647048E+000  0.561574E+000  0.000000E+000
 0.596626E+000  0.516799E+000  0.000000E+000
 0.546205E+000  0.472024E+000  0.000000E+000
 0.495783E+000  0.427249E+000  0.000000E+000
 0.445361E+000  0.382474E+000  0.000000E+000
 0.394939E+000  0.337699E+000  0.000000E+000
 0.344518E+000  0.292924E+000  0.000000E+000
 0.294096E+000  0.248149E+000  0.000000E+000
 0.243674E+000  0.203373E+000  0.000000E+000
 0.193253E+000  0.158598E+000  0.000000E+000
 0.875000E+000  0.100000E+001  0.000000E+000
 0.830225E+000  0.949578E+000  0.000000E+000
 0.785450E+000  0.899157E+000  0.000000E+000
 0.740675E+000  0.848735E+000  0.000000E+000
 0.695900E+000  0.798313E+000  0.000000E+000
 0.651124E+000  0.747891E+000  0.000000E+000
 0.606349E+000  0.697470E+000  0.000000E+000
 0.561574E+000  0.647048E+000  0.000000E+000
 0.516799E+000  0.596626E+000  0.000000E+000
 0.472024E+000  0.546205E+000  0.000000E+000
 0.427249E+000  0.495783E+000  0.000000E+000
 0.382474E+000  0.445361E+000  0.000000E+000
 0.337699E+000  0.394939E+000  0.000000E+000
 0.292924E+000  0.344518E+000  0.000000E+000
 0.248149E+000  0.294096E+000  0.000000E+000
 0.203373E+000  0.243674E+000  0.000000E+000
 0.158598E+000  0.193253E+000  0.000000E+000
 0.100000E+001  0.937500E+000  0.000000E+000
 0.949077E+000  0.889399E+000  0.000000E+000
 0.898155E+000  0.841299E+000  0.000000E+000
 0.847232E+000  0.793198E+000  0.000000E+000
 0.796309E+000  0.745097E+000  0.000000E+000
 0.745387E+000  0.696997E+000  0.000000E+000
 0.694464E+000  0.648896E+000  0.000000E+000
 0.643542E+000  0.600796E+000  0.000000E+000
 0.592619E+000  0.552695E+000  0.000000E+000
 0.541696E+000  0.504594E+000  0.000000E+000
 0.490774E+000  0.456494E+000  0.000000E+000
 0.439851E+000  0.408393E+000  0.000000E+000
 0.388928E+000  0.360292E+000  0.000000E+000
 0.338006E+000  0.312192E+000  0.000000E+000
 0.287083E+000  0.264091E+000  0.000000E+000
 0.236160E+000  0.215990E+000  0.000000E+000
 0.185238E+000  0.167890E+000  0.000000E+000
 0.937500E+000  0.100000E+001  0.000000E+000
 0.889399E+000  0.949077E+000  0.000000E+000
 0.841299E+000  0.898155E+000  0.000000E+000
 0.793198E+000  0.847232E+000  0.000000E+000
 0.745097E+000  0.796309E+000  0.000000E+000
 0.696997E+000  0.745387E+000  0.000000E+000
 0.648896E+000  0.694464E+000  0.000000E+000
 0.600796E+000  0.643542E+000  0.000000E+000
 0.552695E+000  0.592619E+000  0.000000E+000
 0.504594E+000  0.541696E+000  0.000000E+000
 0.456494E+000  0.490774E+000  0.000000E+000
 0.408393E+000  0.439851E+000  0.000000E+000
 0.360292E+000  0.388928E+000  0.000000E+000
 0.312192E+000  0.338006E+000  0.000000E+000
 0.264091E+000  0.287083E+000  0.000000E+000
 0.215990E+000  0.236160E+000  0.000000E+000
 0.167890E+000  0.185238E+000  0.000000E+000
 0.100000E+001  0.100000E+001  0.000000E+000
 0.948549E+000  0.948549E+000  0.000000E+000
 0.897097E+000  0.897097E+000  0.000000E+000
 0.845646E+000  0.845646E+000  0.000000E+000
 0.794194E+000  0.794194E+000  0.000000E+000
 0.742743E+000  0.742743E+000  0.000000E+000
 0.691291E+000  0.691291E+000  0.000000E+000
 0.639840E+000  0.639840E+000  0.000000E+000
 0.588388E+000  0.588388E+000  0.000000E+000
 0.536937E+000  0.536937E+000  0.000000E+000
 0.485485E+000  0.485485E+000  0.000000E+000
 0.434034E+000  0.434034E+000  0.000000E+000
 0.382583E+000  0.382583E+000  0.000000E+000
 0.331131E+000  0.331131E+000  0.000000E+000
 0.279680E+000  0.279680E+000  0.000000E+000
 0.228228E+000  0.228228E+000  0.000000E+000
 0.176777E+000  0.176777E+000  0.000000E+000
CELLS  2048 10240
    4    0     1     3     2
    4    2     3     9     8
    4    8     9    19    18
    4   18    19    33    32
    4   32    33    51    50
    4   50    51    73    72
    4   72    73    99    98
    4   98    99   129   128
    4  128   129   163   162
    4  162   163   201   200
    4  200   201   243   242
    4  242   243   289   288
    4  288   289   339   338
    4  338   339   393   392
    4  392   393   451   450
    4  450   451   513   512
    4    1     6     7     3
    4    3     7    11     9
    4    9    11    21    19
    4   19    21    35    33
    4   33    35    53    51
    4   51    53    75    73
    4   73    75   101    99
    4   99   101   131   129
    4  129   131   165   163
    4  163   165   203   201
    4  201   203   245   243
    4  243   245   291   289
    4  289   291   341   339
    4  339   341   395   393
    4  393   395   453   451
    4  451   453   515   513
    4    6    15    16     7
    4    7    16    17    11
    4   11    17    23    21
    4   21    23    37    35
    4   35    37    55    53
    4   53    55    77    75
    4   75    77   103   101
    4  101   103   133   131
    4  131   133   167   165
    4  165   167   205   203
    4  203   205   247   245
    4  245   247   293   291
    4  291   293   343   341
    4  341   343   397   395
    4  395   397   455   453
    4  453   455   517   515
    4   15    28    29    16
    4   16    29    30    17
    4   17    30    31    23
    4   23    31    39    37
    4   37    39    57    55
    4   55    57    79    77
    4   77    79   105   103
    4  103   105   135   133
    4  133   135   169   167
    4  167   169   207   205
    4  205   207   249   247
    4  247   249   295   293
    4  293   295   345   343
    4  343   345   399   397
    4  397   399   457   455
    4  455   457   519   517
    4   28    45    46    29
    4   29    46    47    30
    4   30    47    48    31
    4   31    48    49    39
    4   39    49    59    57
    4   57    59    81    79
    4   79    81   107   105
    4  105   107   137   135
    4  135   137   171   169
    4  169   171   209   207
    4  207   209   251   249
    4  249   251   297   295
    4  295   297   347   345
    4  345   347   401   399
    4  399   401   459   457
    4  457   459   521   519
    4   45    66    67    46
    4   46    67    68    47
    4   47    68    69    48
    4   48    69    70    49
    4   49    70    71    59
    4   59    71    83    81
    4   81    83   109   107
    4  107   109   139   137
    4  137   139   173   171
    4  171   173   211   209
    4  209   211   253   251
    4  251   253   299   297
    4  297   299   349   347
    4  347   349   403   401
    4  401   403   461   459
    4  459   461   523   521
    4   66    91    92    67
    4   67    92    93    68
    4   68    93    94    69
    4   69    94    95    70
    4   70    95    96    71
    4   71    96    97    83
    4   83    97   111   109
    4  109   111   141   139
    4  139   141   175   173
    4  173   175   213   211
    4  211   213   255   253
    4  253   255   301   299
    4  299   301   351   349
    4  349   351   405   403
    4  403   405   463   461
    4  461   463   525   523
    4   91   120   121    92
    4   92   121   122    93
    4   93   122   123    94
    4   94   123   124    95
    4   95   124   125    96
    4   96   125   126    97
    4   97   126   127   111
    4  111   127   143   141
    4  141   143   177   175
    4  175   177   215   213
    4  213   215   257   255
    4  255   257   303   301
    4  301   303   353   351
    4  351   353   407   405
    4  405   407   465   463
    4  463   465   527   525
    4  120   153   154   121
    4  121   154   155   122
    4  122   155   156   123
    4  123   156   157   124
    4  124   157   158   125
    4  125   158   159   126
    4  126   159   160   127
    4  127   160   161   143
    4  143   161   179   177
    4  177   179   217   215
    4  215   217   259   257
    4  257   259   305   303
    4  303   305   355   353
    4  353   355   409   407
    4  407   409   467   465
    4  465   467   529   527
    4  153   190   191   154
    4  154   191   192   155
    4  155   192   193   156
    4  156   193   194   157
    4  157   194   195   158
    4  158   195   196   159
    4  159   196   197   160
    4  160   197   198   161
    4  161   198   199   179
    4  179   199   219   217
    4  217   219   261   259
    4  259   261   307   305
    4  305   307   357   355
    4  355   357   411   409
    4  409   411   469   467
    4  467   469   531   529
    4  190   231   232   191
    4  191   232   233   192
    4  192   233   234   193
    4  193   234   235   194
    4  194   235   236   195
    4  195   236   237   196
    4  196   237   238   197
    4  197   238   239   198
    4  198   239   240   199
    4  199   240   241   219
    4  219   241   263   261
    4  261   263   309   307
    4  307   309   359   357
    4  357   359   413   411
    4  411   413   471   469
    4  469   471   533   531
    4  231   276   277   232
    4  232   277   278   233
    4  233   278   279   234
    4  234   279   280   235
    4  235   280   281   236
    4  236   281   282   237
    4  237   282   283   238
    4  238   283   284   239
    4  239   284   285   240
    4  240   285   286   241
    4  241   286   287   263
    4  263   287   311   309
    4  309   311   361   359
    4  359   361   415   413
    4  413   415   473   471
    4  471   473   535   533
    4  276   325   326   277
    4  277   326   327   278
    4  278   327   328   279
    4  279   328   329   280
    4  280   329   330   281
    4  281   330   331   282
    4  282   331   332   283
    4  283   332   333   284
    4  284   333   334   285
    4  285   334   335   286
    4  286   335   336   287
    4  287   336   337   311
    4  311   337   363   361
    4  361   363   417   415
    4  415   417   475   473
    4  473   475   537   535
    4  325   378   379   326
    4  326   379   380   327
    4  327   380   381   328
    4  328   381   382   329
    4  329   382   383   330
    4  330   383   384   331
    4  331   384   385   332
    4  332   385   386   333
    4  333   386   387   334
    4  334   387   388   335
    4  335   388   389   336
    4  336   389   390   337
    4  337   390   391   363
    4  363   391   419   417
    4  417   419   477   475
    4  475   477   539   537
    4  378   435   436   379
    4  379   436   437   380
    4  380   437   438   381
    4  381   438   439   382
    4  382   439   440   383
    4  383   440   441   384
    4  384   441   442   385
    4  385   442   443   386
    4  386   443   444   387
    4  387   444   445   388
    4  388   445   446   389
    4  389   446   447   390
    4  390   447   448   391
    4  391   448   449   419
    4  419   449   479   477
    4  477   479   541   539
    4  435   496   497   436
    4  436   497   498   437
    4  437   498   499   438
    4  438   499   500   439
    4  439   500   501   440
    4  440   501   502   441
    4  441   502   503   442
    4  442   503   504   443
    4  443   504   505   444
    4  444   505   506   445
    4  445   506   507   446
    4  446   507   508   447
    4  447   508   509   448
    4  448   509   510   449
    4  449   510   511   479
    4  479   511   543   541
    4  496   561   562   497
    4  497   562   563   498
    4  498   563   564   499
    4  499   564   565   500
    4  500   565   566   501
    4  501   566   567   502
    4  502   567   568   503
    4  503   568   569   504
    4  504   569   570   505
    4  505   570   571   506
    4  506   571   572   507
    4  507   572   573   508
    4  508   573   574   509
    4  509   574   575   510
    4  510   575   576   511
    4  511   576   577   543
    4  561   595   596   562
    4  562   596   597   563
    4  563   597   598   564
    4  564   598   599   565
    4  565   599   600   566
    4  566   600   601   567
    4  567   601   602   568
    4  568   602   603   569
    4  569   603   604   570
    4  570   604   605   571
    4  571   605   606   572
    4  572   606   607   573
    4  573   607   608   574
    4  574   608   609   575
    4  575   609   610   576
    4  576   610   611   577
    4  595   629   630   596
    4  596   630   631   597
    4  597   631   632   598
    4  598   632   633   599
    4  599   633   634   600
    4  600   634   635   601
    4  601   635   636   602
    4  602   636   637   603
    4  603   637   638   604
    4  604   638   639   605
    4  605   639   640   606
    4  606   640   641   607
    4  607   641   642   608
    4  608   642   643   609
    4  609   643   644   610
    4  610   644   645   611
    4  629   663   664   630
    4  630   664   665   631
    4  631   665   666   632
    4  632   666   667   633
    4  633   667   668   634
    4  634   668   669   635
    4  635   669   670   636
    4  636   670   671   637
    4  637   671   672   638
    4  638   672   673   639
    4  639   673   674   640
    4  640   674   675   641
    4  641   675   676   642
    4  642   676   677   643
    4  643   677   678   644
    4  644   678   679   645
    4  663   697   698   664
    4  664   698   699   665
    4  665   699   700   666
    4  666   700   701   667
    4  667   701   702   668
    4  668   702   703   669
    4  669   703   704   670
    4  670   704   705   671
    4  671   705   706   672
    4  672   706   707   673
    4  673   707   708   674
    4  674   708   709   675
    4  675   709   710   676
    4  676   710   711   677
    4  677   711   712   678
    4  678   712   713   679
    4  697   731   732   698
    4  698   732   733   699
    4  699   733   734   700
    4  700   734   735   701
    4  701   735   736   702
    4  702   736   737   703
    4  703   737   738   704
    4  704   738   739   705
    4  705   739   740   706
    4  706   740   741   707
    4  707   741   742   708
    4  708   742   743   709
    4  709   743   744   710
    4  710   744   745   711
    4  711   745   746   712
    4  712   746   747   713
    4  731   765   766   732
    4  732   766   767   733
    4  733   767   768   734
    4  734   768   769   735
    4  735   769   770   736
    4  736   770   771   737
    4  737   771   772   738
    4  738   772   773   739
    4  739   773   774   740
    4  740   774   775   741
    4  741   775   776   742
    4  742   776   777   743
    4  743   777   778   744
    4  744   778   779   745
    4  745   779   780   746
    4  746   780   781   747
    4  765   799   800   766
    4  766   800   801   767
    4  767   801   802   768
    4  768   802   803   769
    4  769   803   804   770
    4  770   804   805   771
    4  771   805   806   772
    4  772   806   807   773
    4  773   807   808   774
    4  774   808   809   775
    4  775   809   810   776
    4  776   810   811   777
    4  777   811   812   778
    4  778   812   813   779
    4  779   813   814   780
    4  780   814   815   781
    4  799   833   834   800
    4  800   834   835   801
    4  801   835   836   802
    4  802   836   837   803
    4  803   837   838   804
    4  804   838   839   805
    4  805   839   840   806
    4  806   840   841   807
    4  807   841   842   808
    4  808   842   843   809
    4  809   843   844   810
    4  810   844   845   811
    4  811   845   846   812
    4  812   846   847   813
    4  813   847   848   814
    4  814   848   849   815
    4  833   867   868   834
    4  834   868   869   835
    4  835   869   870   836
    4  836   870   871   837
    4  837   871   872   838
    4  838   872   873   839
    4  839   873   874   840
    4  840   874   875   841
    4  841   875   876   842
    4  842   876   877   843
    4  843   877   878   844
    4  844   878   879   845
    4  845   879   880   846
    4  846   880   881   847
    4  847   881   882   848
    4  848   882   883   849
    4  867   901   902   868
    4  868   902   903   869
    4  869   903   904   870
    4  870   904   905   871
    4  871   905   906   872
    4  872   906   907   873
    4  873   907   908   874
    4  874   908   909   875
    4  875   909   910   876
    4  876   910   911   877
    4  877   911   912   878
    4  878   912   913   879
    4  879   913   914   880
    4  880   914   915   881
    4  881   915   916   882
    4  882   916   917   883
    4  901   935   936   902
    4  902   936   937   903
    4  903   937   938   904
    4  904   938   939   905
    4  905   939   940   906
    4  906   940   941   907
    4  907   941   942   908
    4  908   942   943   909
    4  909   943   944   910
    4  910   944   945   911
    4  911   945   946   912
    4  912   946   947   913
    4  913   947   948   914
    4  914   948   949   915
    4  915   949   950   916
    4  916   950   951   917
    4  935   969   970   936
    4  936   970   971   937
    4  937   971   972   938
    4  938   972   973   939
    4  939   973   974   940
    4  940   974   975   941
    4  941   975   976   942
    4  942   976   977   943
    4  943   977   978   944
    4  944   978   979   945
    4  945   979   980   946
    4  946   980   981   947
    4  947   981   982   948
    4  948   982   983   949
    4  949   983   984   950
    4  950   984   985   951
    4  969  1003  1004   970
    4  970  1004  1005   971
    4  971  1005  1006   972
    4  972  1006  1007   973
    4  973  1007  1008   974
    4  974  1008  1009   975
    4  975  1009  1010   976
    4  976  1010  1011   977
    4  977  1011  1012   978
    4  978  1012  1013   979
    4  979  1013  1014   980
    4  980  1014  1015   981
    4  981  1015  1016   982
    4  982  1016  1017   983
    4  983  1017  1018   984
    4  984  1018  1019   985
    4 1003  1037  1038  1004
    4 1004  1038  1039  1005
    4 1005  1039  1040  1006
    4 1006  1040  1041  1007
    4 1007  1041  1042  1008
    4 1008  1042  1043  1009
    4 1009  1043  1044  1010
    4 1010  1044  1045  1011
    4 1011  1045  1046  1012
    4 1012  1046  1047  1013
    4 1013  1047  1048  1014
    4 1014  1048  1049  1015
    4 1015  1049  1050  1016
    4 1016  1050  1051  1017
    4 1017  1051  1052  1018
    4 1018  1052  1053  1019
    4 1037  1071  1072  1038
    4 1038  1072  1073  1039
    4 1039  1073  1074  1040
    4 1040  1074  1075  1041
    4 1041  1075  1076  1042
    4 1042  1076  1077  1043
    4 1043  1077  1078  1044
    4 1044  1078  1079  1045
    4 1045  1079  1080  1046
    4 1046  1080  1081  1047
    4 1047  1081  1082  1048
    4 1048  1082  1083  1049
    4 1049  1083  1084  1050
    4 1050  1084  1085  1051
    4 1051  1085  1086  1052
    4 1052  1086  1087  1053
    4 1071  1105  1106  1072
    4 1072  1106  1107  1073
    4 1073  1107  1108  1074
    4 1074  1108  1109  1075
    4 1075  1109  1110  1076
    4 1076  1110  1111  1077
    4 1077  1111  1112  1078
    4 1078  1112  1113  1079
    4 1079  1113  1114  1080
    4 1080  1114  1115  1081
    4 1081  1115  1116  1082
    4 1082  1116  1117  1083
    4 1083  1117  1118  1084
    4 1084  1118  1119  1085
    4 1085  1119  1120  1086
    4 1086  1120  1121  1087
    4 1105  1139  1140  1106
    4 1106  1140  1141  1107
    4 1107  1141  1142  1108
    4 1108  1142  1143  1109
    4 1109  1143  1144  1110
    4 1110  1144  1145  1111
    4 1111  1145  1146  1112
    4 1112  1146  1147  1113
    4 1113  1147  1148  1114
    4 1114  1148  1149  1115
    4 1115  1149  1150  1116
    4 1116  1150  1151  1117
    4 1117  1151  1152  1118
    4 1118  1152  1153  1119
    4 1119  1153  1154  1120
    4 1120  1154  1155  1121
    4 1139  1173  1174  1140
    4 1140  1174  1175  1141
    4 1141  1175  1176  1142
    4 1142  1176  1177  1143
    4 1143  1177  1178  1144
    4 1144  1178  1179  1145
    4 1145  1179  1180  1146
    4 1146  1180  1181  1147
    4 1147  1181  1182  1148
    4 1148  1182  1183  1149
    4 1149  1183  1184  1150
    4 1150  1184  1185  1151
    4 1151  1185  1186  1152
    4 1152  1186  1187  1153
    4 1153  1187  1188  1154
    4 1154  1188  1189  1155
    4 1173  1207  1208  1174
    4 1174  1208  1209  1175
    4 1175  1209  1210  1176
    4 1176  1210  1211  1177
    4 1177  1211  1212  1178
    4 1178  1212  1213  1179
    4 1179  1213  1214  1180
    4 1180  1214  1215  1181
    4 1181  1215  1216  1182
    4 1182  1216  1217  1183
    4 1183  1217  1218  1184
    4 1184  1218  1219  1185
    4 1185  1219  1220  1186
    4 1186  1220  1221  1187
    4 1187  1221  1222  1188
    4 1188  1222  1223  1189
    4 1207  1241  1242  1208
    4 1208  1242  1243  1209
    4 1209  1243  1244  1210
    4 1210  1244  1245  1211
    4 1211  1245  1246  1212
    4 1212  1246  1247  1213
    4 1213  1247  1248  1214
    4 1214  1248  1249  1215
    4 1215  1249  1250  1216
    4 1216  1250  1251  1217
    4 1217  1251  1252  1218
    4 1218  1252  1253  1219
    4 1219  1253  1254  1220
    4 1220  1254  1255  1221
    4 1221  1255  1256  1222
    4 1222  1256  1257  1223
    4 1241  1275  1276  1242
    4 1242  1276  1277  1243
    4 1243  1277  1278  1244
    4 1244  1278  1279  1245
    4 1245  1279  1280  1246
    4 1246  1280  1281  1247
    4 1247  1281  1282  1248
    4 1248  1282  1283  1249
    4 1249  1283  1284  1250
    4 1250  1284  1285  1251
    4 1251  1285  1286  1252
    4 1252  1286  1287  1253
    4 1253  1287  1288  1254
    4 1254  1288  1289  1255
    4 1255  1289  1290  1256
    4 1256  1290  1291  1257
    4 1275  1309  1310  1276
    4 1276  1310  1311  1277
    4 1277  1311  1312  1278
    4 1278  1312  1313  1279
    4 1279  1313  1314  1280
    4 1280  1314  1315  1281
    4 1281  1315  1316  1282
    4 1282  1316  1317  1283
    4 1283  1317  1318  1284
    4 1284  1318  1319  1285
    4 1285  1319  1320  1286
    4 1286  1320  1321  1287
    4 1287  1321  1322  1288
    4 1288  1322  1323  1289
    4 1289  1323  1324  1290
    4 1290  1324  1325  1291
    4 1309  1343  1344  1310
    4 1310  1344  1345  1311
    4 1311  1345  1346  1312
    4 1312  1346  1347  1313
    4 1313  1347  1348  1314
    4 1314  1348  1349  1315
    4 1315  1349  1350  1316
    4 1316  1350  1351  1317
    4 1317  1351  1352  1318
    4 1318  1352  1353  1319
    4 1319  1353  1354  1320
    4 1320  1354  1355  1321
    4 1321  1355  1356  1322
    4 1322  1356  1357  1323
    4 1323  1357  1358  1324
    4 1324  1358  1359  1325
    4 1343  1377  1378  1344
    4 1344  1378  1379  1345
    4 1345  1379  1380  1346
    4 1346  1380  1381  1347
    4 1347  1381  1382  1348
    4 1348  1382  1383  1349
    4 1349  1383  1384  1350
    4 1350  1384  1385  1351
    4 1351  1385  1386  1352
    4 1352  1386  1387  1353
    4 1353  1387  1388  1354
    4 1354  1388  1389  1355
    4 1355  1389  1390  1356
    4 1356  1390  1391  1357
    4 1357  1391  1392  1358
    4 1358  1392  1393  1359
    4 1377  1411  1412  1378
    4 1378  1412  1413  1379
    4 1379  1413  1414  1380
    4 1380  1414  1415  1381
    4 1381  1415  1416  1382
    4 1382  1416  1417  1383
    4 1383  1417  1418  1384
    4 1384  1418  1419  1385
    4 1385  1419  1420  1386
    4 1386  1420  1421  1387
    4 1387  1421  1422  1388
    4 1388  1422  1423  1389
    4 1389  1423  1424  1390
    4 1390  1424  1425  1391
    4 1391  1425  1426  1392
    4 1392  1426  1427  1393
    4 1411  1445  1446  1412
    4 1412  1446  1447  1413
    4 1413  1447  1448  1414
    4 1414  1448  1449  1415
    4 1415  1449  1450  1416
    4 1416  1450  1451  1417
    4 1417  1451  1452  1418
    4 1418  1452  1453  1419
    4 1419  1453  1454  1420
    4 1420  1454  1455  1421
    4 1421  1455  1456  1422
    4 1422  1456  1457  1423
    4 1423  1457  1458  1424
    4 1424  1458  1459  1425
    4 1425  1459  1460  1426
    4 1426  1460  1461  1427
    4 1445  1479  1480  1446
    4 1446  1480  1481  1447
    4 1447  1481  1482  1448
    4 1448  1482  1483  1449
    4 1449  1483  1484  1450
    4 1450  1484  1485  1451
    4 1451  1485  1486  1452
    4 1452  1486  1487  1453
    4 1453  1487  1488  1454
    4 1454  1488  1489  1455
    4 1455  1489  1490  1456
    4 1456  1490  1491  1457
    4 1457  1491  1492  1458
    4 1458  1492  1493  1459
    4 1459  1493  1494  1460
    4 1460  1494  1495  1461
    4 1479  1513  1514  1480
    4 1480  1514  1515  1481
    4 1481  1515  1516  1482
    4 1482  1516  1517  1483
    4 1483  1517  1518  1484
    4 1484  1518  1519  1485
    4 1485  1519  1520  1486
    4 1486  1520  1521  1487
    4 1487  1521  1522  1488
    4 1488  1522  1523  1489
    4 1489  1523  1524  1490
    4 1490  1524  1525  1491
    4 1491  1525  1526  1492
    4 1492  1526  1527  1493
    4 1493  1527  1528  1494
    4 1494  1528  1529  1495
    4 1513  1547  1548  1514
    4 1514  1548  1549  1515
    4 1515  1549  1550  1516
    4 1516  1550  1551  1517
    4 1517  1551  1552  1518
    4 1518  1552  1553  1519
    4 1519  1553  1554  1520
    4 1520  1554  1555  1521
    4 1521  1555  1556  1522
    4 1522  1556  1557  1523
    4 1523  1557  1558  1524
    4 1524  1558  1559  1525
    4 1525  1559  1560  1526
    4 1526  1560  1561  1527
    4 1527  1561  1562  1528
    4 1528  1562  1563  1529
    4 1547  1581  1582  1548
    4 1548  1582  1583  1549
    4 1549  1583  1584  1550
    4 1550  1584  1585  1551
    4 1551  1585  1586  1552
    4 1552  1586  1587  1553
    4 1553  1587  1588  1554
    4 1554  1588  1589  1555
    4 1555  1589  1590  1556
    4 1556  1590  1591  1557
    4 1557  1591  1592  1558
    4 1558  1592  1593  1559
    4 1559  1593  1594  1560
    4 1560  1594  1595  1561
    4 1561  1595  1596  1562
    4 1562  1596  1597  1563
    4 1581  1615  1616  1582
    4 1582  1616  1617  1583
    4 1583  1617  1618  1584
    4 1584  1618  1619  1585
    4 1585  1619  1620  1586
    4 1586  1620  1621  1587
    4 1587  1621  1622  1588
    4 1588  1622  1623  1589
    4 1589  1623  1624  1590
    4 1590  1624  1625  1591
    4 1591  1625  1626  1592
    4 1592  1626  1627  1593
    4 1593  1627  1628  1594
    4 1594  1628  1629  1595
    4 1595  1629  1630  1596
    4 1596  1630  1631  1597
    4 1615  1649  1650  1616
    4 1616  1650  1651  1617
    4 1617  1651  1652  1618
    4 1618  1652  1653  1619
    4 1619  1653  1654  1620
    4 1620  1654  1655  1621
    4 1621  1655  1656  1622
    4 1622  1656  1657  1623
    4 1623  1657  1658  1624
    4 1624  1658  1659  1625
    4 1625  1659  1660  1626
    4 1626  1660  1661  1627
    4 1627  1661  1662  1628
    4 1628  1662  1663  1629
    4 1629  1663  1664  1630
    4 1630  1664  1665  1631
    4 1649  1683  1684  1650
    4 1650  1684  1685  1651
    4 1651  1685  1686  1652
    4 1652  1686  1687  1653
    4 1653  1687  1688  1654
    4 1654  1688  1689  1655
    4 1655  1689  1690  1656
    4 1656  1690  1691  1657
    4 1657  1691  1692  1658
    4 1658  1692  1693  1659
    4 1659  1693  1694  1660
    4 1660  1694  1695  1661
    4 1661  1695  1696  1662
    4 1662  1696  1697  1663
    4 1663  1697  1698  1664
    4 1664  1698  1699  1665
    4 1683  1717  1718  1684
    4 1684  1718  1719  1685
    4 1685  1719  1720  1686
    4 1686  1720  1721  1687
    4 1687  1721  1722  1688
    4 1688  1722  1723  1689
    4 1689  1723  1724  1690
    4 1690  1724  1725  1691
    4 1691  1725  1726  1692
    4 1692  1726  1727  1693
    4 1693  1727  1728  1694
    4 1694  1728  1729  1695
    4 1695  1729  1730  1696
    4 1696  1730  1731  1697
    4 1697  1731  1732  1698
    4 1698  1732  1733  1699
    4 1717  1751  1752  1718
    4 1718  1752  1753  1719
    4 1719  1753  1754  1720
    4 1720  1754  1755  1721
    4 1721  1755  1756  1722
    4 1722  1756  1757  1723
    4 1723  1757  1758  1724
    4 1724  1758  1759  1725
    4 1725  1759  1760  1726
    4 1726  1760  1761  1727
    4 1727  1761  1762  1728
    4 1728  1762  1763  1729
    4 1729  1763  1764  1730
    4 1730  1764  1765  1731
    4 1731  1765  1766  1732
    4 1732  1766  1767  1733
    4 1751  1785  1786  1752
    4 1752  1786  1787  1753
    4 1753  1787  1788  1754
    4 1754  1788  1789  1755
    4 1755  1789  1790  1756
    4 1756  1790  1791  1757
    4 1757  1791  1792  1758
    4 1758  1792  1793  1759
    4 1759  1793  1794  1760
    4 1760  1794  1795  1761
    4 1761  1795  1796  1762
    4 1762  1796  1797  1763
    4 1763  1797  1798  1764
    4 1764  1798  1799  1765
    4 1765  1799  1800  1766
    4 1766  1800  1801  1767
    4 1785  1819  1820  1786
    4 1786  1820  1821  1787
    4 1787  1821  1822  1788
    4 1788  1822  1823  1789
    4 1789  1823  1824  1790
    4 1790  1824  1825  1791
    4 1791  1825  1826  1792
    4 1792  1826  1827  1793
    4 1793  1827  1828  1794
    4 1794  1828  1829  1795
    4 1795  1829  1830  1796
    4 1796  1830  1831  1797
    4 1797  1831  1832  1798
    4 1798  1832  1833  1799
    4 1799  1833  1834  1800
    4 1800  1834  1835  1801
    4 1819  1853  1854  1820
    4 1820  1854  1855  1821
    4 1821  1855  1856  1822
    4 1822  1856  1857  1823
    4 1823  1857  1858  1824
    4 1824  1858  1859  1825
    4 1825  1859  1860  1826
    4 1826  1860  1861  1827
    4 1827  1861  1862  1828
    4 1828  1862  1863  1829
    4 1829  1863  1864  1830
    4 1830  1864  1865  1831
    4 1831  1865  1866  1832
    4 1832  1866  1867  1833
    4 1833  1867  1868  1834
    4 1834  1868  1869  1835
    4 1853  1887  1888  1854
    4 1854  1888  1889  1855
    4 1855  1889  1890  1856
    4 1856  1890  1891  1857
    4 1857  1891  1892  1858
    4 1858  1892  1893  1859
    4 1859  1893  1894  1860
    4 1860  1894  1895  1861
    4 1861  1895  1896  1862
    4 1862  1896  1897  1863
    4 1863  1897  1898  1864
    4 1864  1898  1899  1865
    4 1865  1899  1900  1866
    4 1866  1900  1901  1867
    4 1867  1901  1902  1868
    4 1868  1902  1903  1869
    4 1887  1921  1922  1888
    4 1888  1922  1923  1889
    4 1889  1923  1924  1890
    4 1890  1924  1925  1891
    4 1891  1925  1926  1892
    4 1892  1926  1927  1893
    4 1893  1927  1928  1894
    4 1894  1928  1929  1895
    4 1895  1929  1930  1896
    4 1896  1930  1931  1897
    4 1897  1931  1932  1898
    4 1898  1932  1933  1899
    4 1899  1933  1934  1900
    4 1900  1934  1935  1901
    4 1901  1935  1936  1902
    4 1902  1936  1937  1903
    4 1921  1955  1956  1922
    4 1922  1956  1957  1923
    4 1923  1957  1958  1924
    4 1924  1958  1959  1925
    4 1925  1959  1960  1926
    4 1926  1960  1961  1927
    4 1927  1961  1962  1928
    4 1928  1962  1963  1929
    4 1929  1963  1964  1930
    4 1930  1964  1965  1931
    4 1931  1965  1966  1932
    4 1932  1966  1967  1933
    4 1933  1967  1968  1934
    4 1934  1968  1969  1935
    4 1935  1969  1970  1936
    4 1936  1970  1971  1937
    4 1955  1989  1990  1956
    4 1956  1990  1991  1957
    4 1957  1991  1992  1958
    4 1958  1992  1993  1959
    4 1959  1993  1994  1960
    4 1960  1994  1995  1961
    4 1961  1995  1996  1962
    4 1962  1996  1997  1963
    4 1963  1997  1998  1964
    4 1964  1998  1999  1965
    4 1965  1999  2000  1966
    4 1966  2000  2001  1967
    4 1967  2001  2002  1968
    4 1968  2002  2003  1969
    4 1969  2003  2004  1970
    4 1970  2004  2005  1971
    4 1989  2023  2024  1990
    4 1990  2024  2025  1991
    4 1991  2025  2026  1992
    4 1992  2026  2027  1993
    4 1993  2027  2028  1994
    4 1994  2028  2029  1995
    4 1995  2029  2030  1996
    4 1996  2030  2031  1997
    4 1997  2031  2032  1998
    4 1998  2032  2033  1999
    4 1999  2033  2034  2000
    4 2000  2034  2035  2001
    4 2001  2035  2036  2002
    4 2002  2036  2037  2003
    4 2003  2037  2038  2004
    4 2004  2038  2039  2005
    4 2023  2057  2058  2024
    4 2024  2058  2059  2025
    4 2025  2059  2060  2026
    4 2026  2060  2061  2027
    4 2027  2061  2062  2028
    4 2028  2062  2063  2029
    4 2029  2063  2064  2030
    4 2030  2064  2065  2031
    4 2031  2065  2066  2032
    4 2032  2066  2067  2033
    4 2033  2067  2068  2034
    4 2034  2068  2069  2035
    4 2035  2069  2070  2036
    4 2036  2070  2071  2037
    4 2037  2071  2072  2038
    4 2038  2072  2073  2039
    4 2057  2091  2092  2058
    4 2058  2092  2093  2059
    4 2059  2093  2094  2060
    4 2060  2094  2095  2061
    4 2061  2095  2096  2062
    4 2062  2096  2097  2063
    4 2063  2097  2098  2064
    4 2064  2098  2099  2065
    4 2065  2099  2100  2066
    4 2066  2100  2101  2067
    4 2067  2101  2102  2068
    4 2068  2102  2103  2069
    4 2069  2103  2104  2070
    4 2070  2104  2105  2071
    4 2071  2105  2106  2072
    4 2072  2106  2107  2073
    4 2091  2125  2126  2092
    4 2092  2126  2127  2093
    4 2093  2127  2128  2094
    4 2094  2128  2129  2095
    4 2095  2129  2130  2096
    4 2096  2130  2131  2097
    4 2097  2131  2132  2098
    4 2098  2132  2133  2099
    4 2099  2133  2134  2100
    4 2100  2134  2135  2101
    4 2101  2135  2136  2102
    4 2102  2136  2137  2103
    4 2103  2137  2138  2104
    4 2104  2138  2139  2105
    4 2105  2139  2140  2106
    4 2106  2140  2141  2107
    4 2125  2159  2160  2126
    4 2126  2160  2161  2127
    4 2127  2161  2162  2128
    4 2128  2162  2163  2129
    4 2129  2163  2164  2130
    4 2130  2164  2165  2131
    4 2131  2165  2166  2132
    4 2132  2166  2167  2133
    4 2133  2167  2168  2134
    4 2134  2168  2169  2135
    4 2135  2169  2170  2136
    4 2136  2170  2171  2137
    4 2137  2171  2172  2138
    4 2138  2172  2173  2139
    4 2139  2173  2174  2140
    4 2140  2174  2175  2141
    4 2159  2142  2143  2160
    4 2160  2143  2144  2161
    4 2161  2144  2145  2162
    4 2162  2145  2146  2163
    4 2163  2146  2147  2164
    4 2164  2147  2148  2165
    4 2165  2148  2149  2166
    4 2166  2149  2150  2167
    4 2167  2150  2151  2168
    4 2168  2151  2152  2169
    4 2169  2152  2153  2170
    4 2170  2153  2154  2171
    4 2171  2154  2155  2172
    4 2172  2155  2156  2173
    4 2173  2156  2157  2174
    4 2174  2157  2158  2175
    4 2142  2108  2109  2143
    4 2143  2109  2110  2144
    4 2144  2110  2111  2145
    4 2145  2111  2112  2146
    4 2146  2112  2113  2147
    4 2147  2113  2114  2148
    4 2148  2114  2115  2149
    4 2149  2115  2116  2150
    4 2150  2116  2117  2151
    4 2151  2117  2118  2152
    4 2152  2118  2119  2153
    4 2153  2119  2120  2154
    4 2154  2120  2121  2155
    4 2155  2121  2122  2156
    4 2156  2122  2123  2157
    4 2157  2123  2124  2158
    4 2108  2074  2075  2109
    4 2109  2075  2076  2110
    4 2110  2076  2077  2111
    4 2111  2077  2078  2112
    4 2112  2078  2079  2113
    4 2113  2079  2080  2114
    4 2114  2080  2081  2115
    4 2115  2081  2082  2116
    4 2116  2082  2083  2117
    4 2117  2083  2084  2118
    4 2118  2084  2085  2119
    4 2119  2085  2086  2120
    4 2120  2086  2087  2121
    4 2121  2087  2088  2122
    4 2122  2088  2089  2123
    4 2123  2089  2090  2124
    4 2074  2040  2041  2075
    4 2075  2041  2042  2076
    4 2076  2042  2043  2077
    4 2077  2043  2044  2078
    4 2078  2044  2045  2079
    4 2079  2045  2046  2080
    4 2080  2046  2047  2081
    4 2081  2047  2048  2082
    4 2082  2048  2049  2083
    4 2083  2049  2050  2084
    4 2084  2050  2051  2085
    4 2085  2051  2052  2086
    4 2086  2052  2053  2087
    4 2087  2053  2054  2088
    4 2088  2054  2055  2089
    4 2089  2055  2056  2090
    4 2040  2006  2007  2041
    4 2041  2007  2008  2042
    4 2042  2008  2009  2043
    4 2043  2009  2010  2044
    4 2044  2010  2011  2045
    4 2045  2011  2012  2046
    4 2046  2012  2013  2047
    4 2047  2013  2014  2048
    4 2048  2014  2015  2049
    4 2049  2015  2016  2050
    4 2050  2016  2017  2051
    4 2051  2017  2018  2052
    4 2052  2018  2019  2053
    4 2053  2019  2020  2054
    4 2054  2020  2021  2055
    4 2055  2021  2022  2056
    4 2006  1972  1973  2007
    4 2007  1973  1974  2008
    4 2008  1974  1975  2009
    4 2009  1975  1976  2010
    4 2010  1976  1977  2011
    4 2011  1977  1978  2012
    4 2012  1978  1979  2013
    4 2013  1979  1980  2014
    4 2014  1980  1981  2015
    4 2015  1981  1982  2016
    4 2016  1982  1983  2017
    4 2017  1983  1984  2018
    4 2018  1984  1985  2019
    4 2019  1985  1986  2020
    4 2020  1986  1987  2021
    4 2021  1987  1988  2022
    4 1972  1938  1939  1973
    4 1973  1939  1940  1974
    4 1974  1940  1941  1975
    4 1975  1941  1942  1976
    4 1976  1942  1943  1977
    4 1977  1943  1944  1978
    4 1978  1944  1945  1979
    4 1979  1945  1946  1980
    4 1980  1946  1947  1981
    4 1981  1947  1948  1982
    4 1982  1948  1949  1983
    4 1983  1949  1950  1984
    4 1984  1950  1951  1985
    4 1985  1951  1952  1986
    4 1986  1952  1953  1987
    4 1987  1953  1954  1988
    4 1938  1904  1905  1939
    4 1939  1905  1906  1940
    4 1940  1906  1907  1941
    4 1941  1907  1908  1942
    4 1942  1908  1909  1943
    4 1943  1909  1910  1944
    4 1944  1910  1911  1945
    4 1945  1911  1912  1946
    4 1946  1912  1913  1947
    4 1947  1913  1914  1948
    4 1948  1914  1915  1949
    4 1949  1915  1916  1950
    4 1950  1916  1917  1951
    4 1951  1917  1918  1952
    4 1952  1918  1919  1953
    4 1953  1919  1920  1954
    4 1904  1870  1871  1905
    4 1905  1871  1872  1906
    4 1906  1872  1873  1907
    4 1907  1873  1874  1908
    4 1908  1874  1875  1909
    4 1909  1875  1876  1910
    4 1910  1876  1877  1911
    4 1911  1877  1878  1912
    4 1912  1878  1879  1913
    4 1913  1879  1880  1914
    4 1914  1880  1881  1915
    4 1915  1881  1882  1916
    4 1916  1882  1883  1917
    4 1917  1883  1884  1918
    4 1918  1884  1885  1919
    4 1919  1885  1886  1920
    4 1870  1836  1837  1871
    4 1871  1837  1838  1872
    4 1872  1838  1839  1873
    4 1873  1839  1840  1874
    4 1874  1840  1841  1875
    4 1875  1841  1842  1876
    4 1876  1842  1843  1877
    4 1877  1843  1844  1878
    4 1878  1844  1845  1879
    4 1879  1845  1846  1880
    4 1880  1846  1847  1881
    4 1881  1847  1848  1882
    4 1882  1848  1849  1883
    4 1883  1849  1850  1884
    4 1884  1850  1851  1885
    4 1885  1851  1852  1886
    4 1836  1802  1803  1837
    4 1837  1803  1804  1838
    4 1838  1804  1805  1839
    4 1839  1805  1806  1840
    4 1840  1806  1807  1841
    4 1841  1807  1808  1842
    4 1842  1808  1809  1843
    4 1843  1809  1810  1844
    4 1844  1810  1811  1845
    4 1845  1811  1812  1846
    4 1846  1812  1813  1847
    4 1847  1813  1814  1848
    4 1848  1814  1815  1849
    4 1849  1815  1816  1850
    4 1850  1816  1817  1851
    4 1851  1817  1818  1852
    4 1802  1768  1769  1803
    4 1803  1769  1770  1804
    4 1804  1770  1771  1805
    4 1805  1771  1772  1806
    4 1806  1772  1773  1807
    4 1807  1773  1774  1808
    4 1808  1774  1775  1809
    4 1809  1775  1776  1810
    4 1810  1776  1777  1811
    4 1811  1777  1778  1812
    4 1812  1778  1779  1813
    4 1813  1779  1780  1814
    4 1814  1780  1781  1815
    4 1815  1781  1782  1816
    4 1816  1782  1783  1817
    4 1817  1783  1784  1818
    4 1768  1734  1735  1769
    4 1769  1735  1736  1770
    4 1770  1736  1737  1771
    4 1771  1737  1738  1772
    4 1772  1738  1739  1773
    4 1773  1739  1740  1774
    4 1774  1740  1741  1775
    4 1775  1741  1742  1776
    4 1776  1742  1743  1777
    4 1777  1743  1744  1778
    4 1778  1744  1745  1779
    4 1779  1745  1746  1780
    4 1780  1746  1747  1781
    4 1781  1747  1748  1782
    4 1782  1748  1749  1783
    4 1783  1749  1750  1784
    4 1734  1700  1701  1735
    4 1735  1701  1702  1736
    4 1736  1702  1703  1737
    4 1737  1703  1704  1738
    4 1738  1704  1705  1739
    4 1739  1705  1706  1740
    4 1740  1706  1707  1741
    4 1741  1707  1708  1742
    4 1742  1708  1709  1743
    4 1743  1709  1710  1744
    4 1744  1710  1711  1745
    4 1745  1711  1712  1746
    4 1746  1712  1713  1747
    4 1747  1713  1714  1748
    4 1748  1714  1715  1749
    4 1749  1715  1716  1750
    4 1700  1666  1667  1701
    4 1701  1667  1668  1702
    4 1702  1668  1669  1703
    4 1703  1669  1670  1704
    4 1704  1670  1671  1705
    4 1705  1671  1672  1706
    4 1706  1672  1673  1707
    4 1707  1673  1674  1708
    4 1708  1674  1675  1709
    4 1709  1675  1676  1710
    4 1710  1676  1677  1711
    4 1711  1677  1678  1712
    4 1712  1678  1679  1713
    4 1713  1679  1680  1714
    4 1714  1680  1681  1715
    4 1715  1681  1682  1716
    4 1666  1632  1633  1667
    4 1667  1633  1634  1668
    4 1668  1634  1635  1669
    4 1669  1635  1636  1670
    4 1670  1636  1637  1671
    4 1671  1637  1638  1672
    4 1672  1638  1639  1673
    4 1673  1639  1640  1674
    4 1674  1640  1641  1675
    4 1675  1641  1642  1676
    4 1676  1642  1643  1677
    4 1677  1643  1644  1678
    4 1678  1644  1645  1679
    4 1679  1645  1646  1680
    4 1680  1646  1647  1681
    4 1681  1647  1648  1682
    4 1632  1598  1599  1633
    4 1633  1599  1600  1634
    4 1634  1600  1601  1635
    4 1635  1601  1602  1636
    4 1636  1602  1603  1637
    4 1637  1603  1604  1638
    4 1638  1604  1605  1639
    4 1639  1605  1606  1640
    4 1640  1606  1607  1641
    4 1641  1607  1608  1642
    4 1642  1608  1609  1643
    4 1643  1609  1610  1644
    4 1644  1610  1611  1645
    4 1645  1611  1612  1646
    4 1646  1612  1613  1647
    4 1647  1613  1614  1648
    4 1598  1564  1565  1599
    4 1599  1565  1566  1600
    4 1600  1566  1567  1601
    4 1601  1567  1568  1602
    4 1602  1568  1569  1603
    4 1603  1569  1570  1604
    4 1604  1570  1571  1605
    4 1605  1571  1572  1606
    4 1606  1572  1573  1607
    4 1607  1573  1574  1608
    4 1608  1574  1575  1609
    4 1609  1575  1576  1610
    4 1610  1576  1577  1611
    4 1611  1577  1578  1612
    4 1612  1578  1579  1613
    4 1613  1579  1580  1614
    4 1564  1530  1531  1565
    4 1565  1531  1532  1566
    4 1566  1532  1533  1567
    4 1567  1533  1534  1568
    4 1568  1534  1535  1569
    4 1569  1535  1536  1570
    4 1570  1536  1537  1571
    4 1571  1537  1538  1572
    4 1572  1538  1539  1573
    4 1573  1539  1540  1574
    4 1574  1540  1541  1575
    4 1575  1541  1542  1576
    4 1576  1542  1543  1577
    4 1577  1543  1544  1578
    4 1578  1544  1545  1579
    4 1579  1545  1546  1580
    4 1530  1496  1497  1531
    4 1531  1497  1498  1532
    4 1532  1498  1499  1533
    4 1533  1499  1500  1534
    4 1534  1500  1501  1535
    4 1535  1501  1502  1536
    4 1536  1502  1503  1537
    4 1537  1503  1504  1538
    4 1538  1504  1505  1539
    4 1539  1505  1506  1540
    4 1540  1506  1507  1541
    4 1541  1507  1508  1542
    4 1542  1508  1509  1543
    4 1543  1509  1510  1544
    4 1544  1510  1511  1545
    4 1545  1511  1512  1546
    4 1496  1462  1463  1497
    4 1497  1463  1464  1498
    4 1498  1464  1465  1499
    4 1499  1465  1466  1500
    4 1500  1466  1467  1501
    4 1501  1467  1468  1502
    4 1502  1468  1469  1503
    4 1503  1469  1470  1504
    4 1504  1470  1471  1505
    4 1505  1471  1472  1506
    4 1506  1472  1473  1507
    4 1507  1473  1474  1508
    4 1508  1474  1475  1509
    4 1509  1475  1476  1510
    4 1510  1476  1477  1511
    4 1511  1477  1478  1512
    4 1462  1428  1429  1463
    4 1463  1429  1430  1464
    4 1464  1430  1431  1465
    4 1465  1431  1432  1466
    4 1466  1432  1433  1467
    4 1467  1433  1434  1468
    4 1468  1434  1435  1469
    4 1469  1435  1436  1470
    4 1470  1436  1437  1471
    4 1471  1437  1438  1472
    4 1472  1438  1439  1473
    4 1473  1439  1440  1474
    4 1474  1440  1441  1475
    4 1475  1441  1442  1476
    4 1476  1442  1443  1477
    4 1477  1443  1444  1478
    4 1428  1394  1395  1429
    4 1429  1395  1396  1430
    4 1430  1396  1397  1431
    4 1431  1397  1398  1432
    4 1432  1398  1399  1433
    4 1433  1399  1400  1434
    4 1434  1400  1401  1435
    4 1435  1401  1402  1436
    4 1436  1402  1403  1437
    4 1437  1403  1404  1438
    4 1438  1404  1405  1439
    4 1439  1405  1406  1440
    4 1440  1406  1407  1441
    4 1441  1407  1408  1442
    4 1442  1408  1409  1443
    4 1443  1409  1410  1444
    4 1394  1360  1361  1395
    4 1395  1361  1362  1396
    4 1396  1362  1363  1397
    4 1397  1363  1364  1398
    4 1398  1364  1365  1399
    4 1399  1365  1366  1400
    4 1400  1366  1367  1401
    4 1401  1367  1368  1402
    4 1402  1368  1369  1403
    4 1403  1369  1370  1404
    4 1404  1370  1371  1405
    4 1405  1371  1372  1406
    4 1406  1372  1373  1407
    4 1407  1373  1374  1408
    4 1408  1374  1375  1409
    4 1409  1375  1376  1410
    4 1360  1326  1327  1361
    4 1361  1327  1328  1362
    4 1362  1328  1329  1363
    4 1363  1329  1330  1364
    4 1364  1330  1331  1365
    4 1365  1331  1332  1366
    4 1366  1332  1333  1367
    4 1367  1333  1334  1368
    4 1368  1334  1335  1369
    4 1369  1335  1336  1370
    4 1370  1336  1337  1371
    4 1371  1337  1338  1372
    4 1372  1338  1339  1373
    4 1373  1339  1340  1374
    4 1374  1340  1341  1375
    4 1375  1341  1342  1376
    4 1326  1292  1293  1327
    4 1327  1293  1294  1328
    4 1328  1294  1295  1329
    4 1329  1295  1296  1330
    4 1330  1296  1297  1331
    4 1331  1297  1298  1332
    4 1332  1298  1299  1333
    4 1333  1299  1300  1334
    4 1334  1300  1301  1335
    4 1335  1301  1302  1336
    4 1336  1302  1303  1337
    4 1337  1303  1304  1338
    4 1338  1304  1305  1339
    4 1339  1305  1306  1340
    4 1340  1306  1307  1341
    4 1341  1307  1308  1342
    4 1292  1258  1259  1293
    4 1293  1259  1260  1294
    4 1294  1260  1261  1295
    4 1295  1261  1262  1296
    4 1296  1262  1263  1297
    4 1297  1263  1264  1298
    4 1298  1264  1265  1299
    4 1299  1265  1266  1300
    4 1300  1266  1267  1301
    4 1301  1267  1268  1302
    4 1302  1268  1269  1303
    4 1303  1269  1270  1304
    4 1304  1270  1271  1305
    4 1305  1271  1272  1306
    4 1306  1272  1273  1307
    4 1307  1273  1274  1308
    4 1258  1224  1225  1259
    4 1259  1225  1226  1260
    4 1260  1226  1227  1261
    4 1261  1227  1228  1262
    4 1262  1228  1229  1263
    4 1263  1229  1230  1264
    4 1264  1230  1231  1265
    4 1265  1231  1232  1266
    4 1266  1232  1233  1267
    4 1267  1233  1234  1268
    4 1268  1234  1235  1269
    4 1269  1235  1236  1270
    4 1270  1236  1237  1271
    4 1271  1237  1238  1272
    4 1272  1238  1239  1273
    4 1273  1239  1240  1274
    4 1224  1190  1191  1225
    4 1225  1191  1192  1226
    4 1226  1192  1193  1227
    4 1227  1193  1194  1228
    4 1228  1194  1195  1229
    4 1229  1195  1196  1230
    4 1230  1196  1197  1231
    4 1231  1197  1198  1232
    4 1232  1198  1199  1233
    4 1233  1199  1200  1234
    4 1234  1200  1201  1235
    4 1235  1201  1202  1236
    4 1236  1202  1203  1237
    4 1237  1203  1204  1238
    4 1238  1204  1205  1239
    4 1239  1205  1206  1240
    4 1190  1156  1157  1191
    4 1191  1157  1158  1192
    4 1192  1158  1159  1193
    4 1193  1159  1160  1194
    4 1194  1160  1161  1195
    4 1195  1161  1162  1196
    4 1196  1162  1163  1197
    4 1197  1163  1164  1198
    4 1198  1164  1165  1199
    4 1199  1165  1166  1200
    4 1200  1166  1167  1201
    4 1201  1167  1168  1202
    4 1202  1168  1169  1203
    4 1203  1169  1170  1204
    4 1204  1170  1171  1205
    4 1205  1171  1172  1206
    4 1156  1122  1123  1157
    4 1157  1123  1124  1158
    4 1158  1124  1125  1159
    4 1159  1125  1126  1160
    4 1160  1126  1127  1161
    4 1161  1127  1128  1162
    4 1162  1128  1129  1163
    4 1163  1129  1130  1164
    4 1164  1130  1131  1165
    4 1165  1131  1132  1166
    4 1166  1132  1133  1167
    4 1167  1133  1134  1168
    4 1168  1134  1135  1169
    4 1169  1135  1136  1170
    4 1170  1136  1137  1171
    4 1171  1137  1138  1172
    4 1122  1088  1089  1123
    4 1123  1089  1090  1124
    4 1124  1090  1091  1125
    4 1125  1091  1092  1126
    4 1126  1092  1093  1127
    4 1127  1093  1094  1128
    4 1128  1094  1095  1129
    4 1129  1095  1096  1130
    4 1130  1096  1097  1131
    4 1131  1097  1098  1132
    4 1132  1098  1099  1133
    4 1133  1099  1100  1134
    4 1134  1100  1101  1135
    4 1135  1101  1102  1136
    4 1136  1102  1103  1137
    4 1137  1103  1104  1138
    4 1088  1054  1055  1089
    4 1089  1055  1056  1090
    4 1090  1056  1057  1091
    4 1091  1057  1058  1092
    4 1092  1058  1059  1093
    4 1093  1059  1060  1094
    4 1094  1060  1061  1095
    4 1095  1061  1062  1096
    4 1096  1062  1063  1097
    4 1097  1063  1064  1098
    4 1098  1064  1065  1099
    4 1099  1065  1066  1100
    4 1100  1066  1067  1101
    4 1101  1067  1068  1102
    4 1102  1068  1069  1103
    4 1103  1069  1070  1104
    4 1054  1020  1021  1055
    4 1055  1021  1022  1056
    4 1056  1022  1023  1057
    4 1057  1023  1024  1058
    4 1058  1024  1025  1059
    4 1059  1025  1026  1060
    4 1060  1026  1027  1061
    4 1061  1027  1028  1062
    4 1062  1028  1029  1063
    4 1063  1029  1030  1064
    4 1064  1030  1031  1065
    4 1065  1031  1032  1066
    4 1066  1032  1033  1067
    4 1067  1033  1034  1068
    4 1068  1034  1035  1069
    4 1069  1035  1036  1070
    4 1020   986   987  1021
    4 1021   987   988  1022
    4 1022   988   989  1023
    4 1023   989   990  1024
    4 1024   990   991  1025
    4 1025   991   992  1026
    4 1026   992   993  1027
    4 1027   993   994  1028
    4 1028   994   995  1029
    4 1029   995   996  1030
    4 1030   996   997  1031
    4 1031   997   998  1032
    4 1032   998   999  1033
    4 1033   999  1000  1034
    4 1034  1000  1001  1035
    4 1035  1001  1002  1036
    4  986   952   953   987
    4  987   953   954   988
    4  988   954   955   989
    4  989   955   956   990
    4  990   956   957   991
    4  991   957   958   992
    4  992   958   959   993
    4  993   959   960   994
    4  994   960   961   995
    4  995   961   962   996
    4  996   962   963   997
    4  997   963   964   998
    4  998   964   965   999
    4  999   965   966  1000
    4 1000   966   967  1001
    4 1001   967   968  1002
    4  952   918   919   953
    4  953   919   920   954
    4  954   920   921   955
    4  955   921   922   956
    4  956   922   923   957
    4  957   923   924   958
    4  958   924   925   959
    4  959   925   926   960
    4  960   926   927   961
    4  961   927   928   962
    4  962   928   929   963
    4  963   929   930   964
    4  964   930   931   965
    4  965   931   932   966
    4  966   932   933   967
    4  967   933   934   968
    4  918   884   885   919
    4  919   885   886   920
    4  920   886   887   921
    4  921   887   888   922
    4  922   888   889   923
    4  923   889   890   924
    4  924   890   891   925
    4  925   891   892   926
    4  926   892   893   927
    4  927   893   894   928
    4  928   894   895   929
    4  929   895   896   930
    4  930   896   897   931
    4  931   897   898   932
    4  932   898   899   933
    4  933   899   900   934
    4  884   850   851   885
    4  885   851   852   886
    4  886   852   853   887
    4  887   853   854   888
    4  888   854   855   889
    4  889   855   856   890
    4  890   856   857   891
    4  891   857   858   892
    4  892   858   859   893
    4  893   859   860   894
    4  894   860   861   895
    4  895   861   862   896
    4  896   862   863   897
    4  897   863   864   898
    4  898   864   865   899
    4  899   865   866   900
    4  850   816   817   851
    4  851   817   818   852
    4  852   818   819   853
    4  853   819   820   854
    4  854   820   821   855
    4  855   821   822   856
    4  856   822   823   857
    4  857   823   824   858
    4  858   824   825   859
    4  859   825   826   860
    4  860   826   827   861
    4  861   827   828   862
    4  862   828   829   863
    4  863   829   830   864
    4  864   830   831   865
    4  865   831   832   866
    4  816   782   783   817
    4  817   783   784   818
    4  818   784   785   819
    4  819   785   786   820
    4  820   786   787   821
    4  821   787   788   822
    4  822   788   789   823
    4  823   789   790   824
    4  824   790   791   825
    4  825   791   792   826
    4  826   792   793   827
    4  827   793   794   828
    4  828   794   795   829
    4  829   795   796   830
    4  830   796   797   831
    4  831   797   798   832
    4  782   748   749   783
    4  783   749   750   784
    4  784   750   751   785
    4  785   751   752   786
    4  786   752   753   787
    4  787   753   754   788
    4  788   754   755   789
    4  789   755   756   790
    4  790   756   757   791
    4  791   757   758   792
    4  792   758   759   793
    4  793   759   760   794
    4  794   760   761   795
    4  795   761   762   796
    4  796   762   763   797
    4  797   763   764   798
    4  748   714   715   749
    4  749   715   716   750
    4  750   716   717   751
    4  751   717   718   752
    4  752   718   719   753
    4  753   719   720   754
    4  754   720   721   755
    4  755   721   722   756
    4  756   722   723   757
    4  757   723   724   758
    4  758   724   725   759
    4  759   725   726   760
    4  760   726   727   761
    4  761   727   728   762
    4  762   728   729   763
    4  763   729   730   764
    4  714   680   681   715
    4  715   681   682   716
    4  716   682   683   717
    4  717   683   684   718
    4  718   684   685   719
    4  719   685   686   720
    4  720   686   687   721
    4  721   687   688   722
    4  722   688   689   723
    4  723   689   690   724
    4  724   690   691   725
    4  725   691   692   726
    4  726   692   693   727
    4  727   693   694   728
    4  728   694   695   729
    4  729   695   696   730
    4  680   646   647   681
    4  681   647   648   682
    4  682   648   649   683
    4  683   649   650   684
    4  684   650   651   685
    4  685   651   652   686
    4  686   652   653   687
    4  687   653   654   688
    4  688   654   655   689
    4  689   655   656   690
    4  690   656   657   691
    4  691   657   658   692
    4  692   658   659   693
    4  693   659   660   694
    4  694   660   661   695
    4  695   661   662   696
    4  646   612   613   647
    4  647   613   614   648
    4  648   614   615   649
    4  649   615   616   650
    4  650   616   617   651
    4  651   617   618   652
    4  652   618   619   653
    4  653   619   620   654
    4  654   620   621   655
    4  655   621   622   656
    4  656   622   623   657
    4  657   623   624   658
    4  658   624   625   659
    4  659   625   626   660
    4  660   626   627   661
    4  661   627   628   662
    4  612   578   579   613
    4  613   579   580   614
    4  614   580   581   615
    4  615   581   582   616
    4  616   582   583   617
    4  617   583   584   618
    4  618   584   585   619
    4  619   585   586   620
    4  620   586   587   621
    4  621   587   588   622
    4  622   588   589   623
    4  623   589   590   624
    4  624   590   591   625
    4  625   591   592   626
    4  626   592   593   627
    4  627   593   594   628
    4  578   544   545   579
    4  579   545   546   580
    4  580   546   547   581
    4  581   547   548   582
    4  582   548   549   583
    4  583   549   550   584
    4  584   550   551   585
    4  585   551   552   586
    4  586   552   553   587
    4  587   553   554   588
    4  588   554   555   589
    4  589   555   556   590
    4  590   556   557   591
    4  591   557   558   592
    4  592   558   559   593
    4  593   559   560   594
    4  544   480   481   545
    4  545   481   482   546
    4  546   482   483   547
    4  547   483   484   548
    4  548   484   485   549
    4  549   485   486   550
    4  550   486   487   551
    4  551   487   488   552
    4  552   488   489   553
    4  553   489   490   554
    4  554   490   491   555
    4  555   491   492   556
    4  556   492   493   557
    4  557   493   494   558
    4  558   494   495   559
    4  559   495   542   560
    4  480   420   421   481
    4  481   421   422   482
    4  482   422   423   483
    4  483   423   424   484
    4  484   424   425   485
    4  485   425   426   486
    4  486   426   427   487
    4  487   427   428   488
    4  488   428   429   489
    4  489   429   430   490
    4  490   430   431   491
    4  491   431   432   492
    4  492   432   433   493
    4  493   433   434   494
    4  494   434   478   495
    4  495   478   540   542
    4  420   364   365   421
    4  421   365   366   422
    4  422   366   367   423
    4  423   367   368   424
    4  424   368   369   425
    4  425   369   370   426
    4  426   370   371   427
    4  427   371   372   428
    4  428   372   373   429
    4  429   373   374   430
    4  430   374   375   431
    4  431   375   376   432
    4  432   376   377   433
    4  433   377   418   434
    4  434   418   476   478
    4  478   476   538   540
    4  364   312   313   365
    4  365   313   314   366
    4  366   314   315   367
    4  367   315   316   368
    4  368   316   317   369
    4  369   317   318   370
    4  370   318   319   371
    4  371   319   320   372
    4  372   320   321   373
    4  373   321   322   374
    4  374   322   323   375
    4  375   323   324   376
    4  376   324   362   377
    4  377   362   416   418
    4  418   416   474   476
    4  476   474   536   538
    4  312   264   265   313
    4  313   265   266   314
    4  314   266   267   315
    4  315   267   268   316
    4  316   268   269   317
    4  317   269   270   318
    4  318   270   271   319
    4  319   271   272   320
    4  320   272   273   321
    4  321   273   274   322
    4  322   274   275   323
    4  323   275   310   324
    4  324   310   360   362
    4  362   360   414   416
    4  416   414   472   474
    4  474   472   534   536
    4  264   220   221   265
    4  265   221   222   266
    4  266   222   223   267
    4  267   223   224   268
    4  268   224   225   269
    4  269   225   226   270
    4  270   226   227   271
    4  271   227   228   272
    4  272   228   229   273
    4  273   229   230   274
    4  274   230   262   275
    4  275   262   308   310
    4  310   308   358   360
    4  360   358   412   414
    4  414   412   470   472
    4  472   470   532   534
    4  220   180   181   221
    4  221   181   182   222
    4  222   182   183   223
    4  223   183   184   224
    4  224   184   185   225
    4  225   185   186   226
    4  226   186   187   227
    4  227   187   188   228
    4  228   188   189   229
    4  229   189   218   230
    4  230   218   260   262
    4  262   260   306   308
    4  308   306   356   358
    4  358   356   410   412
    4  412   410   468   470
    4  470   468   530   532
    4  180   144   145   181
    4  181   145   146   182
    4  182   146   147   183
    4  183   147   148   184
    4  184   148   149   185
    4  185   149   150   186
    4  186   150   151   187
    4  187   151   152   188
    4  188   152   178   189
    4  189   178   216   218
    4  218   216   258   260
    4  260   258   304   306
    4  306   304   354   356
    4  356   354   408   410
    4  410   408   466   468
    4  468   466   528   530
    4  144   112   113   145
    4  145   113   114   146
    4  146   114   115   147
    4  147   115   116   148
    4  148   116   117   149
    4  149   117   118   150
    4  150   118   119   151
    4  151   119   142   152
    4  152   142   176   178
    4  178   176   214   216
    4  216   214   256   258
    4  258   256   302   304
    4  304   302   352   354
    4  354   352   406   408
    4  408   406   464   466
    4  466   464   526   528
    4  112    84    85   113
    4  113    85    86   114
    4  114    86    87   115
    4  115    87    88   116
    4  116    88    89   117
    4  117    89    90   118
    4  118    90   110   119
    4  119   110   140   142
    4  142   140   174   176
    4  176   174   212   214
    4  214   212   254   256
    4  256   254   300   302
    4  302   300   350   352
    4  352   350   404   406
    4  406   404   462   464
    4  464   462   524   526
    4   84    60    61    85
    4   85    61    62    86
    4   86    62    63    87
    4   87    63    64    88
    4   88    64    65    89
    4   89    65    82    90
    4   90    82   108   110
    4  110   108   138   140
    4  140   138   172   174
    4  174   172   210   212
    4  212   210   252   254
    4  254   252   298   300
    4  300   298   348   350
    4  350   348   402   404
    4  404   402   460   462
    4  462   460   522   524
    4   60    40    41    61
    4   61    41    42    62
    4   62    42    43    63
    4   63    43    44    64
    4   64    44    58    65
    4   65    58    80    82
    4   82    80   106   108
    4  108   106   136   138
    4  138   136   170   172
    4  172   170   208   210
    4  210   208   250   252
    4  252   250   296   298
    4  298   296   346   348
    4  348   346   400   402
    4  402   400   458   460
    4  460   458   520   522
    4   40    24    25    41
    4   41    25    26    42
    4   42    26    27    43
    4   43    27    38    44
    4   44    38    56    58
    4   58    56    78    80
    4   80    78   104   106
    4  106   104   134   136
    4  136   134   168   170
    4  170   168   206   208
    4  208   206   248   250
    4  250   248   294   296
    4  296   294   344   346
    4  346   344   398   400
    4  400   398   456   458
    4  458   456   518   520
    4   24    12    13    25
    4   25    13    14    26
    4   26    14    22    27
    4   27    22    36    38
    4   38    36    54    56
    4   56    54    76    78
    4   78    76   102   104
    4  104   102   132   134
    4  134   132   166   168
    4  168   166   204   206
    4  206   204   246   248
    4  248   246   292   294
    4  294   292   342   344
    4  344   342   396   398
    4  398   396   454   456
    4  456   454   516   518
    4   12     4     5    13
    4   13     5    10    14
    4   14    10    20    22
    4   22    20    34    36
    4   36    34    52    54
    4   54    52    74    76
    4   76    74   100   102
    4  102   100   130   132
    4  132   130   164   166
    4  166   164   202   204
    4  204   202   244   246
    4  246   244   290   292
    4  292   290   340   342
    4  342   340   394   396
    4  396   394   452   454
    4  454   452   514   516
    4    4     0     2     5
    4    5     2     8    10
    4   10     8    18    20
    4   20    18    32    34
    4   34    32    50    52
    4   52    50    72    74
    4   74    72    98   100
    4  100    98   128   130
    4  130   128   162   164
    4  164   162   200   202
    4  202   200   242   244
    4  244   242   288   290
    4  290   288   338   340
    4  340   338   392   394
    4  394   392   450   452
    4  452   450   512   514
CELL_TYPES  2048
    9
    9
    9
    9
    9
    9
    9
    9
    9
    9
    9
    9
    9
    9
    9
    9
    9
    9
    9
    9
    9
    9
    9
    9
    9
    9
    9
    9
    9
    9
    9
    9
    9
    9
    9
    9
    9
    9
    9
    9
    9
    9
    9
    9
    9
    9
    9
    9
    9
    9
    9
    9
    9
    9
    9
    9
    9
    9
    9
    9
    9
    9
    9
    9
    9
    9
    9
    9
    9
    9
    9
    9
    9
    9
    9
    9
    9
    9
    9
    9
    9
    9
    9
    9
    9
    9
    9
    9
    9
    9
    9
    9
    9
    9
    9
    9
    9
    9
    9
    9
    9
    9
    9
    9
    9
    9
    9
    9
    9
    9
    9
    9
    9
    9
    9
    9
    9
    9
    9
    9
    9
    9
    9
    9
    9
    9
    9
    9
    9
    9
    9
    9
    9
    9
    9
    9
    9
    9
    9
    9
    9
    9
    9
    9
    9
    9
    9
    9
    9
    9
    9
    9
    9
    9
    9
    9
    9
    9
    9
    9
    9
    9
    9
    9
    9
    9
    9
    9
    9
    9
    9
    9
    9
    9
    9
    9
    9
    9
    9
    9
    9
    9
    9
    9
    9
    9
    9
    9
    9
    9
    9
    9
    9
    9
    9
    9
    9
    9
    9
    9
    9
    9
    9
    9
    9
    9
    9
    9
    9
    9
    9
    9
    9
    9
    9
    9
    9
    9
    9
    9
    9
    9
    9
    9
    9
    9
    9
    9
    9
    9
    9
    9
    9
    9
    9
    9
    9
    9
    9
    9
    9
    9
    9
    9
    9
    9
    9
    9
    9
    9
    9
    9
    9
    9
    9
    9
    9
    9
    9
    9
    9
    9
    9
    9
    9
    9
    9
    9
    9
    9
    9
    9
    9
    9
    9
    9
    9
    9
    9
    9
    9
    9
    9
    9
    9
    9
    9
    9
    9
    9
    9
    9
    9
    9
    9
    9
    9
    9
    9
    9
    9
    9
    9
    9
    9
    9
    9
    9
    9
    9
    9
    9
    9
    9
    9
    9
    9
    9
    9
    9
    9
    9
    9
    9
    9
    9
    9
    9
    9
    9
    9
    9
    9
    9
    9
    9
    9
    9
    9
    9
    9
    9
    9
    9
    9
    9
    9
    9
    9
    9
    9
    9
    9
    9
    9
    9
    9
    9
    9
    9
    9
    9
    9
    9
    9
    9
    9
    9
    9
    9
    9
    9
    9
    9
    9
    9
    9
    9
    9
    9
    9
    9
    9
    9
    9
    9
    9
    9
    9
    9
    9
    9
    9
    9
    9
    9
    9
    9
    9
    9
    9
    9
    9
    9
    9
    9
    9
    9
    9
    9
    9
    9
    9
    9
    9
    9
    9
    9
    9
    9
    9
    9
    9
    9
    9
    9
    9
    9
    9
    9
    9
    9
    9
    9
    9
    9
    9
    9
    9
    9
    9
    9
    9
    9
    9
    9
    9
    9
    9
    9
    9
    9
    9
    9
    9
    9
    9
    9
    9
    9
    9
    9
    9
    9
    9
    9
    9
    9
    9
    9
    9
    9
    9
    9
    9
    9
    9
    9
    9
    9
    9
    9
    9
    9
    9
    9
    9
    9
    9
    9
    9
    9
    9
    9
    9
    9
    9
    9
    9
    9
    9
    9
    9
    9
    9
    9
    9
    9
    9
    9
    9
    9
    9
    9
    9
    9
    9
    9
    9
    9
    9
    9
    9
    9
    9
    9
    9
    9
    9
    9
    9
    9
    9
    9
    9
    9
    9
    9
    9
    9
    9
    9
    9
    9
    9
    9
    9
    9
    9
    9
    9
    9
    9
    9
    9
    9
    9
    9
    9
    9
    9
    9
    9
    9
    9
    9
    9
    9
    9
    9
    9
    9
    9
    9
    9
    9
    9
    9
    9
    9
    9
    9
    9
    9
    9
    9
    9
    9
    9
    9
    9
    9
    9
    9
    9
    9
    9
    9
    9
    9
    9
    9
    9
    9
    9
    9
    9
    9
    9
    9
    9
    9
    9
    9
    9
    9
    9
    9
    9
    9
    9
    9
    9
    9
    9
    9
    9
    9
    9
    9
    9
    9
    9
    9
    9
    9
    9
    9
    9
    9
    9
    9
    9
    9
    9
    9
    9
    9
    9
    9
    9
    9
    9
    9
    9
    9
    9
    9
    9
    9
    9
    9
    9
    9
    9
    9
    9
    9
    9
    9
    9
    9
    9
    9
    9
    9
    9
    9
    9
    9
    9
    9
    9
    9
    9
    9
    9
    9
    9
    9
    9
    9
    9
    9
    9
    9
    9
    9
    9
    9
    9
    9
    9
    9
    9
    9
    9
    9
    9
    9
    9
    9
    9
    9
    9
    9
    9
    9
    9
    9
    9
    9
    9
    9
    9
    9
    9
    9
    9
    9
    9
    9
    9
    9
    9
    9
    9
    9
    9
    9
    9
    9
    9
    9
    9
    9
    9
    9
    9
    9
    9
    9
    9
    9
    9
    9
    9
    9
    9
    9
    9
    9
    9
    9
    9
    9
    9
    9
    9
    9
    9
    9
    9
    9
    9
    9
    9
    9
    9
    9
    9
    9
    9
    9
    9
    9
    9
    9
    9
    9
    9
    9
    9
    9
    9
    9
    9
    9
    9
    9
    9
    9
    9
    9
    9
    9
    9
    9
    9
    9
    9
    9
    9
    9
    9
    9
    9
    9
    9
    9
    9
    9
    9
    9
    9
    9
    9
    9
    9
    9
    9
    9
    9
    9
    9
    9
    9
    9
    9
    9
    9
    9
    9
    9
    9
    9
    9
    9
    9
    9
    9
    9
    9
    9
    9
    9
    9
    9
    9
    9
    9
    9
    9
    9
    9
    9
    9
    9
    9
    9
    9
    9
    9
    9
    9
    9
    9
    9
    9
    9
    9
    9
    9
    9
    9
    9
    9
    9
    9
    9
    9
    9
    9
    9
    9
    9
    9
    9
    9
    9
    9
    9
    9
    9
    9
    9
    9
    9
    9
    9
    9
    9
    9
    9
    9
    9
    9
    9
    9
    9
    9
    9
    9
    9
    9
    9
    9
    9
    9
    9
    9
    9
    9
    9
    9
    9
    9
    9
    9
    9
    9
    9
    9
    9
    9
    9
    9
    9
    9
    9
    9
    9
    9
    9
    9
    9
    9
    9
    9
    9
    9
    9
    9
    9
    9
    9
    9
    9
    9
    9
    9
    9
    9
    9
    9
    9
    9
    9
    9
    9
    9
    9
    9
    9
    9
    9
    9
    9
    9
    9
    9
    9
    9
    9
    9
    9
    9
    9
    9
    9
    9
    9
    9
    9
    9
    9
    9
    9
    9
    9
    9
    9
    9
    9
    9
    9
    9
    9
    9
    9
    9
    9
    9
    9
    9
    9
    9
    9
    9
    9
    9
    9
    9
    9
    9
    9
    9
    9
    9
    9
    9
    9
    9
    9
    9
    9
    9
    9
    9
    9
    9
    9
    9
    9
    9
    9
    9
    9
    9
    9
    9
    9
    9
    9
    9
    9
    9
    9
    9
    9
    9
    9
    9
    9
    9
    9
    9
    9
    9
    9
    9
    9
    9
    9
    9
    9
    9
    9
    9
    9
    9
    9
    9
    9
    9
    9
    9
    9
    9
    9
    9
    9
    9
    9
    9
    9
    9
    9
    9
    9
    9
    9
    9
    9
    9
    9
    9
    9
    9
    9
    9
    9
    9
    9
    9
    9
    9
    9
    9
    9
    9
    9
    9
    9
    9
    9
    9
    9
    9
    9
    9
    9
    9
    9
    9
    9
    9
    9
    9
    9
    9
    9
    9
    9
    9
    9
    9
    9
    9
    9
    9
    9
    9
    9
    9
    9
    9
    9
    9
    9
    9
    9
    9
    9
    9
    9
    9
    9
    9
    9
    9
    9
    9
    9
    9
    9
    9
    9
    9
    9
    9
    9
    9
    9
    9
    9
    9
    9
    9
    9
    9
    9
    9
    9
    9
    9
    9
    9
    9
    9
    9
    9
    9
    9
    9
    9
    9
    9
    9
    9
    9
    9
    9
    9
    9
    9
    9
    9
    9
    9
    9
    9
    9
    9
    9
    9
    9
    9
    9
    9
    9
    9
    9
    9
    9
    9
    9
    9
    9
    9
    9
    9
    9
    9
    9
    9
    9
    9
    9
    9
    9
    9
    9
    9
    9
    9
    9
    9
    9
    9
    9
    9
    9
    9
    9
    9
    9
    9
    9
    9
    9
    9
    9
    9
    9
    9
    9
    9
    9
    9
    9
    9
    9
    9
    9
    9
    9
    9
    9
    9
    9
    9
    9
    9
    9
    9
    9
    9
    9
    9
    9
    9
    9
    9
    9
    9
    9
    9
    9
    9
    9
    9
    9
    9
    9
    9
    9
    9
    9
    9
    9
    9
    9
    9
    9
    9
    9
    9
    9
    9
    9
    9
    9
    9
    9
    9
    9
    9
    9
    9
    9
    9
    9
    9
    9
    9
    9
    9
    9
    9
    9
    9
    9
    9
    9
    9
    9
    9
    9
    9
    9
    9
    9
    9
    9
    9
    9
    9
    9
    9
    9
    9
    9
    9
    9
    9
    9
    9
    9
    9
    9
    9
    9
    9
    9
    9
    9
    9
    9
    9
    9
    9
    9
    9
    9
    9
    9
    9
    9
    9
    9
    9
    9
    9
    9
    9
    9
    9
    9
    9
    9
    9
    9
    9
    9
    9
    9
    9
    9
    9
    9
    9
    9
    9
    9
    9
    9
    9
    9
    9
    9
    9
    9
    9
    9
    9
    9
    9
    9
    9
    9
    9
    9
    9
    9
    9
    9
    9
    9
    9
    9
    9
    9
    9
    9
    9
    9
    9
    9
    9
    9
    9
    9
    9
    9
    9
    9
    9
    9
    9
    9
    9
    9
    9
    9
    9
    9
    9
    9
    9
    9
    9
    9
    9
    9
    9
    9
    9
    9
    9
    9
    9
    9
    9
    9
    9
    9
    9
    9
    9
    9
    9
    9
    9
    9
    9
    9
    9
    9
    9
    9
    9
    9
    9
    9
    9
    9
    9
    9
    9
    9
    9
    9
    9
    9
    9
    9
    9
    9
    9
    9
    9
    9
    9
    9
    9
    9
    9
    9
    9
    9
    9
    9
    9
    9
    9
    9
    9
    9
    9
    9
    9
    9
    9
    9
    9
    9
    9
    9
    9
    9
    9
    9
    9
    9
    9
    9
    9
    9
    9
    9
    9
    9
    9
    9
    9
    9
    9
    9
    9
    9
    9
    9
    9
    9
    9
    9
    9
    9
    9
    9
    9
    9
    9
    9
    9
    9
    9
    9
    9
    9
    9
    9
    9
    9
    9
    9
    9
    9
    9
    9
    9
    9
    9
    9
    9
    9
    9
    9
    9
    9
    9
    9
    9
    9
    9
    9
    9
    9
    9
    9
    9
    9
    9
    9
    9
    9
    9
    9
    9
    9
    9
    9
    9
    9
    9
    9
    9
    9
    9
    9
    9
    9
    9
    9
    9
    9
    9
    9
    9
    9
    9
    9
    9
    9
    9
    9
    9
    9
    9
    9
    9
    9
    9
    9
    9
    9
    9
    9
    9
    9
    9
    9
    9
    9
    9
    9
    9
    9
    9
    9
    9
    9
    9
    9
    9
    9
    9
    9
    9
    9
    9
    9
    9
    9
    9
    9
    9
    9
    9
    9
    9
    9
    9
    9
    9
    9
    9
    9
    9
    9
    9
    9
    9
    9
    9
    9
    9
    9
    9
    9
    9
    9
    9
    9
    9
    9
    9
    9
    9
    9
    9
    9
    9
    9
    9
    9
    9
    9
    9
    9
    9
    9
    9
    9
    9
    9
    9
    9
    9
    9
    9
    9
    9
    9
    9
    9
    9
    9
    9
    9
    9
    9
    9
    9
    9
    9
    9
    9
    9
    9
    9
    9
    9
    9
    9
    9
    9
    9
    9
    9
    9
    9
    9
    9
    9
    9
    9
    9
    9
    9
    9
    9
    9
    9
    9
    9
    9
    9
    9
    9
    9
    9
    9
    9
    9
    9
    9
    9
    9
    9
    9
    9
    9
    9
    9
    9
    9
    9
    9
    9
    9
    9
    9
    9
    9
    9
    9
    9
    9
    9
    9
    9
    9
    9
    9
    9
    9
    9
    9
    9
    9
    9
    9
    9
    9
    9
    9
    9
    9
    9
    9
    9
    9
    9
    9
    9
    9
    9
    9
    9
    9
    9
    9
    9
    9
    9
    9
    9
    9
    9
    9
    9
    9
    9
    9
    9
    9
    9
    9
    9
    9
    9
    9
    9
    9
    9
    9
    9
    9
    9
    9
    9
    9
    9
    9
    9
    9
    9
    9
    9
    9
    9
    9
    9
    9
    9
    9
    9
    9
    9
    9
    9
    9
    9
    9
    9
    9
    9
    9
    9
    9
    9
    9
    9
    9
    9
    9
    9
    9
    9
    9
    9
    9
    9
    9
    9
    9
    9
    9
    9
    9
    9
    9
    9
    9
    9
    9
    9
    9
    9
    9
    9
    9
    9
    9
    9
    9
    9
    9
    9
    9
    9
    9
    9
    9
    9
    9
    9
    9
    9
    9
    9
    9
    9
    9
    9
    9
    9
    9
    9
    9
    9
    9
    9
    9
    9
    9
    9
    9
    9
    9
    9
    9
    9
    9
    9
    9
    9
    9
    9
    9
    9
    9
    9
    9
    9
    9
    9
    9
    9
    9
    9
    9
    9
    9
    9
    9
    9
    9
    9
    9
    9
    9
    9
    9
    9
    9
POINT_DATA  2176
SCALARS displacement FLOAT     3
LOOKUP_TABLE default
-0.326620E-004  0.133301E-004  0.000000E+000
-0.306124E-004  0.134169E-004  0.000000E+000
-0.311197E-004  0.126341E-004  0.000000E+000
-0.291698E-004  0.127331E-004  0.000000E+000
-0.328390E-004  0.124041E-004  0.000000E+000
-0.313234E-004  0.117484E-004  0.000000E+000
-0.285533E-004  0.135209E-004  0.000000E+000
-0.272092E-004  0.128498E-004  0.000000E+000
-0.295863E-004  0.119379E-004  0.000000E+000
-0.277352E-004  0.120498E-004  0.000000E+000
-0.298175E-004  0.110920E-004  0.000000E+000
-0.258722E-004  0.121799E-004  0.000000E+000
-0.330387E-004  0.114752E-004  0.000000E+000
-0.315497E-004  0.108595E-004  0.000000E+000
-0.300717E-004  0.102426E-004  0.000000E+000
-0.264855E-004  0.136437E-004  0.000000E+000
-0.252388E-004  0.129859E-004  0.000000E+000
-0.239984E-004  0.123300E-004  0.000000E+000
-0.280632E-004  0.112416E-004  0.000000E+000
-0.263100E-004  0.113672E-004  0.000000E+000
-0.283234E-004  0.104350E-004  0.000000E+000
-0.245438E-004  0.115117E-004  0.000000E+000
-0.286069E-004  0.962458E-005  0.000000E+000
-0.227658E-004  0.116768E-004  0.000000E+000
-0.332624E-004  0.105453E-004  0.000000E+000
-0.318001E-004  0.996942E-005  0.000000E+000
-0.303502E-004  0.939198E-005  0.000000E+000
-0.289149E-004  0.881295E-005  0.000000E+000
-0.244102E-004  0.137868E-004  0.000000E+000
-0.232600E-004  0.131426E-004  0.000000E+000
-0.221155E-004  0.125013E-004  0.000000E+000
-0.209779E-004  0.118636E-004  0.000000E+000
-0.265527E-004  0.105454E-004  0.000000E+000
-0.248964E-004  0.106857E-004  0.000000E+000
-0.268435E-004  0.977737E-005  0.000000E+000
-0.232259E-004  0.108457E-004  0.000000E+000
-0.271580E-004  0.900548E-005  0.000000E+000
-0.215427E-004  0.110269E-004  0.000000E+000
-0.274975E-004  0.823241E-005  0.000000E+000
-0.198489E-004  0.112305E-004  0.000000E+000
-0.335110E-004  0.961713E-005  0.000000E+000
-0.320754E-004  0.908110E-005  0.000000E+000
-0.306536E-004  0.854317E-005  0.000000E+000
-0.292480E-004  0.800335E-005  0.000000E+000
-0.278621E-004  0.746163E-005  0.000000E+000
-0.223297E-004  0.139507E-004  0.000000E+000
-0.212753E-004  0.133206E-004  0.000000E+000
-0.202259E-004  0.126942E-004  0.000000E+000
-0.191827E-004  0.120725E-004  0.000000E+000
-0.181472E-004  0.114566E-004  0.000000E+000
-0.250577E-004  0.984967E-005  0.000000E+000
-0.234970E-004  0.100059E-004  0.000000E+000
-0.253811E-004  0.911957E-005  0.000000E+000
-0.219211E-004  0.101826E-004  0.000000E+000
-0.257287E-004  0.838554E-005  0.000000E+000
-0.203316E-004  0.103814E-004  0.000000E+000
-0.261017E-004  0.765047E-005  0.000000E+000
-0.187306E-004  0.106031E-004  0.000000E+000
-0.265002E-004  0.691819E-005  0.000000E+000
-0.171214E-004  0.108479E-004  0.000000E+000
-0.337843E-004  0.869416E-005  0.000000E+000
-0.323754E-004  0.819815E-005  0.000000E+000
-0.309815E-004  0.770004E-005  0.000000E+000
-0.296056E-004  0.719982E-005  0.000000E+000
-0.282513E-004  0.669751E-005  0.000000E+000
-0.269230E-004  0.619319E-005  0.000000E+000
-0.202467E-004  0.141353E-004  0.000000E+000
-0.192875E-004  0.135193E-004  0.000000E+000
-0.183328E-004  0.129082E-004  0.000000E+000
-0.173836E-004  0.123028E-004  0.000000E+000
-0.164413E-004  0.117044E-004  0.000000E+000
-0.155078E-004  0.111145E-004  0.000000E+000
-0.235821E-004  0.915510E-005  0.000000E+000
-0.221155E-004  0.932871E-005  0.000000E+000
-0.239404E-004  0.846206E-005  0.000000E+000
-0.206327E-004  0.952370E-005  0.000000E+000
-0.243237E-004  0.776509E-005  0.000000E+000
-0.191353E-004  0.974149E-005  0.000000E+000
-0.247329E-004  0.706753E-005  0.000000E+000
-0.176260E-004  0.998310E-005  0.000000E+000
-0.251676E-004  0.637319E-005  0.000000E+000
-0.161080E-004  0.102481E-004  0.000000E+000
-0.256268E-004  0.568711E-005  0.000000E+000
-0.145854E-004  0.105353E-004  0.000000E+000
-0.340810E-004  0.778056E-005  0.000000E+000
-0.326984E-004  0.732498E-005  0.000000E+000
-0.313323E-004  0.686720E-005  0.000000E+000
-0.299857E-004  0.640725E-005  0.000000E+000
-0.286625E-004  0.594510E-005  0.000000E+000
-0.273676E-004  0.548086E-005  0.000000E+000
-0.261070E-004  0.501478E-005  0.000000E+000
-0.181646E-004  0.143387E-004  0.000000E+000
-0.173004E-004  0.137372E-004  0.000000E+000
-0.164401E-004  0.131413E-004  0.000000E+000
-0.155847E-004  0.125522E-004  0.000000E+000
-0.147356E-004  0.119713E-004  0.000000E+000
-0.138942E-004  0.114003E-004  0.000000E+000
-0.130630E-004  0.108412E-004  0.000000E+000
-0.221312E-004  0.846266E-005  0.000000E+000
-0.207570E-004  0.865536E-005  0.000000E+000
-0.225275E-004  0.780559E-005  0.000000E+000
-0.193653E-004  0.887044E-005  0.000000E+000
-0.229496E-004  0.714497E-005  0.000000E+000
-0.179585E-004  0.910940E-005  0.000000E+000
-0.233978E-004  0.648399E-005  0.000000E+000
-0.165390E-004  0.937255E-005  0.000000E+000
-0.238721E-004  0.582730E-005  0.000000E+000
-0.151107E-004  0.965990E-005  0.000000E+000
-0.243704E-004  0.517983E-005  0.000000E+000
-0.136777E-004  0.996918E-005  0.000000E+000
-0.248890E-004  0.454742E-005  0.000000E+000
-0.122452E-004  0.102969E-004  0.000000E+000
-0.343980E-004  0.688119E-005  0.000000E+000
-0.330411E-004  0.646664E-005  0.000000E+000
-0.317021E-004  0.604994E-005  0.000000E+000
-0.303842E-004  0.563110E-005  0.000000E+000
-0.290914E-004  0.521013E-005  0.000000E+000
-0.278289E-004  0.478712E-005  0.000000E+000
-0.266030E-004  0.436233E-005  0.000000E+000
-0.254221E-004  0.393643E-005  0.000000E+000
-0.160875E-004  0.145578E-004  0.000000E+000
-0.153182E-004  0.139704E-004  0.000000E+000
-0.145523E-004  0.133896E-004  0.000000E+000
-0.137908E-004  0.128166E-004  0.000000E+000
-0.130348E-004  0.122528E-004  0.000000E+000
-0.122858E-004  0.117001E-004  0.000000E+000
-0.115460E-004  0.111606E-004  0.000000E+000
-0.108183E-004  0.106372E-004  0.000000E+000
-0.207125E-004  0.777385E-005  0.000000E+000
-0.194281E-004  0.798784E-005  0.000000E+000
-0.211505E-004  0.715168E-005  0.000000E+000
-0.181255E-004  0.822542E-005  0.000000E+000
-0.216148E-004  0.652605E-005  0.000000E+000
-0.168067E-004  0.848745E-005  0.000000E+000
-0.221062E-004  0.590130E-005  0.000000E+000
-0.154753E-004  0.877495E-005  0.000000E+000
-0.226233E-004  0.528158E-005  0.000000E+000
-0.141347E-004  0.908637E-005  0.000000E+000
-0.231641E-004  0.467246E-005  0.000000E+000
-0.127897E-004  0.941986E-005  0.000000E+000
-0.237243E-004  0.408010E-005  0.000000E+000
-0.114454E-004  0.977102E-005  0.000000E+000
-0.242971E-004  0.351082E-005  0.000000E+000
-0.101071E-004  0.101335E-004  0.000000E+000
-0.347302E-004  0.600129E-005  0.000000E+000
-0.333980E-004  0.562857E-005  0.000000E+000
-0.320851E-004  0.525388E-005  0.000000E+000
-0.307947E-004  0.487723E-005  0.000000E+000
-0.295312E-004  0.449861E-005  0.000000E+000
-0.282997E-004  0.411812E-005  0.000000E+000
-0.271068E-004  0.373608E-005  0.000000E+000
-0.259610E-004  0.335322E-005  0.000000E+000
-0.248732E-004  0.297103E-005  0.000000E+000
-0.140198E-004  0.147871E-004  0.000000E+000
-0.133453E-004  0.142134E-004  0.000000E+000
-0.126740E-004  0.136472E-004  0.000000E+000
-0.120065E-004  0.130896E-004  0.000000E+000
-0.113440E-004  0.125423E-004  0.000000E+000
-0.106877E-004  0.120070E-004  0.000000E+000
-0.100396E-004  0.114859E-004  0.000000E+000
-0.940243E-005  0.109820E-004  0.000000E+000
-0.878026E-005  0.104986E-004  0.000000E+000
-0.193368E-004  0.709138E-005  0.000000E+000
-0.181393E-004  0.732935E-005  0.000000E+000
-0.198209E-004  0.650231E-005  0.000000E+000
-0.169223E-004  0.759187E-005  0.000000E+000
-0.203325E-004  0.591124E-005  0.000000E+000
-0.156895E-004  0.788055E-005  0.000000E+000
-0.208708E-004  0.532133E-005  0.000000E+000
-0.144431E-004  0.819417E-005  0.000000E+000
-0.214353E-004  0.473823E-005  0.000000E+000
-0.131881E-004  0.853253E-005  0.000000E+000
-0.220227E-004  0.416758E-005  0.000000E+000
-0.119289E-004  0.889218E-005  0.000000E+000
-0.226276E-004  0.361539E-005  0.000000E+000
-0.106708E-004  0.926835E-005  0.000000E+000
-0.232428E-004  0.308822E-005  0.000000E+000
-0.941923E-005  0.965404E-005  0.000000E+000
-0.238582E-004  0.259243E-005  0.000000E+000
-0.817938E-005  0.100400E-004  0.000000E+000
-0.350697E-004  0.514610E-005  0.000000E+000
-0.337610E-004  0.481618E-005  0.000000E+000
-0.324727E-004  0.448460E-005  0.000000E+000
-0.312084E-004  0.415133E-005  0.000000E+000
-0.299724E-004  0.381635E-005  0.000000E+000
-0.287700E-004  0.347977E-005  0.000000E+000
-0.276078E-004  0.314195E-005  0.000000E+000
-0.264943E-004  0.280368E-005  0.000000E+000
-0.254405E-004  0.246656E-005  0.000000E+000
-0.244608E-004  0.213360E-005  0.000000E+000
-0.119655E-004  0.150192E-004  0.000000E+000
-0.113862E-004  0.144585E-004  0.000000E+000
-0.108097E-004  0.139059E-004  0.000000E+000
-0.102366E-004  0.133628E-004  0.000000E+000
-0.966788E-005  0.128306E-004  0.000000E+000
-0.910462E-005  0.123114E-004  0.000000E+000
-0.854859E-005  0.118072E-004  0.000000E+000
-0.800227E-005  0.113208E-004  0.000000E+000
-0.746940E-005  0.108554E-004  0.000000E+000
-0.695566E-005  0.104148E-004  0.000000E+000
-0.180204E-004  0.641959E-005  0.000000E+000
-0.169052E-004  0.668498E-005  0.000000E+000
-0.185565E-004  0.586278E-005  0.000000E+000
-0.157711E-004  0.697669E-005  0.000000E+000
-0.191201E-004  0.530375E-005  0.000000E+000
-0.146196E-004  0.729377E-005  0.000000E+000
-0.197117E-004  0.474872E-005  0.000000E+000
-0.134557E-004  0.763775E-005  0.000000E+000
-0.203283E-004  0.420221E-005  0.000000E+000
-0.122832E-004  0.800521E-005  0.000000E+000
-0.209660E-004  0.366986E-005  0.000000E+000
-0.111070E-004  0.839299E-005  0.000000E+000
-0.216193E-004  0.315832E-005  0.000000E+000
-0.993264E-005  0.879548E-005  0.000000E+000
-0.222796E-004  0.267405E-005  0.000000E+000
-0.876523E-005  0.920496E-005  0.000000E+000
-0.229358E-004  0.222306E-005  0.000000E+000
-0.760971E-005  0.961155E-005  0.000000E+000
-0.235743E-004  0.181046E-005  0.000000E+000
-0.647015E-005  0.100035E-004  0.000000E+000
-0.354065E-004  0.432026E-005  0.000000E+000
-0.341195E-004  0.403428E-005  0.000000E+000
-0.328540E-004  0.374701E-005  0.000000E+000
-0.316136E-004  0.345837E-005  0.000000E+000
-0.304028E-004  0.316835E-005  0.000000E+000
-0.292268E-004  0.287705E-005  0.000000E+000
-0.280924E-004  0.258487E-005  0.000000E+000
-0.270080E-004  0.229264E-005  0.000000E+000
-0.259843E-004  0.200198E-005  0.000000E+000
-0.250353E-004  0.171589E-005  0.000000E+000
-0.241794E-004  0.143990E-005  0.000000E+000
-0.992824E-005  0.152445E-004  0.000000E+000
-0.944445E-005  0.146956E-004  0.000000E+000
-0.896315E-005  0.141554E-004  0.000000E+000
-0.848483E-005  0.136253E-004  0.000000E+000
-0.801022E-005  0.131068E-004  0.000000E+000
-0.754035E-005  0.126018E-004  0.000000E+000
-0.707671E-005  0.121125E-004  0.000000E+000
-0.662150E-005  0.116413E-004  0.000000E+000
-0.617801E-005  0.111912E-004  0.000000E+000
-0.575128E-005  0.107655E-004  0.000000E+000
-0.534932E-005  0.103678E-004  0.000000E+000
-0.167884E-004  0.576747E-005  0.000000E+000
-0.157513E-004  0.606468E-005  0.000000E+000
-0.173835E-004  0.523951E-005  0.000000E+000
-0.146933E-004  0.638780E-005  0.000000E+000
-0.180076E-004  0.471383E-005  0.000000E+000
-0.136200E-004  0.673967E-005  0.000000E+000
-0.186576E-004  0.419256E-005  0.000000E+000
-0.125341E-004  0.711574E-005  0.000000E+000
-0.193314E-004  0.368203E-005  0.000000E+000
-0.114403E-004  0.751485E-005  0.000000E+000
-0.200245E-004  0.318889E-005  0.000000E+000
-0.103438E-004  0.793228E-005  0.000000E+000
-0.207294E-004  0.271923E-005  0.000000E+000
-0.924968E-005  0.836149E-005  0.000000E+000
-0.214364E-004  0.227900E-005  0.000000E+000
-0.816287E-005  0.879401E-005  0.000000E+000
-0.221336E-004  0.187371E-005  0.000000E+000
-0.708777E-005  0.921948E-005  0.000000E+000
-0.228070E-004  0.150783E-005  0.000000E+000
-0.602787E-005  0.962599E-005  0.000000E+000
-0.234404E-004  0.118425E-005  0.000000E+000
-0.498533E-005  0.100005E-004  0.000000E+000
-0.357280E-004  0.352715E-005  0.000000E+000
-0.344604E-004  0.328629E-005  0.000000E+000
-0.332152E-004  0.304456E-005  0.000000E+000
-0.319962E-004  0.280181E-005  0.000000E+000
-0.308077E-004  0.255801E-005  0.000000E+000
-0.296551E-004  0.231327E-005  0.000000E+000
-0.285450E-004  0.206799E-005  0.000000E+000
-0.274858E-004  0.182301E-005  0.000000E+000
-0.264878E-004  0.157988E-005  0.000000E+000
-0.255647E-004  0.134148E-005  0.000000E+000
-0.247336E-004  0.111294E-005  0.000000E+000
-0.240165E-004  0.903677E-006  0.000000E+000
-0.791007E-005  0.154520E-004  0.000000E+000
-0.752223E-005  0.149133E-004  0.000000E+000
-0.713655E-005  0.143838E-004  0.000000E+000
-0.675337E-005  0.138650E-004  0.000000E+000
-0.637326E-005  0.133582E-004  0.000000E+000
-0.599707E-005  0.128654E-004  0.000000E+000
-0.562606E-005  0.123884E-004  0.000000E+000
-0.526206E-005  0.119298E-004  0.000000E+000
-0.490785E-005  0.114922E-004  0.000000E+000
-0.456770E-005  0.110783E-004  0.000000E+000
-0.424833E-005  0.106905E-004  0.000000E+000
-0.396080E-005  0.103299E-004  0.000000E+000
-0.156846E-004  0.515089E-005  0.000000E+000
-0.147163E-004  0.548429E-005  0.000000E+000
-0.163481E-004  0.465380E-005  0.000000E+000
-0.137304E-004  0.584758E-005  0.000000E+000
-0.170385E-004  0.415679E-005  0.000000E+000
-0.127283E-004  0.623410E-005  0.000000E+000
-0.177549E-004  0.366974E-005  0.000000E+000
-0.117150E-004  0.664605E-005  0.000000E+000
-0.184926E-004  0.319762E-005  0.000000E+000
-0.106952E-004  0.707820E-005  0.000000E+000
-0.192441E-004  0.274554E-005  0.000000E+000
-0.967352E-005  0.752493E-005  0.000000E+000
-0.200015E-004  0.231922E-005  0.000000E+000
-0.865472E-005  0.797887E-005  0.000000E+000
-0.207545E-004  0.192429E-005  0.000000E+000
-0.764313E-005  0.843089E-005  0.000000E+000
-0.214902E-004  0.156556E-005  0.000000E+000
-0.664233E-005  0.887030E-005  0.000000E+000
-0.221941E-004  0.124646E-005  0.000000E+000
-0.565488E-005  0.928531E-005  0.000000E+000
-0.228500E-004  0.968589E-006  0.000000E+000
-0.468211E-005  0.966360E-005  0.000000E+000
-0.234413E-004  0.731522E-006  0.000000E+000
-0.372407E-005  0.999306E-005  0.000000E+000
-0.360199E-004  0.276808E-005  0.000000E+000
-0.347690E-004  0.257356E-005  0.000000E+000
-0.335413E-004  0.237854E-005  0.000000E+000
-0.323405E-004  0.218283E-005  0.000000E+000
-0.311710E-004  0.198637E-005  0.000000E+000
-0.300382E-004  0.178929E-005  0.000000E+000
-0.289484E-004  0.159196E-005  0.000000E+000
-0.279101E-004  0.139515E-005  0.000000E+000
-0.269332E-004  0.120029E-005  0.000000E+000
-0.260308E-004  0.100991E-005  0.000000E+000
-0.252190E-004  0.828551E-006  0.000000E+000
-0.245179E-004  0.664394E-006  0.000000E+000
-0.239517E-004  0.532670E-006  0.000000E+000
-0.591122E-005  0.156297E-004  0.000000E+000
-0.561981E-005  0.150994E-004  0.000000E+000
-0.533015E-005  0.145787E-004  0.000000E+000
-0.504245E-005  0.140690E-004  0.000000E+000
-0.475713E-005  0.135717E-004  0.000000E+000
-0.447485E-005  0.130885E-004  0.000000E+000
-0.419658E-005  0.126214E-004  0.000000E+000
-0.392377E-005  0.121726E-004  0.000000E+000
-0.365858E-005  0.117444E-004  0.000000E+000
-0.340437E-005  0.113392E-004  0.000000E+000
-0.316639E-005  0.109584E-004  0.000000E+000
-0.295324E-005  0.106015E-004  0.000000E+000
-0.277957E-005  0.102625E-004  0.000000E+000
-0.147851E-004  0.460766E-005  0.000000E+000
-0.138793E-004  0.498573E-005  0.000000E+000
-0.155280E-004  0.413429E-005  0.000000E+000
-0.129547E-004  0.538489E-005  0.000000E+000
-0.162964E-004  0.367417E-005  0.000000E+000
-0.120161E-004  0.581262E-005  0.000000E+000
-0.170851E-004  0.322481E-005  0.000000E+000
-0.110680E-004  0.626002E-005  0.000000E+000
-0.178871E-004  0.279227E-005  0.000000E+000
-0.101147E-004  0.672262E-005  0.000000E+000
-0.186964E-004  0.238278E-005  0.000000E+000
-0.916061E-005  0.719365E-005  0.000000E+000
-0.195035E-004  0.200200E-005  0.000000E+000
-0.820943E-005  0.766479E-005  0.000000E+000
-0.202964E-004  0.165436E-005  0.000000E+000
-0.726420E-005  0.812637E-005  0.000000E+000
-0.210613E-004  0.134288E-005  0.000000E+000
-0.632704E-005  0.856786E-005  0.000000E+000
-0.217836E-004  0.106897E-005  0.000000E+000
-0.539920E-005  0.897841E-005  0.000000E+000
-0.224482E-004  0.832414E-006  0.000000E+000
-0.448102E-005  0.934736E-005  0.000000E+000
-0.230405E-004  0.631400E-006  0.000000E+000
-0.357207E-005  0.966469E-005  0.000000E+000
-0.235464E-004  0.462590E-006  0.000000E+000
-0.267128E-005  0.992152E-005  0.000000E+000
-0.362673E-004  0.204167E-005  0.000000E+000
-0.350299E-004  0.189462E-005  0.000000E+000
-0.338164E-004  0.174735E-005  0.000000E+000
-0.326303E-004  0.159967E-005  0.000000E+000
-0.314760E-004  0.145150E-005  0.000000E+000
-0.303588E-004  0.130296E-005  0.000000E+000
-0.292852E-004  0.115436E-005  0.000000E+000
-0.282632E-004  0.100636E-005  0.000000E+000
-0.273026E-004  0.860133E-006  0.000000E+000
-0.264159E-004  0.717761E-006  0.000000E+000
-0.256182E-004  0.582902E-006  0.000000E+000
-0.249280E-004  0.462102E-006  0.000000E+000
-0.243663E-004  0.367363E-006  0.000000E+000
-0.239538E-004  0.321292E-006  0.000000E+000
-0.392972E-005  0.157665E-004  0.000000E+000
-0.373517E-005  0.152424E-004  0.000000E+000
-0.354186E-005  0.147282E-004  0.000000E+000
-0.334991E-005  0.142251E-004  0.000000E+000
-0.315959E-005  0.137347E-004  0.000000E+000
-0.297135E-005  0.132585E-004  0.000000E+000
-0.278585E-005  0.127985E-004  0.000000E+000
-0.260410E-005  0.123567E-004  0.000000E+000
-0.242760E-005  0.119351E-004  0.000000E+000
-0.225863E-005  0.115358E-004  0.000000E+000
-0.210082E-005  0.111594E-004  0.000000E+000
-0.196006E-005  0.108043E-004  0.000000E+000
-0.184631E-005  0.104624E-004  0.000000E+000
-0.177703E-005  0.101105E-004  0.000000E+000
-0.142544E-004  0.422216E-005  0.000000E+000
-0.133935E-004  0.463605E-005  0.000000E+000
-0.150821E-004  0.379054E-005  0.000000E+000
-0.125160E-004  0.508310E-005  0.000000E+000
-0.159285E-004  0.335996E-005  0.000000E+000
-0.116290E-004  0.554408E-005  0.000000E+000
-0.167862E-004  0.294862E-005  0.000000E+000
-0.107355E-004  0.601795E-005  0.000000E+000
-0.176500E-004  0.256123E-005  0.000000E+000
-0.983859E-005  0.649737E-005  0.000000E+000
-0.185082E-004  0.220151E-005  0.000000E+000
-0.894024E-005  0.697421E-005  0.000000E+000
-0.193486E-004  0.187175E-005  0.000000E+000
-0.804199E-005  0.743972E-005  0.000000E+000
-0.201584E-004  0.157306E-005  0.000000E+000
-0.714471E-005  0.788500E-005  0.000000E+000
-0.209249E-004  0.130541E-005  0.000000E+000
-0.624878E-005  0.830135E-005  0.000000E+000
-0.216356E-004  0.106777E-005  0.000000E+000
-0.535421E-005  0.868054E-005  0.000000E+000
-0.222786E-004  0.858194E-006  0.000000E+000
-0.446077E-005  0.901502E-005  0.000000E+000
-0.228430E-004  0.673963E-006  0.000000E+000
-0.356812E-005  0.929817E-005  0.000000E+000
-0.233190E-004  0.511700E-006  0.000000E+000
-0.267593E-005  0.952436E-005  0.000000E+000
-0.236982E-004  0.367530E-006  0.000000E+000
-0.178393E-005  0.968916E-005  0.000000E+000
-0.364562E-004  0.134351E-005  0.000000E+000
-0.352287E-004  0.124489E-005  0.000000E+000
-0.340255E-004  0.114621E-005  0.000000E+000
-0.328502E-004  0.104732E-005  0.000000E+000
-0.317070E-004  0.948156E-006  0.000000E+000
-0.306012E-004  0.848791E-006  0.000000E+000
-0.295392E-004  0.749465E-006  0.000000E+000
-0.285288E-004  0.650647E-006  0.000000E+000
-0.275798E-004  0.553185E-006  0.000000E+000
-0.267040E-004  0.458552E-006  0.000000E+000
-0.259158E-004  0.369325E-006  0.000000E+000
-0.252323E-004  0.290066E-006  0.000000E+000
-0.246724E-004  0.229053E-006  0.000000E+000
-0.242526E-004  0.201676E-006  0.000000E+000
-0.239740E-004  0.237211E-006  0.000000E+000
-0.196133E-005  0.158528E-004  0.000000E+000
-0.186396E-005  0.153325E-004  0.000000E+000
-0.176724E-005  0.148223E-004  0.000000E+000
-0.167122E-005  0.143233E-004  0.000000E+000
-0.157604E-005  0.138371E-004  0.000000E+000
-0.148190E-005  0.133652E-004  0.000000E+000
-0.138917E-005  0.129094E-004  0.000000E+000
-0.129834E-005  0.124717E-004  0.000000E+000
-0.121018E-005  0.120541E-004  0.000000E+000
-0.112587E-005  0.116581E-004  0.000000E+000
-0.104724E-005  0.112841E-004  0.000000E+000
-0.977297E-006  0.109296E-004  0.000000E+000
-0.921067E-006  0.105854E-004  0.000000E+000
-0.887343E-006  0.102262E-004  0.000000E+000
-0.891972E-006  0.978933E-005  0.000000E+000
-0.144423E-004  0.422314E-005  0.000000E+000
-0.136101E-004  0.468384E-005  0.000000E+000
-0.153587E-004  0.381924E-005  0.000000E+000
-0.127760E-004  0.513671E-005  0.000000E+000
-0.162727E-004  0.345571E-005  0.000000E+000
-0.119312E-004  0.559412E-005  0.000000E+000
-0.171782E-004  0.311314E-005  0.000000E+000
-0.110756E-004  0.604567E-005  0.000000E+000
-0.180602E-004  0.279124E-005  0.000000E+000
-0.102091E-004  0.648478E-005  0.000000E+000
-0.189089E-004  0.248895E-005  0.000000E+000
-0.933155E-005  0.690512E-005  0.000000E+000
-0.197151E-004  0.220514E-005  0.000000E+000
-0.844290E-005  0.730107E-005  0.000000E+000
-0.204703E-004  0.193838E-005  0.000000E+000
-0.754299E-005  0.766761E-005  0.000000E+000
-0.211670E-004  0.168695E-005  0.000000E+000
-0.663182E-005  0.800034E-005  0.000000E+000
-0.217981E-004  0.144897E-005  0.000000E+000
-0.570961E-005  0.829554E-005  0.000000E+000
-0.223576E-004  0.122246E-005  0.000000E+000
-0.477689E-005  0.855007E-005  0.000000E+000
-0.228399E-004  0.100541E-005  0.000000E+000
-0.383453E-005  0.876143E-005  0.000000E+000
-0.232406E-004  0.795919E-006  0.000000E+000
-0.288383E-005  0.892768E-005  0.000000E+000
-0.235561E-004  0.592193E-006  0.000000E+000
-0.192645E-005  0.904738E-005  0.000000E+000
-0.237834E-004  0.392597E-006  0.000000E+000
-0.964424E-006  0.911958E-005  0.000000E+000
-0.365746E-004  0.666210E-006  0.000000E+000
-0.353533E-004  0.616712E-006  0.000000E+000
-0.341564E-004  0.567226E-006  0.000000E+000
-0.329877E-004  0.517648E-006  0.000000E+000
-0.318512E-004  0.467949E-006  0.000000E+000
-0.307523E-004  0.418169E-006  0.000000E+000
-0.296973E-004  0.368433E-006  0.000000E+000
-0.286940E-004  0.318988E-006  0.000000E+000
-0.277518E-004  0.270277E-006  0.000000E+000
-0.268823E-004  0.223066E-006  0.000000E+000
-0.260995E-004  0.178683E-006  0.000000E+000
-0.254196E-004  0.139473E-006  0.000000E+000
-0.248601E-004  0.109657E-006  0.000000E+000
-0.244349E-004  0.970210E-007  0.000000E+000
-0.241415E-004  0.116248E-006  0.000000E+000
-0.239206E-004  0.195653E-006  0.000000E+000
 0.192036E-020  0.158823E-004  0.000000E+000
 0.312192E-016  0.153633E-004  0.000000E+000
 0.693629E-017  0.148544E-004  0.000000E+000
-0.100619E-015  0.143568E-004  0.000000E+000
 0.624495E-016  0.138720E-004  0.000000E+000
-0.693745E-017  0.134015E-004  0.000000E+000
 0.347034E-017  0.129471E-004  0.000000E+000
-0.156119E-015  0.125109E-004  0.000000E+000
 0.346982E-016  0.120945E-004  0.000000E+000
 0.485793E-016  0.116996E-004  0.000000E+000
-0.312197E-016  0.113263E-004  0.000000E+000
-0.208132E-016  0.109720E-004  0.000000E+000
 0.346839E-016  0.106269E-004  0.000000E+000
-0.832764E-016  0.102651E-004  0.000000E+000
 0.692063E-017  0.982294E-005  0.000000E+000
-0.138821E-016  0.914370E-005  0.000000E+000
-0.165787E-004  0.550271E-005  0.000000E+000
-0.157893E-004  0.576385E-005  0.000000E+000
-0.173995E-004  0.527813E-005  0.000000E+000
-0.149361E-004  0.602765E-005  0.000000E+000
-0.181778E-004  0.500213E-005  0.000000E+000
-0.140388E-004  0.627256E-005  0.000000E+000
-0.189035E-004  0.470751E-005  0.000000E+000
-0.131027E-004  0.650047E-005  0.000000E+000
-0.195796E-004  0.439746E-005  0.000000E+000
-0.121320E-004  0.671080E-005  0.000000E+000
-0.202053E-004  0.407446E-005  0.000000E+000
-0.111298E-004  0.690348E-005  0.000000E+000
-0.207802E-004  0.373999E-005  0.000000E+000
-0.100990E-004  0.707832E-005  0.000000E+000
-0.213033E-004  0.339527E-005  0.000000E+000
-0.904249E-005  0.723516E-005  0.000000E+000
-0.217737E-004  0.304138E-005  0.000000E+000
-0.796298E-005  0.737384E-005  0.000000E+000
-0.221908E-004  0.267933E-005  0.000000E+000
-0.686328E-005  0.749425E-005  0.000000E+000
-0.225538E-004  0.231010E-005  0.000000E+000
-0.574619E-005  0.759627E-005  0.000000E+000
-0.228620E-004  0.193467E-005  0.000000E+000
-0.461454E-005  0.767983E-005  0.000000E+000
-0.231149E-004  0.155404E-005  0.000000E+000
-0.347118E-005  0.774487E-005  0.000000E+000
-0.233121E-004  0.116922E-005  0.000000E+000
-0.231903E-005  0.779135E-005  0.000000E+000
-0.234532E-004  0.781247E-006  0.000000E+000
-0.116099E-005  0.781924E-005  0.000000E+000
-0.235379E-004  0.391154E-006  0.000000E+000
 0.416306E-016  0.782854E-005  0.000000E+000
-0.366150E-004 -0.130168E-020  0.000000E+000
-0.353957E-004 -0.143099E-015  0.000000E+000
-0.342010E-004  0.247386E-016  0.000000E+000
-0.330345E-004  0.149863E-016  0.000000E+000
-0.319003E-004  0.100642E-015  0.000000E+000
-0.308037E-004  0.859115E-016  0.000000E+000
-0.297510E-004 -0.172328E-015  0.000000E+000
-0.287500E-004 -0.953592E-016  0.000000E+000
-0.278101E-004  0.166360E-015  0.000000E+000
-0.269427E-004 -0.578451E-016  0.000000E+000
-0.261617E-004 -0.798275E-017  0.000000E+000
-0.254829E-004 -0.747788E-016  0.000000E+000
-0.249234E-004  0.699956E-016  0.000000E+000
-0.244963E-004  0.650680E-016  0.000000E+000
-0.241976E-004 -0.125793E-015  0.000000E+000
-0.239664E-004 -0.485588E-016  0.000000E+000
-0.235662E-004 -0.391666E-019  0.000000E+000
 0.196133E-005  0.158528E-004  0.000000E+000
 0.186396E-005  0.153325E-004  0.000000E+000
 0.176724E-005  0.148223E-004  0.000000E+000
 0.167122E-005  0.143233E-004  0.000000E+000
 0.157604E-005  0.138371E-004  0.000000E+000
 0.148190E-005  0.133652E-004  0.000000E+000
 0.138917E-005  0.129094E-004  0.000000E+000
 0.129834E-005  0.124717E-004  0.000000E+000
 0.121018E-005  0.120541E-004  0.000000E+000
 0.112587E-005  0.116581E-004  0.000000E+000
 0.104724E-005  0.112841E-004  0.000000E+000
 0.977297E-006  0.109296E-004  0.000000E+000
 0.921067E-006  0.105854E-004  0.000000E+000
 0.887343E-006  0.102262E-004  0.000000E+000
 0.891972E-006  0.978933E-005  0.000000E+000
 0.964424E-006  0.911958E-005  0.000000E+000
 0.116099E-005  0.781924E-005  0.000000E+000
-0.365746E-004 -0.666210E-006  0.000000E+000
-0.353533E-004 -0.616712E-006  0.000000E+000
-0.341564E-004 -0.567226E-006  0.000000E+000
-0.329877E-004 -0.517648E-006  0.000000E+000
-0.318512E-004 -0.467949E-006  0.000000E+000
-0.307523E-004 -0.418169E-006  0.000000E+000
-0.296973E-004 -0.368433E-006  0.000000E+000
-0.286940E-004 -0.318988E-006  0.000000E+000
-0.277518E-004 -0.270277E-006  0.000000E+000
-0.268823E-004 -0.223066E-006  0.000000E+000
-0.260995E-004 -0.178683E-006  0.000000E+000
-0.254196E-004 -0.139473E-006  0.000000E+000
-0.248601E-004 -0.109657E-006  0.000000E+000
-0.244349E-004 -0.970210E-007  0.000000E+000
-0.241415E-004 -0.116248E-006  0.000000E+000
-0.239206E-004 -0.195653E-006  0.000000E+000
-0.235379E-004 -0.391154E-006  0.000000E+000
 0.392972E-005  0.157665E-004  0.000000E+000
 0.373517E-005  0.152424E-004  0.000000E+000
 0.354186E-005  0.147282E-004  0.000000E+000
 0.334991E-005  0.142251E-004  0.000000E+000
 0.315959E-005  0.137347E-004  0.000000E+000
 0.297135E-005  0.132585E-004  0.000000E+000
 0.278585E-005  0.127985E-004  0.000000E+000
 0.260410E-005  0.123567E-004  0.000000E+000
 0.242760E-005  0.119351E-004  0.000000E+000
 0.225863E-005  0.115358E-004  0.000000E+000
 0.210082E-005  0.111594E-004  0.000000E+000
 0.196006E-005  0.108043E-004  0.000000E+000
 0.184631E-005  0.104624E-004  0.000000E+000
 0.177703E-005  0.101105E-004  0.000000E+000
 0.178393E-005  0.968916E-005  0.000000E+000
 0.192645E-005  0.904738E-005  0.000000E+000
 0.231903E-005  0.779135E-005  0.000000E+000
-0.364562E-004 -0.134351E-005  0.000000E+000
-0.352287E-004 -0.124489E-005  0.000000E+000
-0.340255E-004 -0.114621E-005  0.000000E+000
-0.328502E-004 -0.104732E-005  0.000000E+000
-0.317070E-004 -0.948156E-006  0.000000E+000
-0.306012E-004 -0.848791E-006  0.000000E+000
-0.295392E-004 -0.749465E-006  0.000000E+000
-0.285288E-004 -0.650647E-006  0.000000E+000
-0.275798E-004 -0.553185E-006  0.000000E+000
-0.267040E-004 -0.458552E-006  0.000000E+000
-0.259158E-004 -0.369325E-006  0.000000E+000
-0.252323E-004 -0.290066E-006  0.000000E+000
-0.246724E-004 -0.229053E-006  0.000000E+000
-0.242526E-004 -0.201676E-006  0.000000E+000
-0.239740E-004 -0.237211E-006  0.000000E+000
-0.237834E-004 -0.392597E-006  0.000000E+000
-0.234532E-004 -0.781247E-006  0.000000E+000
 0.591122E-005  0.156297E-004  0.000000E+000
 0.561981E-005  0.150994E-004  0.000000E+000
 0.533015E-005  0.145787E-004  0.000000E+000
 0.504245E-005  0.140690E-004  0.000000E+000
 0.475713E-005  0.135717E-004  0.000000E+000
 0.447485E-005  0.130885E-004  0.000000E+000
 0.419658E-005  0.126214E-004  0.000000E+000
 0.392377E-005  0.121726E-004  0.000000E+000
 0.365858E-005  0.117444E-004  0.000000E+000
 0.340437E-005  0.113392E-004  0.000000E+000
 0.316639E-005  0.109584E-004  0.000000E+000
 0.295324E-005  0.106015E-004  0.000000E+000
 0.277957E-005  0.102625E-004  0.000000E+000
 0.267128E-005  0.992152E-005  0.000000E+000
 0.267593E-005  0.952436E-005  0.000000E+000
 0.288383E-005  0.892768E-005  0.000000E+000
 0.347118E-005  0.774487E-005  0.000000E+000
-0.362673E-004 -0.204167E-005  0.000000E+000
-0.350299E-004 -0.189462E-005  0.000000E+000
-0.338164E-004 -0.174735E-005  0.000000E+000
-0.326303E-004 -0.159967E-005  0.000000E+000
-0.314760E-004 -0.145150E-005  0.000000E+000
-0.303588E-004 -0.130296E-005  0.000000E+000
-0.292852E-004 -0.115436E-005  0.000000E+000
-0.282632E-004 -0.100636E-005  0.000000E+000
-0.273026E-004 -0.860133E-006  0.000000E+000
-0.264159E-004 -0.717761E-006  0.000000E+000
-0.256182E-004 -0.582902E-006  0.000000E+000
-0.249280E-004 -0.462102E-006  0.000000E+000
-0.243663E-004 -0.367363E-006  0.000000E+000
-0.239538E-004 -0.321292E-006  0.000000E+000
-0.236982E-004 -0.367530E-006  0.000000E+000
-0.235561E-004 -0.592193E-006  0.000000E+000
-0.233121E-004 -0.116922E-005  0.000000E+000
 0.791007E-005  0.154520E-004  0.000000E+000
 0.752223E-005  0.149133E-004  0.000000E+000
 0.713655E-005  0.143838E-004  0.000000E+000
 0.675337E-005  0.138650E-004  0.000000E+000
 0.637326E-005  0.133582E-004  0.000000E+000
 0.599707E-005  0.128654E-004  0.000000E+000
 0.562606E-005  0.123884E-004  0.000000E+000
 0.526206E-005  0.119298E-004  0.000000E+000
 0.490785E-005  0.114922E-004  0.000000E+000
 0.456770E-005  0.110783E-004  0.000000E+000
 0.424833E-005  0.106905E-004  0.000000E+000
 0.396080E-005  0.103299E-004  0.000000E+000
 0.372407E-005  0.999306E-005  0.000000E+000
 0.357207E-005  0.966469E-005  0.000000E+000
 0.356812E-005  0.929817E-005  0.000000E+000
 0.383453E-005  0.876143E-005  0.000000E+000
 0.461454E-005  0.767983E-005  0.000000E+000
-0.360199E-004 -0.276808E-005  0.000000E+000
-0.347690E-004 -0.257356E-005  0.000000E+000
-0.335413E-004 -0.237854E-005  0.000000E+000
-0.323405E-004 -0.218283E-005  0.000000E+000
-0.311710E-004 -0.198637E-005  0.000000E+000
-0.300382E-004 -0.178929E-005  0.000000E+000
-0.289484E-004 -0.159196E-005  0.000000E+000
-0.279101E-004 -0.139515E-005  0.000000E+000
-0.269332E-004 -0.120029E-005  0.000000E+000
-0.260308E-004 -0.100991E-005  0.000000E+000
-0.252190E-004 -0.828551E-006  0.000000E+000
-0.245179E-004 -0.664394E-006  0.000000E+000
-0.239517E-004 -0.532670E-006  0.000000E+000
-0.235464E-004 -0.462590E-006  0.000000E+000
-0.233190E-004 -0.511700E-006  0.000000E+000
-0.232406E-004 -0.795919E-006  0.000000E+000
-0.231149E-004 -0.155404E-005  0.000000E+000
 0.992824E-005  0.152445E-004  0.000000E+000
 0.944445E-005  0.146956E-004  0.000000E+000
 0.896315E-005  0.141554E-004  0.000000E+000
 0.848483E-005  0.136253E-004  0.000000E+000
 0.801022E-005  0.131068E-004  0.000000E+000
 0.754035E-005  0.126018E-004  0.000000E+000
 0.707671E-005  0.121125E-004  0.000000E+000
 0.662150E-005  0.116413E-004  0.000000E+000
 0.617801E-005  0.111912E-004  0.000000E+000
 0.575128E-005  0.107655E-004  0.000000E+000
 0.534932E-005  0.103678E-004  0.000000E+000
 0.498533E-005  0.100005E-004  0.000000E+000
 0.468211E-005  0.966360E-005  0.000000E+000
 0.448102E-005  0.934736E-005  0.000000E+000
 0.446077E-005  0.901502E-005  0.000000E+000
 0.477689E-005  0.855007E-005  0.000000E+000
 0.574619E-005  0.759627E-005  0.000000E+000
-0.357280E-004 -0.352715E-005  0.000000E+000
-0.344604E-004 -0.328629E-005  0.000000E+000
-0.332152E-004 -0.304456E-005  0.000000E+000
-0.319962E-004 -0.280181E-005  0.000000E+000
-0.308077E-004 -0.255801E-005  0.000000E+000
-0.296551E-004 -0.231327E-005  0.000000E+000
-0.285450E-004 -0.206799E-005  0.000000E+000
-0.274858E-004 -0.182301E-005  0.000000E+000
-0.264878E-004 -0.157988E-005  0.000000E+000
-0.255647E-004 -0.134148E-005  0.000000E+000
-0.247336E-004 -0.111294E-005  0.000000E+000
-0.240165E-004 -0.903677E-006  0.000000E+000
-0.234413E-004 -0.731522E-006  0.000000E+000
-0.230405E-004 -0.631400E-006  0.000000E+000
-0.228430E-004 -0.673963E-006  0.000000E+000
-0.228399E-004 -0.100541E-005  0.000000E+000
-0.228620E-004 -0.193467E-005  0.000000E+000
 0.119655E-004  0.150192E-004  0.000000E+000
 0.113862E-004  0.144585E-004  0.000000E+000
 0.108097E-004  0.139059E-004  0.000000E+000
 0.102366E-004  0.133628E-004  0.000000E+000
 0.966788E-005  0.128306E-004  0.000000E+000
 0.910462E-005  0.123114E-004  0.000000E+000
 0.854859E-005  0.118072E-004  0.000000E+000
 0.800227E-005  0.113208E-004  0.000000E+000
 0.746940E-005  0.108554E-004  0.000000E+000
 0.695566E-005  0.104148E-004  0.000000E+000
 0.647015E-005  0.100035E-004  0.000000E+000
 0.602787E-005  0.962599E-005  0.000000E+000
 0.565488E-005  0.928531E-005  0.000000E+000
 0.539920E-005  0.897841E-005  0.000000E+000
 0.535421E-005  0.868054E-005  0.000000E+000
 0.570961E-005  0.829554E-005  0.000000E+000
 0.686328E-005  0.749425E-005  0.000000E+000
-0.354065E-004 -0.432026E-005  0.000000E+000
-0.341195E-004 -0.403428E-005  0.000000E+000
-0.328540E-004 -0.374701E-005  0.000000E+000
-0.316136E-004 -0.345837E-005  0.000000E+000
-0.304028E-004 -0.316835E-005  0.000000E+000
-0.292268E-004 -0.287705E-005  0.000000E+000
-0.280924E-004 -0.258487E-005  0.000000E+000
-0.270080E-004 -0.229264E-005  0.000000E+000
-0.259843E-004 -0.200198E-005  0.000000E+000
-0.250353E-004 -0.171589E-005  0.000000E+000
-0.241794E-004 -0.143990E-005  0.000000E+000
-0.234404E-004 -0.118425E-005  0.000000E+000
-0.228500E-004 -0.968589E-006  0.000000E+000
-0.224482E-004 -0.832414E-006  0.000000E+000
-0.222786E-004 -0.858194E-006  0.000000E+000
-0.223576E-004 -0.122246E-005  0.000000E+000
-0.225538E-004 -0.231010E-005  0.000000E+000
 0.140198E-004  0.147871E-004  0.000000E+000
 0.133453E-004  0.142134E-004  0.000000E+000
 0.126740E-004  0.136472E-004  0.000000E+000
 0.120065E-004  0.130896E-004  0.000000E+000
 0.113440E-004  0.125423E-004  0.000000E+000
 0.106877E-004  0.120070E-004  0.000000E+000
 0.100396E-004  0.114859E-004  0.000000E+000
 0.940243E-005  0.109820E-004  0.000000E+000
 0.878026E-005  0.104986E-004  0.000000E+000
 0.817938E-005  0.100400E-004  0.000000E+000
 0.760971E-005  0.961155E-005  0.000000E+000
 0.708777E-005  0.921948E-005  0.000000E+000
 0.664233E-005  0.887030E-005  0.000000E+000
 0.632704E-005  0.856786E-005  0.000000E+000
 0.624878E-005  0.830135E-005  0.000000E+000
 0.663182E-005  0.800034E-005  0.000000E+000
 0.796298E-005  0.737384E-005  0.000000E+000
-0.350697E-004 -0.514610E-005  0.000000E+000
-0.337610E-004 -0.481618E-005  0.000000E+000
-0.324727E-004 -0.448460E-005  0.000000E+000
-0.312084E-004 -0.415133E-005  0.000000E+000
-0.299724E-004 -0.381635E-005  0.000000E+000
-0.287700E-004 -0.347977E-005  0.000000E+000
-0.276078E-004 -0.314195E-005  0.000000E+000
-0.264943E-004 -0.280368E-005  0.000000E+000
-0.254405E-004 -0.246656E-005  0.000000E+000
-0.244608E-004 -0.213360E-005  0.000000E+000
-0.235743E-004 -0.181046E-005  0.000000E+000
-0.228070E-004 -0.150783E-005  0.000000E+000
-0.221941E-004 -0.124646E-005  0.000000E+000
-0.217836E-004 -0.106897E-005  0.000000E+000
-0.216356E-004 -0.106777E-005  0.000000E+000
-0.217981E-004 -0.144897E-005  0.000000E+000
-0.221908E-004 -0.267933E-005  0.000000E+000
 0.160875E-004  0.145578E-004  0.000000E+000
 0.153182E-004  0.139704E-004  0.000000E+000
 0.145523E-004  0.133896E-004  0.000000E+000
 0.137908E-004  0.128166E-004  0.000000E+000
 0.130348E-004  0.122528E-004  0.000000E+000
 0.122858E-004  0.117001E-004  0.000000E+000
 0.115460E-004  0.111606E-004  0.000000E+000
 0.108183E-004  0.106372E-004  0.000000E+000
 0.101071E-004  0.101335E-004  0.000000E+000
 0.941923E-005  0.965404E-005  0.000000E+000
 0.876523E-005  0.920496E-005  0.000000E+000
 0.816287E-005  0.879401E-005  0.000000E+000
 0.764313E-005  0.843089E-005  0.000000E+000
 0.726420E-005  0.812637E-005  0.000000E+000
 0.714471E-005  0.788500E-005  0.000000E+000
 0.754299E-005  0.766761E-005  0.000000E+000
 0.904249E-005  0.723516E-005  0.000000E+000
-0.347302E-004 -0.600129E-005  0.000000E+000
-0.333980E-004 -0.562857E-005  0.000000E+000
-0.320851E-004 -0.525388E-005  0.000000E+000
-0.307947E-004 -0.487723E-005  0.000000E+000
-0.295312E-004 -0.449861E-005  0.000000E+000
-0.282997E-004 -0.411812E-005  0.000000E+000
-0.271068E-004 -0.373608E-005  0.000000E+000
-0.259610E-004 -0.335322E-005  0.000000E+000
-0.248732E-004 -0.297103E-005  0.000000E+000
-0.238582E-004 -0.259243E-005  0.000000E+000
-0.229358E-004 -0.222306E-005  0.000000E+000
-0.221336E-004 -0.187371E-005  0.000000E+000
-0.214902E-004 -0.156556E-005  0.000000E+000
-0.210613E-004 -0.134288E-005  0.000000E+000
-0.209249E-004 -0.130541E-005  0.000000E+000
-0.211670E-004 -0.168695E-005  0.000000E+000
-0.217737E-004 -0.304138E-005  0.000000E+000
 0.181646E-004  0.143387E-004  0.000000E+000
 0.173004E-004  0.137372E-004  0.000000E+000
 0.164401E-004  0.131413E-004  0.000000E+000
 0.155847E-004  0.125522E-004  0.000000E+000
 0.147356E-004  0.119713E-004  0.000000E+000
 0.138942E-004  0.114003E-004  0.000000E+000
 0.130630E-004  0.108412E-004  0.000000E+000
 0.122452E-004  0.102969E-004  0.000000E+000
 0.114454E-004  0.977102E-005  0.000000E+000
 0.106708E-004  0.926835E-005  0.000000E+000
 0.993264E-005  0.879548E-005  0.000000E+000
 0.924968E-005  0.836149E-005  0.000000E+000
 0.865472E-005  0.797887E-005  0.000000E+000
 0.820943E-005  0.766479E-005  0.000000E+000
 0.804199E-005  0.743972E-005  0.000000E+000
 0.844290E-005  0.730107E-005  0.000000E+000
 0.100990E-004  0.707832E-005  0.000000E+000
-0.343980E-004 -0.688119E-005  0.000000E+000
-0.330411E-004 -0.646664E-005  0.000000E+000
-0.317021E-004 -0.604994E-005  0.000000E+000
-0.303842E-004 -0.563110E-005  0.000000E+000
-0.290914E-004 -0.521013E-005  0.000000E+000
-0.278289E-004 -0.478712E-005  0.000000E+000
-0.266030E-004 -0.436233E-005  0.000000E+000
-0.254221E-004 -0.393643E-005  0.000000E+000
-0.242971E-004 -0.351082E-005  0.000000E+000
-0.232428E-004 -0.308822E-005  0.000000E+000
-0.222796E-004 -0.267405E-005  0.000000E+000
-0.214364E-004 -0.227900E-005  0.000000E+000
-0.207545E-004 -0.192429E-005  0.000000E+000
-0.202964E-004 -0.165436E-005  0.000000E+000
-0.201584E-004 -0.157306E-005  0.000000E+000
-0.204703E-004 -0.193838E-005  0.000000E+000
-0.213033E-004 -0.339527E-005  0.000000E+000
 0.202467E-004  0.141353E-004  0.000000E+000
 0.192875E-004  0.135193E-004  0.000000E+000
 0.183328E-004  0.129082E-004  0.000000E+000
 0.173836E-004  0.123028E-004  0.000000E+000
 0.164413E-004  0.117044E-004  0.000000E+000
 0.155078E-004  0.111145E-004  0.000000E+000
 0.145854E-004  0.105353E-004  0.000000E+000
 0.136777E-004  0.996918E-005  0.000000E+000
 0.127897E-004  0.941986E-005  0.000000E+000
 0.119289E-004  0.889218E-005  0.000000E+000
 0.111070E-004  0.839299E-005  0.000000E+000
 0.103438E-004  0.793228E-005  0.000000E+000
 0.967352E-005  0.752493E-005  0.000000E+000
 0.916061E-005  0.719365E-005  0.000000E+000
 0.894024E-005  0.697421E-005  0.000000E+000
 0.933155E-005  0.690512E-005  0.000000E+000
 0.111298E-004  0.690348E-005  0.000000E+000
-0.340810E-004 -0.778056E-005  0.000000E+000
-0.326984E-004 -0.732498E-005  0.000000E+000
-0.313323E-004 -0.686720E-005  0.000000E+000
-0.299857E-004 -0.640725E-005  0.000000E+000
-0.286625E-004 -0.594510E-005  0.000000E+000
-0.273676E-004 -0.548086E-005  0.000000E+000
-0.261070E-004 -0.501478E-005  0.000000E+000
-0.248890E-004 -0.454742E-005  0.000000E+000
-0.237243E-004 -0.408010E-005  0.000000E+000
-0.226276E-004 -0.361539E-005  0.000000E+000
-0.216193E-004 -0.315832E-005  0.000000E+000
-0.207294E-004 -0.271923E-005  0.000000E+000
-0.200015E-004 -0.231922E-005  0.000000E+000
-0.195035E-004 -0.200200E-005  0.000000E+000
-0.193486E-004 -0.187175E-005  0.000000E+000
-0.197151E-004 -0.220514E-005  0.000000E+000
-0.207802E-004 -0.373999E-005  0.000000E+000
 0.223297E-004  0.139507E-004  0.000000E+000
 0.212753E-004  0.133206E-004  0.000000E+000
 0.202259E-004  0.126942E-004  0.000000E+000
 0.191827E-004  0.120725E-004  0.000000E+000
 0.181472E-004  0.114566E-004  0.000000E+000
 0.171214E-004  0.108479E-004  0.000000E+000
 0.161080E-004  0.102481E-004  0.000000E+000
 0.151107E-004  0.965990E-005  0.000000E+000
 0.141347E-004  0.908637E-005  0.000000E+000
 0.131881E-004  0.853253E-005  0.000000E+000
 0.122832E-004  0.800521E-005  0.000000E+000
 0.114403E-004  0.751485E-005  0.000000E+000
 0.106952E-004  0.707820E-005  0.000000E+000
 0.101147E-004  0.672262E-005  0.000000E+000
 0.983859E-005  0.649737E-005  0.000000E+000
 0.102091E-004  0.648478E-005  0.000000E+000
 0.121320E-004  0.671080E-005  0.000000E+000
-0.337843E-004 -0.869416E-005  0.000000E+000
-0.323754E-004 -0.819815E-005  0.000000E+000
-0.309815E-004 -0.770004E-005  0.000000E+000
-0.296056E-004 -0.719982E-005  0.000000E+000
-0.282513E-004 -0.669751E-005  0.000000E+000
-0.269230E-004 -0.619319E-005  0.000000E+000
-0.256268E-004 -0.568711E-005  0.000000E+000
-0.243704E-004 -0.517983E-005  0.000000E+000
-0.231641E-004 -0.467246E-005  0.000000E+000
-0.220227E-004 -0.416758E-005  0.000000E+000
-0.209660E-004 -0.366986E-005  0.000000E+000
-0.200245E-004 -0.318889E-005  0.000000E+000
-0.192441E-004 -0.274554E-005  0.000000E+000
-0.186964E-004 -0.238278E-005  0.000000E+000
-0.185082E-004 -0.220151E-005  0.000000E+000
-0.189089E-004 -0.248895E-005  0.000000E+000
-0.202053E-004 -0.407446E-005  0.000000E+000
 0.244102E-004  0.137868E-004  0.000000E+000
 0.232600E-004  0.131426E-004  0.000000E+000
 0.221155E-004  0.125013E-004  0.000000E+000
 0.209779E-004  0.118636E-004  0.000000E+000
 0.198489E-004  0.112305E-004  0.000000E+000
 0.187306E-004  0.106031E-004  0.000000E+000
 0.176260E-004  0.998310E-005  0.000000E+000
 0.165390E-004  0.937255E-005  0.000000E+000
 0.154753E-004  0.877495E-005  0.000000E+000
 0.144431E-004  0.819417E-005  0.000000E+000
 0.134557E-004  0.763775E-005  0.000000E+000
 0.125341E-004  0.711574E-005  0.000000E+000
 0.117150E-004  0.664605E-005  0.000000E+000
 0.110680E-004  0.626002E-005  0.000000E+000
 0.107355E-004  0.601795E-005  0.000000E+000
 0.110756E-004  0.604567E-005  0.000000E+000
 0.131027E-004  0.650047E-005  0.000000E+000
-0.335110E-004 -0.961713E-005  0.000000E+000
-0.320754E-004 -0.908110E-005  0.000000E+000
-0.306536E-004 -0.854317E-005  0.000000E+000
-0.292480E-004 -0.800335E-005  0.000000E+000
-0.278621E-004 -0.746163E-005  0.000000E+000
-0.265002E-004 -0.691819E-005  0.000000E+000
-0.251676E-004 -0.637319E-005  0.000000E+000
-0.238721E-004 -0.582730E-005  0.000000E+000
-0.226233E-004 -0.528158E-005  0.000000E+000
-0.214353E-004 -0.473823E-005  0.000000E+000
-0.203283E-004 -0.420221E-005  0.000000E+000
-0.193314E-004 -0.368203E-005  0.000000E+000
-0.184926E-004 -0.319762E-005  0.000000E+000
-0.178871E-004 -0.279227E-005  0.000000E+000
-0.176500E-004 -0.256123E-005  0.000000E+000
-0.180602E-004 -0.279124E-005  0.000000E+000
-0.195796E-004 -0.439746E-005  0.000000E+000
 0.264855E-004  0.136437E-004  0.000000E+000
 0.252388E-004  0.129859E-004  0.000000E+000
 0.239984E-004  0.123300E-004  0.000000E+000
 0.227658E-004  0.116768E-004  0.000000E+000
 0.215427E-004  0.110269E-004  0.000000E+000
 0.203316E-004  0.103814E-004  0.000000E+000
 0.191353E-004  0.974149E-005  0.000000E+000
 0.179585E-004  0.910940E-005  0.000000E+000
 0.168067E-004  0.848745E-005  0.000000E+000
 0.156895E-004  0.788055E-005  0.000000E+000
 0.146196E-004  0.729377E-005  0.000000E+000
 0.136200E-004  0.673967E-005  0.000000E+000
 0.127283E-004  0.623410E-005  0.000000E+000
 0.120161E-004  0.581262E-005  0.000000E+000
 0.116290E-004  0.554408E-005  0.000000E+000
 0.119312E-004  0.559412E-005  0.000000E+000
 0.140388E-004  0.627256E-005  0.000000E+000
-0.332624E-004 -0.105453E-004  0.000000E+000
-0.318001E-004 -0.996942E-005  0.000000E+000
-0.303502E-004 -0.939198E-005  0.000000E+000
-0.289149E-004 -0.881295E-005  0.000000E+000
-0.274975E-004 -0.823241E-005  0.000000E+000
-0.261017E-004 -0.765047E-005  0.000000E+000
-0.247329E-004 -0.706753E-005  0.000000E+000
-0.233978E-004 -0.648399E-005  0.000000E+000
-0.221062E-004 -0.590130E-005  0.000000E+000
-0.208708E-004 -0.532133E-005  0.000000E+000
-0.197117E-004 -0.474872E-005  0.000000E+000
-0.186576E-004 -0.419256E-005  0.000000E+000
-0.177549E-004 -0.366974E-005  0.000000E+000
-0.170851E-004 -0.322481E-005  0.000000E+000
-0.167862E-004 -0.294862E-005  0.000000E+000
-0.171782E-004 -0.311314E-005  0.000000E+000
-0.189035E-004 -0.470751E-005  0.000000E+000
 0.285533E-004  0.135209E-004  0.000000E+000
 0.272092E-004  0.128498E-004  0.000000E+000
 0.258722E-004  0.121799E-004  0.000000E+000
 0.245438E-004  0.115117E-004  0.000000E+000
 0.232259E-004  0.108457E-004  0.000000E+000
 0.219211E-004  0.101826E-004  0.000000E+000
 0.206327E-004  0.952370E-005  0.000000E+000
 0.193653E-004  0.887044E-005  0.000000E+000
 0.181255E-004  0.822542E-005  0.000000E+000
 0.169223E-004  0.759187E-005  0.000000E+000
 0.157711E-004  0.697669E-005  0.000000E+000
 0.146933E-004  0.638780E-005  0.000000E+000
 0.137304E-004  0.584758E-005  0.000000E+000
 0.129547E-004  0.538489E-005  0.000000E+000
 0.125160E-004  0.508310E-005  0.000000E+000
 0.127760E-004  0.513671E-005  0.000000E+000
 0.149361E-004  0.602765E-005  0.000000E+000
-0.330387E-004 -0.114752E-004  0.000000E+000
-0.315497E-004 -0.108595E-004  0.000000E+000
-0.300717E-004 -0.102426E-004  0.000000E+000
-0.286069E-004 -0.962458E-005  0.000000E+000
-0.271580E-004 -0.900548E-005  0.000000E+000
-0.257287E-004 -0.838554E-005  0.000000E+000
-0.243237E-004 -0.776509E-005  0.000000E+000
-0.229496E-004 -0.714497E-005  0.000000E+000
-0.216148E-004 -0.652605E-005  0.000000E+000
-0.203325E-004 -0.591124E-005  0.000000E+000
-0.191201E-004 -0.530375E-005  0.000000E+000
-0.180076E-004 -0.471383E-005  0.000000E+000
-0.170385E-004 -0.415679E-005  0.000000E+000
-0.162964E-004 -0.367417E-005  0.000000E+000
-0.159285E-004 -0.335996E-005  0.000000E+000
-0.162727E-004 -0.345571E-005  0.000000E+000
-0.181778E-004 -0.500213E-005  0.000000E+000
 0.306124E-004  0.134169E-004  0.000000E+000
 0.291698E-004  0.127331E-004  0.000000E+000
 0.277352E-004  0.120498E-004  0.000000E+000
 0.263100E-004  0.113672E-004  0.000000E+000
 0.248964E-004  0.106857E-004  0.000000E+000
 0.234970E-004  0.100059E-004  0.000000E+000
 0.221155E-004  0.932871E-005  0.000000E+000
 0.207570E-004  0.865536E-005  0.000000E+000
 0.194281E-004  0.798784E-005  0.000000E+000
 0.181393E-004  0.732935E-005  0.000000E+000
 0.169052E-004  0.668498E-005  0.000000E+000
 0.157513E-004  0.606468E-005  0.000000E+000
 0.147163E-004  0.548429E-005  0.000000E+000
 0.138793E-004  0.498573E-005  0.000000E+000
 0.133935E-004  0.463605E-005  0.000000E+000
 0.136101E-004  0.468384E-005  0.000000E+000
 0.157893E-004  0.576385E-005  0.000000E+000
-0.328390E-004 -0.124041E-004  0.000000E+000
-0.313234E-004 -0.117484E-004  0.000000E+000
-0.298175E-004 -0.110920E-004  0.000000E+000
-0.283234E-004 -0.104350E-004  0.000000E+000
-0.268435E-004 -0.977737E-005  0.000000E+000
-0.253811E-004 -0.911957E-005  0.000000E+000
-0.239404E-004 -0.846206E-005  0.000000E+000
-0.225275E-004 -0.780559E-005  0.000000E+000
-0.211505E-004 -0.715168E-005  0.000000E+000
-0.198209E-004 -0.650231E-005  0.000000E+000
-0.185565E-004 -0.586278E-005  0.000000E+000
-0.173835E-004 -0.523951E-005  0.000000E+000
-0.163481E-004 -0.465380E-005  0.000000E+000
-0.155280E-004 -0.413429E-005  0.000000E+000
-0.150821E-004 -0.379054E-005  0.000000E+000
-0.153587E-004 -0.381924E-005  0.000000E+000
-0.173995E-004 -0.527813E-005  0.000000E+000
 0.326620E-004  0.133301E-004  0.000000E+000
 0.311197E-004  0.126341E-004  0.000000E+000
 0.295863E-004  0.119379E-004  0.000000E+000
 0.280632E-004  0.112416E-004  0.000000E+000
 0.265527E-004  0.105454E-004  0.000000E+000
 0.250577E-004  0.984967E-005  0.000000E+000
 0.235821E-004  0.915510E-005  0.000000E+000
 0.221312E-004  0.846266E-005  0.000000E+000
 0.207125E-004  0.777385E-005  0.000000E+000
 0.193368E-004  0.709138E-005  0.000000E+000
 0.180204E-004  0.641959E-005  0.000000E+000
 0.167884E-004  0.576747E-005  0.000000E+000
 0.156846E-004  0.515089E-005  0.000000E+000
 0.147851E-004  0.460766E-005  0.000000E+000
 0.142544E-004  0.422216E-005  0.000000E+000
 0.144423E-004  0.422314E-005  0.000000E+000
 0.165787E-004  0.550271E-005  0.000000E+000
-0.326620E-004 -0.133301E-004  0.000000E+000
-0.311197E-004 -0.126341E-004  0.000000E+000
-0.295863E-004 -0.119379E-004  0.000000E+000
-0.280632E-004 -0.112416E-004  0.000000E+000
-0.265527E-004 -0.105454E-004  0.000000E+000
-0.250577E-004 -0.984967E-005  0.000000E+000
-0.235821E-004 -0.915510E-005  0.000000E+000
-0.221312E-004 -0.846266E-005  0.000000E+000
-0.207125E-004 -0.777385E-005  0.000000E+000
-0.193368E-004 -0.709138E-005  0.000000E+000
-0.180204E-004 -0.641959E-005  0.000000E+000
-0.167884E-004 -0.576747E-005  0.000000E+000
-0.156846E-004 -0.515089E-005  0.000000E+000
-0.147851E-004 -0.460766E-005  0.000000E+000
-0.142544E-004 -0.422216E-005  0.000000E+000
-0.144423E-004 -0.422314E-005  0.000000E+000
-0.165787E-004 -0.550271E-005  0.000000E+000
 0.328390E-004  0.124041E-004  0.000000E+000
 0.313234E-004  0.117484E-004  0.000000E+000
 0.298175E-004  0.110920E-004  0.000000E+000
 0.283234E-004  0.104350E-004  0.000000E+000
 0.268435E-004  0.977737E-005  0.000000E+000
 0.253811E-004  0.911957E-005  0.000000E+000
 0.239404E-004  0.846206E-005  0.000000E+000
 0.225275E-004  0.780559E-005  0.000000E+000
 0.211505E-004  0.715168E-005  0.000000E+000
 0.198209E-004  0.650231E-005  0.000000E+000
 0.185565E-004  0.586278E-005  0.000000E+000
 0.173835E-004  0.523951E-005  0.000000E+000
 0.163481E-004  0.465380E-005  0.000000E+000
 0.155280E-004  0.413429E-005  0.000000E+000
 0.150821E-004  0.379054E-005  0.000000E+000
 0.153587E-004  0.381924E-005  0.000000E+000
 0.173995E-004  0.527813E-005  0.000000E+000
-0.306124E-004 -0.134169E-004  0.000000E+000
-0.291698E-004 -0.127331E-004  0.000000E+000
-0.277352E-004 -0.120498E-004  0.000000E+000
-0.263100E-004 -0.113672E-004  0.000000E+000
-0.248964E-004 -0.106857E-004  0.000000E+000
-0.234970E-004 -0.100059E-004  0.000000E+000
-0.221155E-004 -0.932871E-005  0.000000E+000
-0.207570E-004 -0.865536E-005  0.000000E+000
-0.194281E-004 -0.798784E-005  0.000000E+000
-0.181393E-004 -0.732935E-005  0.000000E+000
-0.169052E-004 -0.668498E-005  0.000000E+000
-0.157513E-004 -0.606468E-005  0.000000E+000
-0.147163E-004 -0.548429E-005  0.000000E+000
-0.138793E-004 -0.498573E-005  0.000000E+000
-0.133935E-004 -0.463605E-005  0.000000E+000
-0.136101E-004 -0.468384E-005  0.000000E+000
-0.157893E-004 -0.576385E-005  0.000000E+000
 0.330387E-004  0.114752E-004  0.000000E+000
 0.315497E-004  0.108595E-004  0.000000E+000
 0.300717E-004  0.102426E-004  0.000000E+000
 0.286069E-004  0.962458E-005  0.000000E+000
 0.271580E-004  0.900548E-005  0.000000E+000
 0.257287E-004  0.838554E-005  0.000000E+000
 0.243237E-004  0.776509E-005  0.000000E+000
 0.229496E-004  0.714497E-005  0.000000E+000
 0.216148E-004  0.652605E-005  0.000000E+000
 0.203325E-004  0.591124E-005  0.000000E+000
 0.191201E-004  0.530375E-005  0.000000E+000
 0.180076E-004  0.471383E-005  0.000000E+000
 0.170385E-004  0.415679E-005  0.000000E+000
 0.162964E-004  0.367417E-005  0.000000E+000
 0.159285E-004  0.335996E-005  0.000000E+000
 0.162727E-004  0.345571E-005  0.000000E+000
 0.181778E-004  0.500213E-005  0.000000E+000
-0.285533E-004 -0.135209E-004  0.000000E+000
-0.272092E-004 -0.128498E-004  0.000000E+000
-0.258722E-004 -0.121799E-004  0.000000E+000
-0.245438E-004 -0.115117E-004  0.000000E+000
-0.232259E-004 -0.108457E-004  0.000000E+000
-0.219211E-004 -0.101826E-004  0.000000E+000
-0.206327E-004 -0.952370E-005  0.000000E+000
-0.193653E-004 -0.887044E-005  0.000000E+000
-0.181255E-004 -0.822542E-005  0.000000E+000
-0.169223E-004 -0.759187E-005  0.000000E+000
-0.157711E-004 -0.697669E-005  0.000000E+000
-0.146933E-004 -0.638780E-005  0.000000E+000
-0.137304E-004 -0.584758E-005  0.000000E+000
-0.129547E-004 -0.538489E-005  0.000000E+000
-0.125160E-004 -0.508310E-005  0.000000E+000
-0.127760E-004 -0.513671E-005  0.000000E+000
-0.149361E-004 -0.602765E-005  0.000000E+000
 0.332624E-004  0.105453E-004  0.000000E+000
 0.318001E-004  0.996942E-005  0.000000E+000
 0.303502E-004  0.939198E-005  0.000000E+000
 0.289149E-004  0.881295E-005  0.000000E+000
 0.274975E-004  0.823241E-005  0.000000E+000
 0.261017E-004  0.765047E-005  0.000000E+000
 0.247329E-004  0.706753E-005  0.000000E+000
 0.233978E-004  0.648399E-005  0.000000E+000
 0.221062E-004  0.590130E-005  0.000000E+000
 0.208708E-004  0.532133E-005  0.000000E+000
 0.197117E-004  0.474872E-005  0.000000E+000
 0.186576E-004  0.419256E-005  0.000000E+000
 0.177549E-004  0.366974E-005  0.000000E+000
 0.170851E-004  0.322481E-005  0.000000E+000
 0.167862E-004  0.294862E-005  0.000000E+000
 0.171782E-004  0.311314E-005  0.000000E+000
 0.189035E-004  0.470751E-005  0.000000E+000
-0.264855E-004 -0.136437E-004  0.000000E+000
-0.252388E-004 -0.129859E-004  0.000000E+000
-0.239984E-004 -0.123300E-004  0.000000E+000
-0.227658E-004 -0.116768E-004  0.000000E+000
-0.215427E-004 -0.110269E-004  0.000000E+000
-0.203316E-004 -0.103814E-004  0.000000E+000
-0.191353E-004 -0.974149E-005  0.000000E+000
-0.179585E-004 -0.910940E-005  0.000000E+000
-0.168067E-004 -0.848745E-005  0.000000E+000
-0.156895E-004 -0.788055E-005  0.000000E+000
-0.146196E-004 -0.729377E-005  0.000000E+000
-0.136200E-004 -0.673967E-005  0.000000E+000
-0.127283E-004 -0.623410E-005  0.000000E+000
-0.120161E-004 -0.581262E-005  0.000000E+000
-0.116290E-004 -0.554408E-005  0.000000E+000
-0.119312E-004 -0.559412E-005  0.000000E+000
-0.140388E-004 -0.627256E-005  0.000000E+000
 0.335110E-004  0.961713E-005  0.000000E+000
 0.320754E-004  0.908110E-005  0.000000E+000
 0.306536E-004  0.854317E-005  0.000000E+000
 0.292480E-004  0.800335E-005  0.000000E+000
 0.278621E-004  0.746163E-005  0.000000E+000
 0.265002E-004  0.691819E-005  0.000000E+000
 0.251676E-004  0.637319E-005  0.000000E+000
 0.238721E-004  0.582730E-005  0.000000E+000
 0.226233E-004  0.528158E-005  0.000000E+000
 0.214353E-004  0.473823E-005  0.000000E+000
 0.203283E-004  0.420221E-005  0.000000E+000
 0.193314E-004  0.368203E-005  0.000000E+000
 0.184926E-004  0.319762E-005  0.000000E+000
 0.178871E-004  0.279227E-005  0.000000E+000
 0.176500E-004  0.256123E-005  0.000000E+000
 0.180602E-004  0.279124E-005  0.000000E+000
 0.195796E-004  0.439746E-005  0.000000E+000
-0.244102E-004 -0.137868E-004  0.000000E+000
-0.232600E-004 -0.131426E-004  0.000000E+000
-0.221155E-004 -0.125013E-004  0.000000E+000
-0.209779E-004 -0.118636E-004  0.000000E+000
-0.198489E-004 -0.112305E-004  0.000000E+000
-0.187306E-004 -0.106031E-004  0.000000E+000
-0.176260E-004 -0.998310E-005  0.000000E+000
-0.165390E-004 -0.937255E-005  0.000000E+000
-0.154753E-004 -0.877495E-005  0.000000E+000
-0.144431E-004 -0.819417E-005  0.000000E+000
-0.134557E-004 -0.763775E-005  0.000000E+000
-0.125341E-004 -0.711574E-005  0.000000E+000
-0.117150E-004 -0.664605E-005  0.000000E+000
-0.110680E-004 -0.626002E-005  0.000000E+000
-0.107355E-004 -0.601795E-005  0.000000E+000
-0.110756E-004 -0.604567E-005  0.000000E+000
-0.131027E-004 -0.650047E-005  0.000000E+000
 0.337843E-004  0.869416E-005  0.000000E+000
 0.323754E-004  0.819815E-005  0.000000E+000
 0.309815E-004  0.770004E-005  0.000000E+000
 0.296056E-004  0.719982E-005  0.000000E+000
 0.282513E-004  0.669751E-005  0.000000E+000
 0.269230E-004  0.619319E-005  0.000000E+000
 0.256268E-004  0.568711E-005  0.000000E+000
 0.243704E-004  0.517983E-005  0.000000E+000
 0.231641E-004  0.467246E-005  0.000000E+000
 0.220227E-004  0.416758E-005  0.000000E+000
 0.209660E-004  0.366986E-005  0.000000E+000
 0.200245E-004  0.318889E-005  0.000000E+000
 0.192441E-004  0.274554E-005  0.000000E+000
 0.186964E-004  0.238278E-005  0.000000E+000
 0.185082E-004  0.220151E-005  0.000000E+000
 0.189089E-004  0.248895E-005  0.000000E+000
 0.202053E-004  0.407446E-005  0.000000E+000
-0.223297E-004 -0.139507E-004  0.000000E+000
-0.212753E-004 -0.133206E-004  0.000000E+000
-0.202259E-004 -0.126942E-004  0.000000E+000
-0.191827E-004 -0.120725E-004  0.000000E+000
-0.181472E-004 -0.114566E-004  0.000000E+000
-0.171214E-004 -0.108479E-004  0.000000E+000
-0.161080E-004 -0.102481E-004  0.000000E+000
-0.151107E-004 -0.965990E-005  0.000000E+000
-0.141347E-004 -0.908637E-005  0.000000E+000
-0.131881E-004 -0.853253E-005  0.000000E+000
-0.122832E-004 -0.800521E-005  0.000000E+000
-0.114403E-004 -0.751485E-005  0.000000E+000
-0.106952E-004 -0.707820E-005  0.000000E+000
-0.101147E-004 -0.672262E-005  0.000000E+000
-0.983859E-005 -0.649737E-005  0.000000E+000
-0.102091E-004 -0.648478E-005  0.000000E+000
-0.121320E-004 -0.671080E-005  0.000000E+000
 0.340810E-004  0.778056E-005  0.000000E+000
 0.326984E-004  0.732498E-005  0.000000E+000
 0.313323E-004  0.686720E-005  0.000000E+000
 0.299857E-004  0.640725E-005  0.000000E+000
 0.286625E-004  0.594510E-005  0.000000E+000
 0.273676E-004  0.548086E-005  0.000000E+000
 0.261070E-004  0.501478E-005  0.000000E+000
 0.248890E-004  0.454742E-005  0.000000E+000
 0.237243E-004  0.408010E-005  0.000000E+000
 0.226276E-004  0.361539E-005  0.000000E+000
 0.216193E-004  0.315832E-005  0.000000E+000
 0.207294E-004  0.271923E-005  0.000000E+000
 0.200015E-004  0.231922E-005  0.000000E+000
 0.195035E-004  0.200200E-005  0.000000E+000
 0.193486E-004  0.187175E-005  0.000000E+000
 0.197151E-004  0.220514E-005  0.000000E+000
 0.207802E-004  0.373999E-005  0.000000E+000
-0.202467E-004 -0.141353E-004  0.000000E+000
-0.192875E-004 -0.135193E-004  0.000000E+000
-0.183328E-004 -0.129082E-004  0.000000E+000
-0.173836E-004 -0.123028E-004  0.000000E+000
-0.164413E-004 -0.117044E-004  0.000000E+000
-0.155078E-004 -0.111145E-004  0.000000E+000
-0.145854E-004 -0.105353E-004  0.000000E+000
-0.136777E-004 -0.996918E-005  0.000000E+000
-0.127897E-004 -0.941986E-005  0.000000E+000
-0.119289E-004 -0.889218E-005  0.000000E+000
-0.111070E-004 -0.839299E-005  0.000000E+000
-0.103438E-004 -0.793228E-005  0.000000E+000
-0.967352E-005 -0.752493E-005  0.000000E+000
-0.916061E-005 -0.719365E-005  0.000000E+000
-0.894024E-005 -0.697421E-005  0.000000E+000
-0.933155E-005 -0.690512E-005  0.000000E+000
-0.111298E-004 -0.690348E-005  0.000000E+000
 0.343980E-004  0.688119E-005  0.000000E+000
 0.330411E-004  0.646664E-005  0.000000E+000
 0.317021E-004  0.604994E-005  0.000000E+000
 0.303842E-004  0.563110E-005  0.000000E+000
 0.290914E-004  0.521013E-005  0.000000E+000
 0.278289E-004  0.478712E-005  0.000000E+000
 0.266030E-004  0.436233E-005  0.000000E+000
 0.254221E-004  0.393643E-005  0.000000E+000
 0.242971E-004  0.351082E-005  0.000000E+000
 0.232428E-004  0.308822E-005  0.000000E+000
 0.222796E-004  0.267405E-005  0.000000E+000
 0.214364E-004  0.227900E-005  0.000000E+000
 0.207545E-004  0.192429E-005  0.000000E+000
 0.202964E-004  0.165436E-005  0.000000E+000
 0.201584E-004  0.157306E-005  0.000000E+000
 0.204703E-004  0.193838E-005  0.000000E+000
 0.213033E-004  0.339527E-005  0.000000E+000
-0.181646E-004 -0.143387E-004  0.000000E+000
-0.173004E-004 -0.137372E-004  0.000000E+000
-0.164401E-004 -0.131413E-004  0.000000E+000
-0.155847E-004 -0.125522E-004  0.000000E+000
-0.147356E-004 -0.119713E-004  0.000000E+000
-0.138942E-004 -0.114003E-004  0.000000E+000
-0.130630E-004 -0.108412E-004  0.000000E+000
-0.122452E-004 -0.102969E-004  0.000000E+000
-0.114454E-004 -0.977102E-005  0.000000E+000
-0.106708E-004 -0.926835E-005  0.000000E+000
-0.993264E-005 -0.879548E-005  0.000000E+000
-0.924968E-005 -0.836149E-005  0.000000E+000
-0.865472E-005 -0.797887E-005  0.000000E+000
-0.820943E-005 -0.766479E-005  0.000000E+000
-0.804199E-005 -0.743972E-005  0.000000E+000
-0.844290E-005 -0.730107E-005  0.000000E+000
-0.100990E-004 -0.707832E-005  0.000000E+000
 0.347302E-004  0.600129E-005  0.000000E+000
 0.333980E-004  0.562857E-005  0.000000E+000
 0.320851E-004  0.525388E-005  0.000000E+000
 0.307947E-004  0.487723E-005  0.000000E+000
 0.295312E-004  0.449861E-005  0.000000E+000
 0.282997E-004  0.411812E-005  0.000000E+000
 0.271068E-004  0.373608E-005  0.000000E+000
 0.259610E-004  0.335322E-005  0.000000E+000
 0.248732E-004  0.297103E-005  0.000000E+000
 0.238582E-004  0.259243E-005  0.000000E+000
 0.229358E-004  0.222306E-005  0.000000E+000
 0.221336E-004  0.187371E-005  0.000000E+000
 0.214902E-004  0.156556E-005  0.000000E+000
 0.210613E-004  0.134288E-005  0.000000E+000
 0.209249E-004  0.130541E-005  0.000000E+000
 0.211670E-004  0.168695E-005  0.000000E+000
 0.217737E-004  0.304138E-005  0.000000E+000
-0.160875E-004 -0.145578E-004  0.000000E+000
-0.153182E-004 -0.139704E-004  0.000000E+000
-0.145523E-004 -0.133896E-004  0.000000E+000
-0.137908E-004 -0.128166E-004  0.000000E+000
-0.130348E-004 -0.122528E-004  0.000000E+000
-0.122858E-004 -0.117001E-004  0.000000E+000
-0.115460E-004 -0.111606E-004  0.000000E+000
-0.108183E-004 -0.106372E-004  0.000000E+000
-0.101071E-004 -0.101335E-004  0.000000E+000
-0.941923E-005 -0.965404E-005  0.000000E+000
-0.876523E-005 -0.920496E-005  0.000000E+000
-0.816287E-005 -0.879401E-005  0.000000E+000
-0.764313E-005 -0.843089E-005  0.000000E+000
-0.726420E-005 -0.812637E-005  0.000000E+000
-0.714471E-005 -0.788500E-005  0.000000E+000
-0.754299E-005 -0.766761E-005  0.000000E+000
-0.904249E-005 -0.723516E-005  0.000000E+000
 0.350697E-004  0.514610E-005  0.000000E+000
 0.337610E-004  0.481618E-005  0.000000E+000
 0.324727E-004  0.448460E-005  0.000000E+000
 0.312084E-004  0.415133E-005  0.000000E+000
 0.299724E-004  0.381635E-005  0.000000E+000
 0.287700E-004  0.347977E-005  0.000000E+000
 0.276078E-004  0.314195E-005  0.000000E+000
 0.264943E-004  0.280368E-005  0.000000E+000
 0.254405E-004  0.246656E-005  0.000000E+000
 0.244608E-004  0.213360E-005  0.000000E+000
 0.235743E-004  0.181046E-005  0.000000E+000
 0.228070E-004  0.150783E-005  0.000000E+000
 0.221941E-004  0.124646E-005  0.000000E+000
 0.217836E-004  0.106897E-005  0.000000E+000
 0.216356E-004  0.106777E-005  0.000000E+000
 0.217981E-004  0.144897E-005  0.000000E+000
 0.221908E-004  0.267933E-005  0.000000E+000
-0.140198E-004 -0.147871E-004  0.000000E+000
-0.133453E-004 -0.142134E-004  0.000000E+000
-0.126740E-004 -0.136472E-004  0.000000E+000
-0.120065E-004 -0.130896E-004  0.000000E+000
-0.113440E-004 -0.125423E-004  0.000000E+000
-0.106877E-004 -0.120070E-004  0.000000E+000
-0.100396E-004 -0.114859E-004  0.000000E+000
-0.940243E-005 -0.109820E-004  0.000000E+000
-0.878026E-005 -0.104986E-004  0.000000E+000
-0.817938E-005 -0.100400E-004  0.000000E+000
-0.760971E-005 -0.961155E-005  0.000000E+000
-0.708777E-005 -0.921948E-005  0.000000E+000
-0.664233E-005 -0.887030E-005  0.000000E+000
-0.632704E-005 -0.856786E-005  0.000000E+000
-0.624878E-005 -0.830135E-005  0.000000E+000
-0.663182E-005 -0.800034E-005  0.000000E+000
-0.796298E-005 -0.737384E-005  0.000000E+000
 0.354065E-004  0.432026E-005  0.000000E+000
 0.341195E-004  0.403428E-005  0.000000E+000
 0.328540E-004  0.374701E-005  0.000000E+000
 0.316136E-004  0.345837E-005  0.000000E+000
 0.304028E-004  0.316835E-005  0.000000E+000
 0.292268E-004  0.287705E-005  0.000000E+000
 0.280924E-004  0.258487E-005  0.000000E+000
 0.270080E-004  0.229264E-005  0.000000E+000
 0.259843E-004  0.200198E-005  0.000000E+000
 0.250353E-004  0.171589E-005  0.000000E+000
 0.241794E-004  0.143990E-005  0.000000E+000
 0.234404E-004  0.118425E-005  0.000000E+000
 0.228500E-004  0.968589E-006  0.000000E+000
 0.224482E-004  0.832414E-006  0.000000E+000
 0.222786E-004  0.858194E-006  0.000000E+000
 0.223576E-004  0.122246E-005  0.000000E+000
 0.225538E-004  0.231010E-005  0.000000E+000
-0.119655E-004 -0.150192E-004  0.000000E+000
-0.113862E-004 -0.144585E-004  0.000000E+000
-0.108097E-004 -0.139059E-004  0.000000E+000
-0.102366E-004 -0.133628E-004  0.000000E+000
-0.966788E-005 -0.128306E-004  0.000000E+000
-0.910462E-005 -0.123114E-004  0.000000E+000
-0.854859E-005 -0.118072E-004  0.000000E+000
-0.800227E-005 -0.113208E-004  0.000000E+000
-0.746940E-005 -0.108554E-004  0.000000E+000
-0.695566E-005 -0.104148E-004  0.000000E+000
-0.647015E-005 -0.100035E-004  0.000000E+000
-0.602787E-005 -0.962599E-005  0.000000E+000
-0.565488E-005 -0.928531E-005  0.000000E+000
-0.539920E-005 -0.897841E-005  0.000000E+000
-0.535421E-005 -0.868054E-005  0.000000E+000
-0.570961E-005 -0.829554E-005  0.000000E+000
-0.686328E-005 -0.749425E-005  0.000000E+000
 0.357280E-004  0.352715E-005  0.000000E+000
 0.344604E-004  0.328629E-005  0.000000E+000
 0.332152E-004  0.304456E-005  0.000000E+000
 0.319962E-004  0.280181E-005  0.000000E+000
 0.308077E-004  0.255801E-005  0.000000E+000
 0.296551E-004  0.231327E-005  0.000000E+000
 0.285450E-004  0.206799E-005  0.000000E+000
 0.274858E-004  0.182301E-005  0.000000E+000
 0.264878E-004  0.157988E-005  0.000000E+000
 0.255647E-004  0.134148E-005  0.000000E+000
 0.247336E-004  0.111294E-005  0.000000E+000
 0.240165E-004  0.903677E-006  0.000000E+000
 0.234413E-004  0.731522E-006  0.000000E+000
 0.230405E-004  0.631400E-006  0.000000E+000
 0.228430E-004  0.673963E-006  0.000000E+000
 0.228399E-004  0.100541E-005  0.000000E+000
 0.228620E-004  0.193467E-005  0.000000E+000
-0.992824E-005 -0.152445E-004  0.000000E+000
-0.944445E-005 -0.146956E-004  0.000000E+000
-0.896315E-005 -0.141554E-004  0.000000E+000
-0.848483E-005 -0.136253E-004  0.000000E+000
-0.801022E-005 -0.131068E-004  0.000000E+000
-0.754035E-005 -0.126018E-004  0.000000E+000
-0.707671E-005 -0.121125E-004  0.000000E+000
-0.662150E-005 -0.116413E-004  0.000000E+000
-0.617801E-005 -0.111912E-004  0.000000E+000
-0.575128E-005 -0.107655E-004  0.000000E+000
-0.534932E-005 -0.103678E-004  0.000000E+000
-0.498533E-005 -0.100005E-004  0.000000E+000
-0.468211E-005 -0.966360E-005  0.000000E+000
-0.448102E-005 -0.934736E-005  0.000000E+000
-0.446077E-005 -0.901502E-005  0.000000E+000
-0.477689E-005 -0.855007E-005  0.000000E+000
-0.574619E-005 -0.759627E-005  0.000000E+000
 0.360199E-004  0.276808E-005  0.000000E+000
 0.347690E-004  0.257356E-005  0.000000E+000
 0.335413E-004  0.237854E-005  0.000000E+000
 0.323405E-004  0.218283E-005  0.000000E+000
 0.311710E-004  0.198637E-005  0.000000E+000
 0.300382E-004  0.178929E-005  0.000000E+000
 0.289484E-004  0.159196E-005  0.000000E+000
 0.279101E-004  0.139515E-005  0.000000E+000
 0.269332E-004  0.120029E-005  0.000000E+000
 0.260308E-004  0.100991E-005  0.000000E+000
 0.252190E-004  0.828551E-006  0.000000E+000
 0.245179E-004  0.664394E-006  0.000000E+000
 0.239517E-004  0.532670E-006  0.000000E+000
 0.235464E-004  0.462590E-006  0.000000E+000
 0.233190E-004  0.511700E-006  0.000000E+000
 0.232406E-004  0.795919E-006  0.000000E+000
 0.231149E-004  0.155404E-005  0.000000E+000
-0.791007E-005 -0.154520E-004  0.000000E+000
-0.752223E-005 -0.149133E-004  0.000000E+000
-0.713655E-005 -0.143838E-004  0.000000E+000
-0.675337E-005 -0.138650E-004  0.000000E+000
-0.637326E-005 -0.133582E-004  0.000000E+000
-0.599707E-005 -0.128654E-004  0.000000E+000
-0.562606E-005 -0.123884E-004  0.000000E+000
-0.526206E-005 -0.119298E-004  0.000000E+000
-0.490785E-005 -0.114922E-004  0.000000E+000
-0.456770E-005 -0.110783E-004  0.000000E+000
-0.424833E-005 -0.106905E-004  0.000000E+000
-0.396080E-005 -0.103299E-004  0.000000E+000
-0.372407E-005 -0.999306E-005  0.000000E+000
-0.357207E-005 -0.966469E-005  0.000000E+000
-0.356812E-005 -0.929817E-005  0.000000E+000
-0.383453E-005 -0.876143E-005  0.000000E+000
-0.461454E-005 -0.767983E-005  0.000000E+000
 0.362673E-004  0.204167E-005  0.000000E+000
 0.350299E-004  0.189462E-005  0.000000E+000
 0.338164E-004  0.174735E-005  0.000000E+000
 0.326303E-004  0.159967E-005  0.000000E+000
 0.314760E-004  0.145150E-005  0.000000E+000
 0.303588E-004  0.130296E-005  0.000000E+000
 0.292852E-004  0.115436E-005  0.000000E+000
 0.282632E-004  0.100636E-005  0.000000E+000
 0.273026E-004  0.860133E-006  0.000000E+000
 0.264159E-004  0.717761E-006  0.000000E+000
 0.256182E-004  0.582902E-006  0.000000E+000
 0.249280E-004  0.462102E-006  0.000000E+000
 0.243663E-004  0.367363E-006  0.000000E+000
 0.239538E-004  0.321292E-006  0.000000E+000
 0.236982E-004  0.367530E-006  0.000000E+000
 0.235561E-004  0.592193E-006  0.000000E+000
 0.233121E-004  0.116922E-005  0.000000E+000
-0.591122E-005 -0.156297E-004  0.000000E+000
-0.561981E-005 -0.150994E-004  0.000000E+000
-0.533015E-005 -0.145787E-004  0.000000E+000
-0.504245E-005 -0.140690E-004  0.000000E+000
-0.475713E-005 -0.135717E-004  0.000000E+000
-0.447485E-005 -0.130885E-004  0.000000E+000
-0.419658E-005 -0.126214E-004  0.000000E+000
-0.392377E-005 -0.121726E-004  0.000000E+000
-0.365858E-005 -0.117444E-004  0.000000E+000
-0.340437E-005 -0.113392E-004  0.000000E+000
-0.316639E-005 -0.109584E-004  0.000000E+000
-0.295324E-005 -0.106015E-004  0.000000E+000
-0.277957E-005 -0.102625E-004  0.000000E+000
-0.267128E-005 -0.992152E-005  0.000000E+000
-0.267593E-005 -0.952436E-005  0.000000E+000
-0.288383E-005 -0.892768E-005  0.000000E+000
-0.347118E-005 -0.774487E-005  0.000000E+000
 0.364562E-004  0.134351E-005  0.000000E+000
 0.352287E-004  0.124489E-005  0.000000E+000
 0.340255E-004  0.114621E-005  0.000000E+000
 0.328502E-004  0.104732E-005  0.000000E+000
 0.317070E-004  0.948156E-006  0.000000E+000
 0.306012E-004  0.848791E-006  0.000000E+000
 0.295392E-004  0.749465E-006  0.000000E+000
 0.285288E-004  0.650647E-006  0.000000E+000
 0.275798E-004  0.553185E-006  0.000000E+000
 0.267040E-004  0.458552E-006  0.000000E+000
 0.259158E-004  0.369325E-006  0.000000E+000
 0.252323E-004  0.290066E-006  0.000000E+000
 0.246724E-004  0.229053E-006  0.000000E+000
 0.242526E-004  0.201676E-006  0.000000E+000
 0.239740E-004  0.237211E-006  0.000000E+000
 0.237834E-004  0.392597E-006  0.000000E+000
 0.234532E-004  0.781247E-006  0.000000E+000
-0.392972E-005 -0.157665E-004  0.000000E+000
-0.373517E-005 -0.152424E-004  0.000000E+000
-0.354186E-005 -0.147282E-004  0.000000E+000
-0.334991E-005 -0.142251E-004  0.000000E+000
-0.315959E-005 -0.137347E-004  0.000000E+000
-0.297135E-005 -0.132585E-004  0.000000E+000
-0.278585E-005 -0.127985E-004  0.000000E+000
-0.260410E-005 -0.123567E-004  0.000000E+000
-0.242760E-005 -0.119351E-004  0.000000E+000
-0.225863E-005 -0.115358E-004  0.000000E+000
-0.210082E-005 -0.111594E-004  0.000000E+000
-0.196006E-005 -0.108043E-004  0.000000E+000
-0.184631E-005 -0.104624E-004  0.000000E+000
-0.177703E-005 -0.101105E-004  0.000000E+000
-0.178393E-005 -0.968916E-005  0.000000E+000
-0.192645E-005 -0.904738E-005  0.000000E+000
-0.231903E-005 -0.779135E-005  0.000000E+000
 0.365746E-004  0.666210E-006  0.000000E+000
 0.353533E-004  0.616712E-006  0.000000E+000
 0.341564E-004  0.567226E-006  0.000000E+000
 0.329877E-004  0.517648E-006  0.000000E+000
 0.318512E-004  0.467949E-006  0.000000E+000
 0.307523E-004  0.418169E-006  0.000000E+000
 0.296973E-004  0.368433E-006  0.000000E+000
 0.286940E-004  0.318988E-006  0.000000E+000
 0.277518E-004  0.270277E-006  0.000000E+000
 0.268823E-004  0.223066E-006  0.000000E+000
 0.260995E-004  0.178683E-006  0.000000E+000
 0.254196E-004  0.139473E-006  0.000000E+000
 0.248601E-004  0.109657E-006  0.000000E+000
 0.244349E-004  0.970210E-007  0.000000E+000
 0.241415E-004  0.116248E-006  0.000000E+000
 0.239206E-004  0.195653E-006  0.000000E+000
 0.235379E-004  0.391154E-006  0.000000E+000
-0.196133E-005 -0.158528E-004  0.000000E+000
-0.186396E-005 -0.153325E-004  0.000000E+000
-0.176724E-005 -0.148223E-004  0.000000E+000
-0.167122E-005 -0.143233E-004  0.000000E+000
-0.157604E-005 -0.138371E-004  0.000000E+000
-0.148190E-005 -0.133652E-004  0.000000E+000
-0.138917E-005 -0.129094E-004  0.000000E+000
-0.129834E-005 -0.124717E-004  0.000000E+000
-0.121018E-005 -0.120541E-004  0.000000E+000
-0.112587E-005 -0.116581E-004  0.000000E+000
-0.104724E-005 -0.112841E-004  0.000000E+000
-0.977297E-006 -0.109296E-004  0.000000E+000
-0.921067E-006 -0.105854E-004  0.000000E+000
-0.887343E-006 -0.102262E-004  0.000000E+000
-0.891972E-006 -0.978933E-005  0.000000E+000
-0.964424E-006 -0.911958E-005  0.000000E+000
-0.116099E-005 -0.781924E-005  0.000000E+000
 0.366150E-004  0.000000E+000  0.000000E+000
 0.353957E-004 -0.358729E-017  0.000000E+000
 0.342010E-004 -0.793829E-016  0.000000E+000
 0.330345E-004  0.167152E-015  0.000000E+000
 0.319003E-004 -0.449249E-016  0.000000E+000
 0.308037E-004 -0.700810E-016  0.000000E+000
 0.297510E-004  0.153458E-015  0.000000E+000
 0.287500E-004  0.907920E-016  0.000000E+000
 0.278101E-004 -0.668553E-016  0.000000E+000
 0.269427E-004  0.892626E-016  0.000000E+000
 0.261617E-004  0.204184E-015  0.000000E+000
 0.254829E-004  0.146187E-015  0.000000E+000
 0.249234E-004 -0.122142E-016  0.000000E+000
 0.244963E-004  0.706346E-016  0.000000E+000
 0.241976E-004 -0.780969E-016  0.000000E+000
 0.239664E-004 -0.451519E-016  0.000000E+000
 0.235662E-004  0.173117E-016  0.000000E+000
 0.192036E-020 -0.158823E-004  0.000000E+000
 0.555232E-016 -0.153633E-004  0.000000E+000
-0.381427E-016 -0.148544E-004  0.000000E+000
 0.697024E-017 -0.143568E-004  0.000000E+000
-0.485378E-016 -0.138720E-004  0.000000E+000
 0.104476E-016 -0.134015E-004  0.000000E+000
-0.450639E-016 -0.129471E-004  0.000000E+000
 0.590242E-016 -0.125109E-004  0.000000E+000
 0.243358E-016 -0.120945E-004  0.000000E+000
-0.589285E-016 -0.116996E-004  0.000000E+000
-0.207587E-016 -0.113263E-004  0.000000E+000
 0.139327E-016 -0.109720E-004  0.000000E+000
-0.687629E-017 -0.106269E-004  0.000000E+000
 0.208804E-016 -0.102651E-004  0.000000E+000
 0.208881E-016 -0.982294E-005  0.000000E+000
-0.138183E-016 -0.914370E-005  0.000000E+000
-0.688874E-017 -0.782854E-005  0.000000E+000
 0.365746E-004 -0.666210E-006  0.000000E+000
 0.353533E-004 -0.616712E-006  0.000000E+000
 0.341564E-004 -0.567226E-006  0.000000E+000
 0.329877E-004 -0.517648E-006  0.000000E+000
 0.318512E-004 -0.467949E-006  0.000000E+000
 0.307523E-004 -0.418169E-006  0.000000E+000
 0.296973E-004 -0.368433E-006  0.000000E+000
 0.286940E-004 -0.318988E-006  0.000000E+000
 0.277518E-004 -0.270277E-006  0.000000E+000
 0.268823E-004 -0.223066E-006  0.000000E+000
 0.260995E-004 -0.178683E-006  0.000000E+000
 0.254196E-004 -0.139473E-006  0.000000E+000
 0.248601E-004 -0.109657E-006  0.000000E+000
 0.244349E-004 -0.970210E-007  0.000000E+000
 0.241415E-004 -0.116248E-006  0.000000E+000
 0.239206E-004 -0.195653E-006  0.000000E+000
 0.235379E-004 -0.391154E-006  0.000000E+000
 0.196133E-005 -0.158528E-004  0.000000E+000
 0.186396E-005 -0.153325E-004  0.000000E+000
 0.176724E-005 -0.148223E-004  0.000000E+000
 0.167122E-005 -0.143233E-004  0.000000E+000
 0.157604E-005 -0.138371E-004  0.000000E+000
 0.148190E-005 -0.133652E-004  0.000000E+000
 0.138917E-005 -0.129094E-004  0.000000E+000
 0.129834E-005 -0.124717E-004  0.000000E+000
 0.121018E-005 -0.120541E-004  0.000000E+000
 0.112587E-005 -0.116581E-004  0.000000E+000
 0.104724E-005 -0.112841E-004  0.000000E+000
 0.977297E-006 -0.109296E-004  0.000000E+000
 0.921067E-006 -0.105854E-004  0.000000E+000
 0.887343E-006 -0.102262E-004  0.000000E+000
 0.891972E-006 -0.978933E-005  0.000000E+000
 0.964424E-006 -0.911958E-005  0.000000E+000
 0.116099E-005 -0.781924E-005  0.000000E+000
 0.364562E-004 -0.134351E-005  0.000000E+000
 0.352287E-004 -0.124489E-005  0.000000E+000
 0.340255E-004 -0.114621E-005  0.000000E+000
 0.328502E-004 -0.104732E-005  0.000000E+000
 0.317070E-004 -0.948156E-006  0.000000E+000
 0.306012E-004 -0.848791E-006  0.000000E+000
 0.295392E-004 -0.749465E-006  0.000000E+000
 0.285288E-004 -0.650647E-006  0.000000E+000
 0.275798E-004 -0.553185E-006  0.000000E+000
 0.267040E-004 -0.458552E-006  0.000000E+000
 0.259158E-004 -0.369325E-006  0.000000E+000
 0.252323E-004 -0.290066E-006  0.000000E+000
 0.246724E-004 -0.229053E-006  0.000000E+000
 0.242526E-004 -0.201676E-006  0.000000E+000
 0.239740E-004 -0.237211E-006  0.000000E+000
 0.237834E-004 -0.392597E-006  0.000000E+000
 0.234532E-004 -0.781247E-006  0.000000E+000
 0.392972E-005 -0.157665E-004  0.000000E+000
 0.373517E-005 -0.152424E-004  0.000000E+000
 0.354186E-005 -0.147282E-004  0.000000E+000
 0.334991E-005 -0.142251E-004  0.000000E+000
 0.315959E-005 -0.137347E-004  0.000000E+000
 0.297135E-005 -0.132585E-004  0.000000E+000
 0.278585E-005 -0.127985E-004  0.000000E+000
 0.260410E-005 -0.123567E-004  0.000000E+000
 0.242760E-005 -0.119351E-004  0.000000E+000
 0.225863E-005 -0.115358E-004  0.000000E+000
 0.210082E-005 -0.111594E-004  0.000000E+000
 0.196006E-005 -0.108043E-004  0.000000E+000
 0.184631E-005 -0.104624E-004  0.000000E+000
 0.177703E-005 -0.101105E-004  0.000000E+000
 0.178393E-005 -0.968916E-005  0.000000E+000
 0.192645E-005 -0.904738E-005  0.000000E+000
 0.231903E-005 -0.779135E-005  0.000000E+000
 0.362673E-004 -0.204167E-005  0.000000E+000
 0.350299E-004 -0.189462E-005  0.000000E+000
 0.338164E-004 -0.174735E-005  0.000000E+000
 0.326303E-004 -0.159967E-005  0.000000E+000
 0.314760E-004 -0.145150E-005  0.000000E+000
 0.303588E-004 -0.130296E-005  0.000000E+000
 0.292852E-004 -0.115436E-005  0.000000E+000
 0.282632E-004 -0.100636E-005  0.000000E+000
 0.273026E-004 -0.860133E-006  0.000000E+000
 0.264159E-004 -0.717761E-006  0.000000E+000
 0.256182E-004 -0.582902E-006  0.000000E+000
 0.249280E-004 -0.462102E-006  0.000000E+000
 0.243663E-004 -0.367363E-006  0.000000E+000
 0.239538E-004 -0.321292E-006  0.000000E+000
 0.236982E-004 -0.367530E-006  0.000000E+000
 0.235561E-004 -0.592193E-006  0.000000E+000
 0.233121E-004 -0.116922E-005  0.000000E+000
 0.591122E-005 -0.156297E-004  0.000000E+000
 0.561981E-005 -0.150994E-004  0.000000E+000
 0.533015E-005 -0.145787E-004  0.000000E+000
 0.504245E-005 -0.140690E-004  0.000000E+000
 0.475713E-005 -0.135717E-004  0.000000E+000
 0.447485E-005 -0.130885E-004  0.000000E+000
 0.419658E-005 -0.126214E-004  0.000000E+000
 0.392377E-005 -0.121726E-004  0.000000E+000
 0.365858E-005 -0.117444E-004  0.000000E+000
 0.340437E-005 -0.113392E-004  0.000000E+000
 0.316639E-005 -0.109584E-004  0.000000E+000
 0.295324E-005 -0.106015E-004  0.000000E+000
 0.277957E-005 -0.102625E-004  0.000000E+000
 0.267128E-005 -0.992152E-005  0.000000E+000
 0.267593E-005 -0.952436E-005  0.000000E+000
 0.288383E-005 -0.892768E-005  0.000000E+000
 0.347118E-005 -0.774487E-005  0.000000E+000
 0.360199E-004 -0.276808E-005  0.000000E+000
 0.347690E-004 -0.257356E-005  0.000000E+000
 0.335413E-004 -0.237854E-005  0.000000E+000
 0.323405E-004 -0.218283E-005  0.000000E+000
 0.311710E-004 -0.198637E-005  0.000000E+000
 0.300382E-004 -0.178929E-005  0.000000E+000
 0.289484E-004 -0.159196E-005  0.000000E+000
 0.279101E-004 -0.139515E-005  0.000000E+000
 0.269332E-004 -0.120029E-005  0.000000E+000
 0.260308E-004 -0.100991E-005  0.000000E+000
 0.252190E-004 -0.828551E-006  0.000000E+000
 0.245179E-004 -0.664394E-006  0.000000E+000
 0.239517E-004 -0.532670E-006  0.000000E+000
 0.235464E-004 -0.462590E-006  0.000000E+000
 0.233190E-004 -0.511700E-006  0.000000E+000
 0.232406E-004 -0.795919E-006  0.000000E+000
 0.231149E-004 -0.155404E-005  0.000000E+000
 0.791007E-005 -0.154520E-004  0.000000E+000
 0.752223E-005 -0.149133E-004  0.000000E+000
 0.713655E-005 -0.143838E-004  0.000000E+000
 0.675337E-005 -0.138650E-004  0.000000E+000
 0.637326E-005 -0.133582E-004  0.000000E+000
 0.599707E-005 -0.128654E-004  0.000000E+000
 0.562606E-005 -0.123884E-004  0.000000E+000
 0.526206E-005 -0.119298E-004  0.000000E+000
 0.490785E-005 -0.114922E-004  0.000000E+000
 0.456770E-005 -0.110783E-004  0.000000E+000
 0.424833E-005 -0.106905E-004  0.000000E+000
 0.396080E-005 -0.103299E-004  0.000000E+000
 0.372407E-005 -0.999306E-005  0.000000E+000
 0.357207E-005 -0.966469E-005  0.000000E+000
 0.356812E-005 -0.929817E-005  0.000000E+000
 0.383453E-005 -0.876143E-005  0.000000E+000
 0.461454E-005 -0.767983E-005  0.000000E+000
 0.357280E-004 -0.352715E-005  0.000000E+000
 0.344604E-004 -0.328629E-005  0.000000E+000
 0.332152E-004 -0.304456E-005  0.000000E+000
 0.319962E-004 -0.280181E-005  0.000000E+000
 0.308077E-004 -0.255801E-005  0.000000E+000
 0.296551E-004 -0.231327E-005  0.000000E+000
 0.285450E-004 -0.206799E-005  0.000000E+000
 0.274858E-004 -0.182301E-005  0.000000E+000
 0.264878E-004 -0.157988E-005  0.000000E+000
 0.255647E-004 -0.134148E-005  0.000000E+000
 0.247336E-004 -0.111294E-005  0.000000E+000
 0.240165E-004 -0.903677E-006  0.000000E+000
 0.234413E-004 -0.731522E-006  0.000000E+000
 0.230405E-004 -0.631400E-006  0.000000E+000
 0.228430E-004 -0.673963E-006  0.000000E+000
 0.228399E-004 -0.100541E-005  0.000000E+000
 0.228620E-004 -0.193467E-005  0.000000E+000
 0.992824E-005 -0.152445E-004  0.000000E+000
 0.944445E-005 -0.146956E-004  0.000000E+000
 0.896315E-005 -0.141554E-004  0.000000E+000
 0.848483E-005 -0.136253E-004  0.000000E+000
 0.801022E-005 -0.131068E-004  0.000000E+000
 0.754035E-005 -0.126018E-004  0.000000E+000
 0.707671E-005 -0.121125E-004  0.000000E+000
 0.662150E-005 -0.116413E-004  0.000000E+000
 0.617801E-005 -0.111912E-004  0.000000E+000
 0.575128E-005 -0.107655E-004  0.000000E+000
 0.534932E-005 -0.103678E-004  0.000000E+000
 0.498533E-005 -0.100005E-004  0.000000E+000
 0.468211E-005 -0.966360E-005  0.000000E+000
 0.448102E-005 -0.934736E-005  0.000000E+000
 0.446077E-005 -0.901502E-005  0.000000E+000
 0.477689E-005 -0.855007E-005  0.000000E+000
 0.574619E-005 -0.759627E-005  0.000000E+000
 0.354065E-004 -0.432026E-005  0.000000E+000
 0.341195E-004 -0.403428E-005  0.000000E+000
 0.328540E-004 -0.374701E-005  0.000000E+000
 0.316136E-004 -0.345837E-005  0.000000E+000
 0.304028E-004 -0.316835E-005  0.000000E+000
 0.292268E-004 -0.287705E-005  0.000000E+000
 0.280924E-004 -0.258487E-005  0.000000E+000
 0.270080E-004 -0.229264E-005  0.000000E+000
 0.259843E-004 -0.200198E-005  0.000000E+000
 0.250353E-004 -0.171589E-005  0.000000E+000
 0.241794E-004 -0.143990E-005  0.000000E+000
 0.234404E-004 -0.118425E-005  0.000000E+000
 0.228500E-004 -0.968589E-006  0.000000E+000
 0.224482E-004 -0.832414E-006  0.000000E+000
 0.222786E-004 -0.858194E-006  0.000000E+000
 0.223576E-004 -0.122246E-005  0.000000E+000
 0.225538E-004 -0.231010E-005  0.000000E+000
 0.119655E-004 -0.150192E-004  0.000000E+000
 0.113862E-004 -0.144585E-004  0.000000E+000
 0.108097E-004 -0.139059E-004  0.000000E+000
 0.102366E-004 -0.133628E-004  0.000000E+000
 0.966788E-005 -0.128306E-004  0.000000E+000
 0.910462E-005 -0.123114E-004  0.000000E+000
 0.854859E-005 -0.118072E-004  0.000000E+000
 0.800227E-005 -0.113208E-004  0.000000E+000
 0.746940E-005 -0.108554E-004  0.000000E+000
 0.695566E-005 -0.104148E-004  0.000000E+000
 0.647015E-005 -0.100035E-004  0.000000E+000
 0.602787E-005 -0.962599E-005  0.000000E+000
 0.565488E-005 -0.928531E-005  0.000000E+000
 0.539920E-005 -0.897841E-005  0.000000E+000
 0.535421E-005 -0.868054E-005  0.000000E+000
 0.570961E-005 -0.829554E-005  0.000000E+000
 0.686328E-005 -0.749425E-005  0.000000E+000
 0.350697E-004 -0.514610E-005  0.000000E+000
 0.337610E-004 -0.481618E-005  0.000000E+000
 0.324727E-004 -0.448460E-005  0.000000E+000
 0.312084E-004 -0.415133E-005  0.000000E+000
 0.299724E-004 -0.381635E-005  0.000000E+000
 0.287700E-004 -0.347977E-005  0.000000E+000
 0.276078E-004 -0.314195E-005  0.000000E+000
 0.264943E-004 -0.280368E-005  0.000000E+000
 0.254405E-004 -0.246656E-005  0.000000E+000
 0.244608E-004 -0.213360E-005  0.000000E+000
 0.235743E-004 -0.181046E-005  0.000000E+000
 0.228070E-004 -0.150783E-005  0.000000E+000
 0.221941E-004 -0.124646E-005  0.000000E+000
 0.217836E-004 -0.106897E-005  0.000000E+000
 0.216356E-004 -0.106777E-005  0.000000E+000
 0.217981E-004 -0.144897E-005  0.000000E+000
 0.221908E-004 -0.267933E-005  0.000000E+000
 0.140198E-004 -0.147871E-004  0.000000E+000
 0.133453E-004 -0.142134E-004  0.000000E+000
 0.126740E-004 -0.136472E-004  0.000000E+000
 0.120065E-004 -0.130896E-004  0.000000E+000
 0.113440E-004 -0.125423E-004  0.000000E+000
 0.106877E-004 -0.120070E-004  0.000000E+000
 0.100396E-004 -0.114859E-004  0.000000E+000
 0.940243E-005 -0.109820E-004  0.000000E+000
 0.878026E-005 -0.104986E-004  0.000000E+000
 0.817938E-005 -0.100400E-004  0.000000E+000
 0.760971E-005 -0.961155E-005  0.000000E+000
 0.708777E-005 -0.921948E-005  0.000000E+000
 0.664233E-005 -0.887030E-005  0.000000E+000
 0.632704E-005 -0.856786E-005  0.000000E+000
 0.624878E-005 -0.830135E-005  0.000000E+000
 0.663182E-005 -0.800034E-005  0.000000E+000
 0.796298E-005 -0.737384E-005  0.000000E+000
 0.347302E-004 -0.600129E-005  0.000000E+000
 0.333980E-004 -0.562857E-005  0.000000E+000
 0.320851E-004 -0.525388E-005  0.000000E+000
 0.307947E-004 -0.487723E-005  0.000000E+000
 0.295312E-004 -0.449861E-005  0.000000E+000
 0.282997E-004 -0.411812E-005  0.000000E+000
 0.271068E-004 -0.373608E-005  0.000000E+000
 0.259610E-004 -0.335322E-005  0.000000E+000
 0.248732E-004 -0.297103E-005  0.000000E+000
 0.238582E-004 -0.259243E-005  0.000000E+000
 0.229358E-004 -0.222306E-005  0.000000E+000
 0.221336E-004 -0.187371E-005  0.000000E+000
 0.214902E-004 -0.156556E-005  0.000000E+000
 0.210613E-004 -0.134288E-005  0.000000E+000
 0.209249E-004 -0.130541E-005  0.000000E+000
 0.211670E-004 -0.168695E-005  0.000000E+000
 0.217737E-004 -0.304138E-005  0.000000E+000
 0.160875E-004 -0.145578E-004  0.000000E+000
 0.153182E-004 -0.139704E-004  0.000000E+000
 0.145523E-004 -0.133896E-004  0.000000E+000
 0.137908E-004 -0.128166E-004  0.000000E+000
 0.130348E-004 -0.122528E-004  0.000000E+000
 0.122858E-004 -0.117001E-004  0.000000E+000
 0.115460E-004 -0.111606E-004  0.000000E+000
 0.108183E-004 -0.106372E-004  0.000000E+000
 0.101071E-004 -0.101335E-004  0.000000E+000
 0.941923E-005 -0.965404E-005  0.000000E+000
 0.876523E-005 -0.920496E-005  0.000000E+000
 0.816287E-005 -0.879401E-005  0.000000E+000
 0.764313E-005 -0.843089E-005  0.000000E+000
 0.726420E-005 -0.812637E-005  0.000000E+000
 0.714471E-005 -0.788500E-005  0.000000E+000
 0.754299E-005 -0.766761E-005  0.000000E+000
 0.904249E-005 -0.723516E-005  0.000000E+000
 0.343980E-004 -0.688119E-005  0.000000E+000
 0.330411E-004 -0.646664E-005  0.000000E+000
 0.317021E-004 -0.604994E-005  0.000000E+000
 0.303842E-004 -0.563110E-005  0.000000E+000
 0.290914E-004 -0.521013E-005  0.000000E+000
 0.278289E-004 -0.478712E-005  0.000000E+000
 0.266030E-004 -0.436233E-005  0.000000E+000
 0.254221E-004 -0.393643E-005  0.000000E+000
 0.242971E-004 -0.351082E-005  0.000000E+000
 0.232428E-004 -0.308822E-005  0.000000E+000
 0.222796E-004 -0.267405E-005  0.000000E+000
 0.214364E-004 -0.227900E-005  0.000000E+000
 0.207545E-004 -0.192429E-005  0.000000E+000
 0.202964E-004 -0.165436E-005  0.000000E+000
 0.201584E-004 -0.157306E-005  0.000000E+000
 0.204703E-004 -0.193838E-005  0.000000E+000
 0.213033E-004 -0.339527E-005  0.000000E+000
 0.181646E-004 -0.143387E-004  0.000000E+000
 0.173004E-004 -0.137372E-004  0.000000E+000
 0.164401E-004 -0.131413E-004  0.000000E+000
 0.155847E-004 -0.125522E-004  0.000000E+000
 0.147356E-004 -0.119713E-004  0.000000E+000
 0.138942E-004 -0.114003E-004  0.000000E+000
 0.130630E-004 -0.108412E-004  0.000000E+000
 0.122452E-004 -0.102969E-004  0.000000E+000
 0.114454E-004 -0.977102E-005  0.000000E+000
 0.106708E-004 -0.926835E-005  0.000000E+000
 0.993264E-005 -0.879548E-005  0.000000E+000
 0.924968E-005 -0.836149E-005  0.000000E+000
 0.865472E-005 -0.797887E-005  0.000000E+000
 0.820943E-005 -0.766479E-005  0.000000E+000
 0.804199E-005 -0.743972E-005  0.000000E+000
 0.844290E-005 -0.730107E-005  0.000000E+000
 0.100990E-004 -0.707832E-005  0.000000E+000
 0.340810E-004 -0.778056E-005  0.000000E+000
 0.326984E-004 -0.732498E-005  0.000000E+000
 0.313323E-004 -0.686720E-005  0.000000E+000
 0.299857E-004 -0.640725E-005  0.000000E+000
 0.286625E-004 -0.594510E-005  0.000000E+000
 0.273676E-004 -0.548086E-005  0.000000E+000
 0.261070E-004 -0.501478E-005  0.000000E+000
 0.248890E-004 -0.454742E-005  0.000000E+000
 0.237243E-004 -0.408010E-005  0.000000E+000
 0.226276E-004 -0.361539E-005  0.000000E+000
 0.216193E-004 -0.315832E-005  0.000000E+000
 0.207294E-004 -0.271923E-005  0.000000E+000
 0.200015E-004 -0.231922E-005  0.000000E+000
 0.195035E-004 -0.200200E-005  0.000000E+000
 0.193486E-004 -0.187175E-005  0.000000E+000
 0.197151E-004 -0.220514E-005  0.000000E+000
 0.207802E-004 -0.373999E-005  0.000000E+000
 0.202467E-004 -0.141353E-004  0.000000E+000
 0.192875E-004 -0.135193E-004  0.000000E+000
 0.183328E-004 -0.129082E-004  0.000000E+000
 0.173836E-004 -0.123028E-004  0.000000E+000
 0.164413E-004 -0.117044E-004  0.000000E+000
 0.155078E-004 -0.111145E-004  0.000000E+000
 0.145854E-004 -0.105353E-004  0.000000E+000
 0.136777E-004 -0.996918E-005  0.000000E+000
 0.127897E-004 -0.941986E-005  0.000000E+000
 0.119289E-004 -0.889218E-005  0.000000E+000
 0.111070E-004 -0.839299E-005  0.000000E+000
 0.103438E-004 -0.793228E-005  0.000000E+000
 0.967352E-005 -0.752493E-005  0.000000E+000
 0.916061E-005 -0.719365E-005  0.000000E+000
 0.894024E-005 -0.697421E-005  0.000000E+000
 0.933155E-005 -0.690512E-005  0.000000E+000
 0.111298E-004 -0.690348E-005  0.000000E+000
 0.337843E-004 -0.869416E-005  0.000000E+000
 0.323754E-004 -0.819815E-005  0.000000E+000
 0.309815E-004 -0.770004E-005  0.000000E+000
 0.296056E-004 -0.719982E-005  0.000000E+000
 0.282513E-004 -0.669751E-005  0.000000E+000
 0.269230E-004 -0.619319E-005  0.000000E+000
 0.256268E-004 -0.568711E-005  0.000000E+000
 0.243704E-004 -0.517983E-005  0.000000E+000
 0.231641E-004 -0.467246E-005  0.000000E+000
 0.220227E-004 -0.416758E-005  0.000000E+000
 0.209660E-004 -0.366986E-005  0.000000E+000
 0.200245E-004 -0.318889E-005  0.000000E+000
 0.192441E-004 -0.274554E-005  0.000000E+000
 0.186964E-004 -0.238278E-005  0.000000E+000
 0.185082E-004 -0.220151E-005  0.000000E+000
 0.189089E-004 -0.248895E-005  0.000000E+000
 0.202053E-004 -0.407446E-005  0.000000E+000
 0.223297E-004 -0.139507E-004  0.000000E+000
 0.212753E-004 -0.133206E-004  0.000000E+000
 0.202259E-004 -0.126942E-004  0.000000E+000
 0.191827E-004 -0.120725E-004  0.000000E+000
 0.181472E-004 -0.114566E-004  0.000000E+000
 0.171214E-004 -0.108479E-004  0.000000E+000
 0.161080E-004 -0.102481E-004  0.000000E+000
 0.151107E-004 -0.965990E-005  0.000000E+000
 0.141347E-004 -0.908637E-005  0.000000E+000
 0.131881E-004 -0.853253E-005  0.000000E+000
 0.122832E-004 -0.800521E-005  0.000000E+000
 0.114403E-004 -0.751485E-005  0.000000E+000
 0.106952E-004 -0.707820E-005  0.000000E+000
 0.101147E-004 -0.672262E-005  0.000000E+000
 0.983859E-005 -0.649737E-005  0.000000E+000
 0.102091E-004 -0.648478E-005  0.000000E+000
 0.121320E-004 -0.671080E-005  0.000000E+000
 0.335110E-004 -0.961713E-005  0.000000E+000
 0.320754E-004 -0.908110E-005  0.000000E+000
 0.306536E-004 -0.854317E-005  0.000000E+000
 0.292480E-004 -0.800335E-005  0.000000E+000
 0.278621E-004 -0.746163E-005  0.000000E+000
 0.265002E-004 -0.691819E-005  0.000000E+000
 0.251676E-004 -0.637319E-005  0.000000E+000
 0.238721E-004 -0.582730E-005  0.000000E+000
 0.226233E-004 -0.528158E-005  0.000000E+000
 0.214353E-004 -0.473823E-005  0.000000E+000
 0.203283E-004 -0.420221E-005  0.000000E+000
 0.193314E-004 -0.368203E-005  0.000000E+000
 0.184926E-004 -0.319762E-005  0.000000E+000
 0.178871E-004 -0.279227E-005  0.000000E+000
 0.176500E-004 -0.256123E-005  0.000000E+000
 0.180602E-004 -0.279124E-005  0.000000E+000
 0.195796E-004 -0.439746E-005  0.000000E+000
 0.244102E-004 -0.137868E-004  0.000000E+000
 0.232600E-004 -0.131426E-004  0.000000E+000
 0.221155E-004 -0.125013E-004  0.000000E+000
 0.209779E-004 -0.118636E-004  0.000000E+000
 0.198489E-004 -0.112305E-004  0.000000E+000
 0.187306E-004 -0.106031E-004  0.000000E+000
 0.176260E-004 -0.998310E-005  0.000000E+000
 0.165390E-004 -0.937255E-005  0.000000E+000
 0.154753E-004 -0.877495E-005  0.000000E+000
 0.144431E-004 -0.819417E-005  0.000000E+000
 0.134557E-004 -0.763775E-005  0.000000E+000
 0.125341E-004 -0.711574E-005  0.000000E+000
 0.117150E-004 -0.664605E-005  0.000000E+000
 0.110680E-004 -0.626002E-005  0.000000E+000
 0.107355E-004 -0.601795E-005  0.000000E+000
 0.110756E-004 -0.604567E-005  0.000000E+000
 0.131027E-004 -0.650047E-005  0.000000E+000
 0.332624E-004 -0.105453E-004  0.000000E+000
 0.318001E-004 -0.996942E-005  0.000000E+000
 0.303502E-004 -0.939198E-005  0.000000E+000
 0.289149E-004 -0.881295E-005  0.000000E+000
 0.274975E-004 -0.823241E-005  0.000000E+000
 0.261017E-004 -0.765047E-005  0.000000E+000
 0.247329E-004 -0.706753E-005  0.000000E+000
 0.233978E-004 -0.648399E-005  0.000000E+000
 0.221062E-004 -0.590130E-005  0.000000E+000
 0.208708E-004 -0.532133E-005  0.000000E+000
 0.197117E-004 -0.474872E-005  0.000000E+000
 0.186576E-004 -0.419256E-005  0.000000E+000
 0.177549E-004 -0.366974E-005  0.000000E+000
 0.170851E-004 -0.322481E-005  0.000000E+000
 0.167862E-004 -0.294862E-005  0.000000E+000
 0.171782E-004 -0.311314E-005  0.000000E+000
 0.189035E-004 -0.470751E-005  0.000000E+000
 0.264855E-004 -0.136437E-004  0.000000E+000
 0.252388E-004 -0.129859E-004  0.000000E+000
 0.239984E-004 -0.123300E-004  0.000000E+000
 0.227658E-004 -0.116768E-004  0.000000E+000
 0.215427E-004 -0.110269E-004  0.000000E+000
 0.203316E-004 -0.103814E-004  0.000000E+000
 0.191353E-004 -0.974149E-005  0.000000E+000
 0.179585E-004 -0.910940E-005  0.000000E+000
 0.168067E-004 -0.848745E-005  0.000000E+000
 0.156895E-004 -0.788055E-005  0.000000E+000
 0.146196E-004 -0.729377E-005  0.000000E+000
 0.136200E-004 -0.673967E-005  0.000000E+000
 0.127283E-004 -0.623410E-005  0.000000E+000
 0.120161E-004 -0.581262E-005  0.000000E+000
 0.116290E-004 -0.554408E-005  0.000000E+000
 0.119312E-004 -0.559412E-005  0.000000E+000
 0.140388E-004 -0.627256E-005  0.000000E+000
 0.330387E-004 -0.114752E-004  0.000000E+000
 0.315497E-004 -0.108595E-004  0.000000E+000
 0.300717E-004 -0.102426E-004  0.000000E+000
 0.286069E-004 -0.962458E-005  0.000000E+000
 0.271580E-004 -0.900548E-005  0.000000E+000
 0.257287E-004 -0.838554E-005  0.000000E+000
 0.243237E-004 -0.776509E-005  0.000000E+000
 0.229496E-004 -0.714497E-005  0.000000E+000
 0.216148E-004 -0.652605E-005  0.000000E+000
 0.203325E-004 -0.591124E-005  0.000000E+000
 0.191201E-004 -0.530375E-005  0.000000E+000
 0.180076E-004 -0.471383E-005  0.000000E+000
 0.170385E-004 -0.415679E-005  0.000000E+000
 0.162964E-004 -0.367417E-005  0.000000E+000
 0.159285E-004 -0.335996E-005  0.000000E+000
 0.162727E-004 -0.345571E-005  0.000000E+000
 0.181778E-004 -0.500213E-005  0.000000E+000
 0.285533E-004 -0.135209E-004  0.000000E+000
 0.272092E-004 -0.128498E-004  0.000000E+000
 0.258722E-004 -0.121799E-004  0.000000E+000
 0.245438E-004 -0.115117E-004  0.000000E+000
 0.232259E-004 -0.108457E-004  0.000000E+000
 0.219211E-004 -0.101826E-004  0.000000E+000
 0.206327E-004 -0.952370E-005  0.000000E+000
 0.193653E-004 -0.887044E-005  0.000000E+000
 0.181255E-004 -0.822542E-005  0.000000E+000
 0.169223E-004 -0.759187E-005  0.000000E+000
 0.157711E-004 -0.697669E-005  0.000000E+000
 0.146933E-004 -0.638780E-005  0.000000E+000
 0.137304E-004 -0.584758E-005  0.000000E+000
 0.129547E-004 -0.538489E-005  0.000000E+000
 0.125160E-004 -0.508310E-005  0.000000E+000
 0.127760E-004 -0.513671E-005  0.000000E+000
 0.149361E-004 -0.602765E-005  0.000000E+000
 0.328390E-004 -0.124041E-004  0.000000E+000
 0.313234E-004 -0.117484E-004  0.000000E+000
 0.298175E-004 -0.110920E-004  0.000000E+000
 0.283234E-004 -0.104350E-004  0.000000E+000
 0.268435E-004 -0.977737E-005  0.000000E+000
 0.253811E-004 -0.911957E-005  0.000000E+000
 0.239404E-004 -0.846206E-005  0.000000E+000
 0.225275E-004 -0.780559E-005  0.000000E+000
 0.211505E-004 -0.715168E-005  0.000000E+000
 0.198209E-004 -0.650231E-005  0.000000E+000
 0.185565E-004 -0.586278E-005  0.000000E+000
 0.173835E-004 -0.523951E-005  0.000000E+000
 0.163481E-004 -0.465380E-005  0.000000E+000
 0.155280E-004 -0.413429E-005  0.000000E+000
 0.150821E-004 -0.379054E-005  0.000000E+000
 0.153587E-004 -0.381924E-005  0.000000E+000
 0.173995E-004 -0.527813E-005  0.000000E+000
 0.306124E-004 -0.134169E-004  0.000000E+000
 0.291698E-004 -0.127331E-004  0.000000E+000
 0.277352E-004 -0.120498E-004  0.000000E+000
 0.263100E-004 -0.113672E-004  0.000000E+000
 0.248964E-004 -0.106857E-004  0.000000E+000
 0.234970E-004 -0.100059E-004  0.000000E+000
 0.221155E-004 -0.932871E-005  0.000000E+000
 0.207570E-004 -0.865536E-005  0.000000E+000
 0.194281E-004 -0.798784E-005  0.000000E+000
 0.181393E-004 -0.732935E-005  0.000000E+000
 0.169052E-004 -0.668498E-005  0.000000E+000
 0.157513E-004 -0.606468E-005  0.000000E+000
 0.147163E-004 -0.548429E-005  0.000000E+000
 0.138793E-004 -0.498573E-005  0.000000E+000
 0.133935E-004 -0.463605E-005  0.000000E+000
 0.136101E-004 -0.468384E-005  0.000000E+000
 0.157893E-004 -0.576385E-005  0.000000E+000
 0.326620E-004 -0.133301E-004  0.000000E+000
 0.311197E-004 -0.126341E-004  0.000000E+000
 0.295863E-004 -0.119379E-004  0.000000E+000
 0.280632E-004 -0.112416E-004  0.000000E+000
 0.265527E-004 -0.105454E-004  0.000000E+000
 0.250577E-004 -0.984967E-005  0.000000E+000
 0.235821E-004 -0.915510E-005  0.000000E+000
 0.221312E-004 -0.846266E-005  0.000000E+000
 0.207125E-004 -0.777385E-005  0.000000E+000
 0.193368E-004 -0.709138E-005  0.000000E+000
 0.180204E-004 -0.641959E-005  0.000000E+000
 0.167884E-004 -0.576747E-005  0.000000E+000
 0.156846E-004 -0.515089E-005  0.000000E+000
 0.147851E-004 -0.460766E-005  0.000000E+000
 0.142544E-004 -0.422216E-005  0.000000E+000
 0.144423E-004 -0.422314E-005  0.000000E+000
 0.165787E-004 -0.550271E-005  0.000000E+000
CELL_DATA  2048
SCALARS region_id INT     1
LOOKUP_TABLE default
    1
    1
    1
    1
    1
    1
    1
    1
    1
    1
    1
    1
    1
    1
    1
    1
    1
    1
    1
    1
    1
    1
    1
    1
    1
    1
    1
    1
    1
    1
    1
    1
    1
    1
    1
    1
    1
    1
    1
    1
    1
    1
    1
    1
    1
    1
    1
    1
    1
    1
    1
    1
    1
    1
    1
    1
    1
    1
    1
    1
    1
    1
    1
    1
    1
    1
    1
    1
    1
    1
    1
    1
    1
    1
    1
    1
    1
    1
    1
    1
    1
    1
    1
    1
    1
    1
    1
    1
    1
    1
    1
    1
    1
    1
    1
    1
    1
    1
    1
    1
    1
    1
    1
    1
    1
    1
    1
    1
    1
    1
    1
    1
    1
    1
    1
    1
    1
    1
    1
    1
    1
    1
    1
    1
    1
    1
    1
    1
    1
    1
    1
    1
    1
    1
    1
    1
    1
    1
    1
    1
    1
    1
    1
    1
    1
    1
    1
    1
    1
    1
    1
    1
    1
    1
    1
    1
    1
    1
    1
    1
    1
    1
    1
    1
    1
    1
    1
    1
    1
    1
    1
    1
    1
    1
    1
    1
    1
    1
    1
    1
    1
    1
    1
    1
    1
    1
    1
    1
    1
    1
    1
    1
    1
    1
    1
    1
    1
    1
    1
    1
    1
    1
    1
    1
    1
    1
    1
    1
    1
    1
    1
    1
    1
    1
    1
    1
    1
    1
    1
    1
    1
    1
    1
    1
    1
    1
    1
    1
    1
    1
    1
    1
    1
    1
    1
    1
    1
    1
    1
    1
    1
    1
    1
    1
    1
    1
    1
    1
    1
    1
    1
    1
    1
    1
    1
    1
    1
    1
    1
    1
    1
    1
    1
    1
    1
    1
    1
    1
    1
    1
    1
    1
    1
    1
    1
    1
    1
    1
    1
    1
    1
    1
    1
    1
    1
    1
    1
    1
    1
    1
    1
    1
    1
    1
    1
    1
    1
    1
    1
    1
    1
    1
    1
    1
    1
    1
    1
    1
    1
    1
    1
    1
    1
    1
    1
    1
    1
    1
    1
    1
    1
    1
    1
    1
    1
    1
    1
    1
    1
    1
    1
    1
    1
    1
    1
    1
    1
    1
    1
    1
    1
    1
    1
    1
    1
    1
    1
    1
    1
    1
    1
    1
    1
    1
    1
    1
    1
    1
    1
    1
    1
    1
    1
    1
    1
    1
    1
    1
    1
    1
    1
    1
    1
    1
    1
    1
    1
    1
    1
    1
    1
    1
    1
    1
    1
    1
    1
    1
    1
    1
    1
    1
    1
    1
    1
    1
    1
    1
    1
    1
    1
    1
    1
    1
    1
    1
    1
    1
    1
    1
    1
    1
    1
    1
    1
    1
    1
    1
    1
    1
    1
    1
    1
    1
    1
    1
    1
    1
    1
    1
    1
    1
    1
    1
    1
    1
    1
    1
    1
    1
    1
    1
    1
    1
    1
    1
    1
    1
    1
    1
    1
    1
    1
    1
    1
    1
    1
    1
    1
    1
    1
    1
    1
    1
    1
    1
    1
    1
    1
    1
    1
    1
    1
    1
    1
    1
    1
    1
    1
    1
    1
    1
    1
    1
    1
    1
    1
    1
    1
    1
    1
    1
    1
    1
    1
    1
    1
    1
    1
    1
    1
    1
    1
    1
    1
    1
    1
    1
    1
    1
    1
    1
    1
    1
    1
    1
    1
    1
    1
    1
    1
    1
    1
    1
    1
    1
    1
    1
    1
    1
    1
    1
    1
    1
    1
    1
    1
    1
    1
    1
    1
    1
    1
    1
    1
    1
    1
    1
    1
    1
    1
    1
    1
    1
    1
    1
    1
    1
    1
    1
    1
    1
    1
    1
    1
    1
    1
    1
    1
    1
    1
    1
    1
    1
    1
    1
    1
    1
    1
    1
    1
    1
    1
    1
    1
    1
    1
    1
    1
    1
    1
    1
    1
    1
    1
    1
    1
    1
    1
    1
    1
    1
    1
    1
    1
    1
    1
    1
    1
    1
    1
    1
    1
    1
    1
    1
    1
    1
    1
    1
    1
    1
    1
    1
    1
    1
    1
    1
    1
    1
    1
    1
    1
    1
    1
    1
    1
    1
    1
    1
    1
    1
    1
    1
    1
    1
    1
    1
    1
    1
    1
    1
    1
    1
    1
    1
    1
    1
    1
    1
    1
    1
    1
    1
    1
    1
    1
    1
    1
    1
    1
    1
    1
    1
    1
    1
    1
    1
    1
    1
    1
    1
    1
    1
    1
    1
    1
    1
    1
    1
    1
    1
    1
    1
    1
    1
    1
    1
    1
    1
    1
    1
    1
    1
    1
    1
    1
    1
    1
    1
    1
    1
    1
    1
    1
    1
    1
    1
    1
    1
    1
    1
    1
    1
    1
    1
    1
    1
    1
    1
    1
    1
    1
    1
    1
    1
    1
    1
    1
    1
    1
    1
    1
    1
    1
    1
    1
    1
    1
    1
    1
    1
    1
    1
    1
    1
    1
    1
    1
    1
    1
    1
    1
    1
    1
    1
    1
    1
    1
    1
    1
    1
    1
    1
    1
    1
    1
    1
    1
    1
    1
    1
    1
    1
    1
    1
    1
    1
    1
    1
    1
    1
    1
    1
    1
    1
    1
    1
    1
    1
    1
    1
    1
    1
    1
    1
    1
    1
    1
    1
    1
    1
    1
    1
    1
    1
    1
    1
    1
    1
    1
    1
    1
    1
    1
    1
    1
    1
    1
    1
    1
    1
    1
    1
    1
    1
    1
    1
    1
    1
    1
    1
    1
    1
    1
    1
    1
    1
    1
    1
    1
    1
    1
    1
    1
    1
    1
    1
    1
    1
    1
    1
    1
    1
    1
    1
    1
    1
    1
    1
    1
    1
    1
    1
    1
    1
    1
    1
    1
    1
    1
    1
    1
    1
    1
    1
    1
    1
    1
    1
    1
    1
    1
    1
    1
    1
    1
    1
    1
    1
    1
    1
    1
    1
    1
    1
    1
    1
    1
    1
    1
    1
    1
    1
    1
    1
    1
    1
    1
    1
    1
    1
    1
    1
    1
    1
    1
    1
    1
    1
    1
    1
    1
    1
    1
    1
    1
    1
    1
    1
    1
    1
    1
    1
    1
    1
    1
    1
    1
    1
    1
    1
    1
    1
    1
    1
    1
    1
    1
    1
    1
    1
    1
    1
    1
    1
    1
    1
    1
    1
    1
    1
    1
    1
    1
    1
    1
    1
    1
    1
    1
    1
    1
    1
    1
    1
    1
    1
    1
    1
    1
    1
    1
    1
    1
    1
    1
    1
    1
    1
    1
    1
    1
    1
    1
    1
    1
    1
    1
    1
    1
    1
    1
    1
    1
    1
    1
    1
    1
    1
    1
    1
    1
    1
    1
    1
    1
    1
    1
    1
    1
    1
    1
    1
    1
    1
    1
    1
    1
    1
    1
    1
    1
    1
    1
    1
    1
    1
    1
    1
    1
    1
    1
    1
    1
    1
    1
    1
    1
    1
    1
    1
    1
    1
    1
    1
    1
    1
    1
    1
    1
    1
    1
    1
    1
    1
    1
    1
    1
    1
    1
    1
    1
    1
    1
    1
    1
    1
    1
    1
    1
    1
    1
    1
    1
    1
    1
    1
    1
    1
    1
    1
    1
    1
    1
    1
    1
    1
    1
    1
    1
    1
    1
    1
    1
    1
    1
    1
    1
    1
    1
    1
    1
    1
    1
    1
    1
    1
    1
    1
    1
    1
    1
    1
    1
    1
    1
    1
    1
    1
    1
    1
    1
    1
    1
    1
    1
    1
    1
    1
    1
    1
    1
    1
    1
    1
    1
    1
    1
    1
    1
    1
    1
    1
    1
    1
    1
    1
    1
    1
    1
    1
    1
    1
    1
    1
    1
    1
    1
    1
    1
    1
    1
    1
    1
    1
    1
    1
    1
    1
    1
    1
    1
    1
    1
    1
    1
    1
    1
    1
    1
    1
    1
    1
    1
    1
    1
    1
    1
    1
    1
    1
    1
    1
    1
    1
    1
    1
    1
    1
    1
    1
    1
    1
    1
    1
    1
    1
    1
    1
    1
    1
    1
    1
    1
    1
    1
    1
    1
    1
    1
    1
    1
    1
    1
    1
    1
    1
    1
    1
    1
    1
    1
    1
    1
    1
    1
    1
    1
    1
    1
    1
    1
    1
    1
    1
    1
    1
    1
    1
    1
    1
    1
    1
    1
    1
    1
    1
    1
    1
    1
    1
    1
    1
    1
    1
    1
    1
    1
    1
    1
    1
    1
    1
    1
    1
    1
    1
    1
    1
    1
    1
    1
    1
    1
    1
    1
    1
    1
    1
    1
    1
    1
    1
    1
    1
    1
    1
    1
    1
    1
    1
    1
    1
    1
    1
    1
    1
    1
    1
    1
    1
    1
    1
    1
    1
    1
    1
    1
    1
    1
    1
    1
    1
    1
    1
    1
    1
    1
    1
    1
    1
    1
    1
    1
    1
    1
    1
    1
    1
    1
    1
    1
    1
    1
    1
    1
    1
    1
    1
    1
    1
    1
    1
    1
    1
    1
    1
    1
    1
    1
    1
    1
    1
    1
    1
    1
    1
    1
    1
    1
    1
    1
    1
    1
    1
    1
    1
    1
    1
    1
    1
    1
    1
    1
    1
    1
    1
    1
    1
    1
    1
    1
    1
    1
    1
    1
    1
    1
    1
    1
    1
    1
    1
    1
    1
    1
    1
    1
    1
    1
    1
    1
    1
    1
    1
    1
    1
    1
    1
    1
    1
    1
    1
    1
    1
    1
    1
    1
    1
    1
    1
    1
    1
    1
    1
    1
    1
    1
    1
    1
    1
    1
    1
    1
    1
    1
    1
    1
    1
    1
    1
    1
    1
    1
    1
    1
    1
    1
    1
    1
    1
    1
    1
    1
    1
    1
    1
    1
    1
    1
    1
    1
    1
    1
    1
    1
    1
    1
    1
    1
    1
    1
    1
    1
    1
    1
    1
    1
    1
    1
    1
    1
    1
    1
    1
    1
    1
    1
    1
    1
    1
    1
    1
    1
    1
    1
    1
    1
    1
    1
    1
    1
    1
    1
    1
    1
    1
    1
    1
    1
    1
    1
    1
    1
    1
    1
    1
    1
    1
    1
    1
    1
    1
    1
    1
    1
    1
    1
    1
    1
    1
    1
    1
    1
    1
    1
    1
    1
    1
    1
    1
    1
    1
    1
    1
    1
    1
    1
    1
    1
    1
    1
    1
    1
    1
    1
    1
    1
    1
    1
    1
    1
    1
    1
    1
    1
    1
    1
    1
    1
    1
    1
    1
    1
    1
    1
    1
    1
    1
    1
    1
    1
    1
    1
    1
    1
    1
    1
    1
    1
    1
    1
    1
    1
    1
    1
    1
    1
    1
    1
    1
    1
    1
    1
    1
    1
    1
    1
    1
    1
    1
    1
    1
    1
    1
    1
    1
    1
    1
    1
    1
    1
    1
    1
    1
    1
    1
    1
    1
    1
    1
    1
    1
    1
    1
    1
    1
    1
    1
    1
    1
    1
    1
    1
    1
    1
    1
    1
    1
    1
    1
    1
    1
    1
    1
    1
    1
    1
    1
    1
    1
    1
    1
    1
    1
    1
    1
    1
    1
    1
    1
    1
    1
    1
    1
    1
    1
    1
    1
    1
    1
    1
    1
    1
    1
    1
    1
    1
    1
    1
    1
    1
    1
    1
    1
    1
    1
    1
    1
    1
    1
    1
    1
    1
    1
    1
    1
    1
    1
    1
    1
    1
    1
    1
    1
    1
    1
    1
    1
    1
    1
    1
    1
    1
    1
    1
    1
    1
    1
    1
    1
    1
    1
    1
    1
    1
    1
    1
    1
    1
    1
    1
    1
    1
    1
    1
    1
    1
    1
    1
    1
    1
    1
    1
    1
    1
    1
    1
    1
    1
    1
    1
    1
    1
    1
    1
    1
    1
    1
    1
    1
    1
    1
    1
    1
    1
    1
    1
    1
    1
    1
    1
    1
    1
    1
    1
    1
    1
    1
    1
    1
    1
    1
    1
    1
    1
    1
    1
    1
    1
    1
    1
    1
    1
    1
    1
    1
    1
    1
    1
    1
    1
    1
    1
    1
    1
    1
    1
    1
    1
    1
    1
    1
    1
    1
    1
    1
    1
    1
    1
    1
    1
    1
    1
    1
    1
    1
    1
    1
    1
    1
    1
    1
    1
    1
    1
    1
    1
    1
    1
    1
    1
    1
    1
    1
    1
    1
    1
    1
    1
    1
    1
    1
    1
    1
    1
    1
    1
    1
    1
    1
    1
    1
    1
    1
    1
    1
    1
    1
    1
    1
    1
    1
    1
    1
    1
    1
    1
    1
    1
    1
    1
    1
    1
    1
    1
    1
    1
    1
    1
    1
    1
    1
    1
    1
    1
    1
    1
    1
    1
    1
    1
    1
    1
    1
    1
    1
    1
    1
    1
    1
    1
    1
    1
    1
    1
    1
    1
    1
    1
    1
    1
    1
    1
    1
    1
    1
    1
    1
    1
    1
    1
    1
    1
    1
    1
    1
    1
    1
    1
    1
    1
    1
    1
    1
    1
    1
    1
    1
    1
    1
    1
    1
    1
    1
    1
    1
    1
    1
    1
    1
    1
    1
    1
    1
    1
    1
    1
    1
    1
    1
    1
    1
    1
    1
    1
    1
    1
    1
    1
    1
    1
    1
    1
    1
    1
    1
    1
    1
    1
    1
    1
    1
    1
    1
    1
    1
    1
    1
    1
    1
    1
    1
    1
    1
    1
    1
SCALARS element_id INT     1
LOOKUP_TABLE default
    1
    2
    3
    4
    5
    6
    7
    8
    9
   10
   11
   12
   13
   14
   15
   16
   17
   18
   19
   20
   21
   22
   23
   24
   25
   26
   27
   28
   29
   30
   31
   32
   33
   34
   35
   36
   37
   38
   39
   40
   41
   42
   43
   44
   45
   46
   47
   48
   49
   50
   51
   52
   53
   54
   55
   56
   57
   58
   59
   60
   61
   62
   63
   64
   65
   66
   67
   68
   69
   70
   71
   72
   73
   74
   75
   76
   77
   78
   79
   80
   81
   82
   83
   84
   85
   86
   87
   88
   89
   90
   91
   92
   93
   94
   95
   96
   97
   98
   99
  100
  101
  102
  103
  104
  105
  106
  107
  108
  109
  110
  111
  112
  113
  114
  115
  116
  117
  118
  119
  120
  121
  122
  123
  124
  125
  126
  127
  128
  129
  130
  131
  132
  133
  134
  135
  136
  137
  138
  139
  140
  141
  142
  143
  144
  145
  146
  147
  148
  149
  150
  151
  152
  153
  154
  155
  156
  157
  158
  159
  160
  161
  162
  163
  164
  165
  166
  167
  168
  169
  170
  171
  172
  173
  174
  175
  176
  177
  178
  179
  180
  181
  182
  183
  184
  185
  186
  187
  188
  189
  190
  191
  192
  193
  194
  195
  196
  197
  198
  199
  200
  201
  202
  203
  204
  205
  206
  207
  208
  209
  210
  211
  212
  213
  214
  215
  216
  217
  218
  219
  220
  221
  222
  223
  224
  225
  226
  227
  228
  229
  230
  231
  232
  233
  234
  235
  236
  237
  238
  239
  240
  241
  242
  243
  244
  245
  246
  247
  248
  249
  250
  251
  252
  253
  254
  255
  256
  257
  258
  259
  260
  261
  262
  263
  264
  265
  266
  267
  268
  269
  270
  271
  272
  273
  274
  275
  276
  277
  278
  279
  280
  281
  282
  283
  284
  285
  286
  287
  288
  289
  290
  291
  292
  293
  294
  295
  296
  297
  298
  299
  300
  301
  302
  303
  304
  305
  306
  307
  308
  309
  310
  311
  312
  313
  314
  315
  316
  317
  318
  319
  320
  321
  322
  323
  324
  325
  326
  327
  328
  329
  330
  331
  332
  333
  334
  335
  336
  337
  338
  339
  340
  341
  342
  343
  344
  345
  346
  347
  348
  349
  350
  351
  352
  353
  354
  355
  356
  357
  358
  359
  360
  361
  362
  363
  364
  365
  366
  367
  368
  369
  370
  371
  372
  373
  374
  375
  376
  377
  378
  379
  380
  381
  382
  383
  384
  385
  386
  387
  388
  389
  390
  391
  392
  393
  394
  395
  396
  397
  398
  399
  400
  401
  402
  403
  404
  405
  406
  407
  408
  409
  410
  411
  412
  413
  414
  415
  416
  417
  418
  419
  420
  421
  422
  423
  424
  425
  426
  427
  428
  429
  430
  431
  432
  433
  434
  435
  436
  437
  438
  439
  440
  441
  442
  443
  444
  445
  446
  447
  448
  449
  450
  451
  452
  453
  454
  455
  456
  457
  458
  459
  460
  461
  462
  463
  464
  465
  466
  467
  468
  469
  470
  471
  472
  473
  474
  475
  476
  477
  478
  479
  480
  481
  482
  483
  484
  485
  486
  487
  488
  489
  490
  491
  492
  493
  494
  495
  496
  497
  498
  499
  500
  501
  502
  503
  504
  505
  506
  507
  508
  509
  510
  511
  512
  513
  514
  515
  516
  517
  518
  519
  520
  521
  522
  523
  524
  525
  526
  527
  528
  529
  530
  531
  532
  533
  534
  535
  536
  537
  538
  539
  540
  541
  542
  543
  544
  545
  546
  547
  548
  549
  550
  551
  552
  553
  554
  555
  556
  557
  558
  559
  560
  561
  562
  563
  564
  565
  566
  567
  568
  569
  570
  571
  572
  573
  574
  575
  576
  577
  578
  579
  580
  581
  582
  583
  584
  585
  586
  587
  588
  589
  590
  591
  592
  593
  594
  595
  596
  597
  598
  599
  600
  601
  602
  603
  604
  605
  606
  607
  608
  609
  610
  611
  612
  613
  614
  615
  616
  617
  618
  619
  620
  621
  622
  623
  624
  625
  626
  627
  628
  629
  630
  631
  632
  633
  634
  635
  636
  637
  638
  639
  640
  641
  642
  643
  644
  645
  646
  647
  648
  649
  650
  651
  652
  653
  654
  655
  656
  657
  658
  659
  660
  661
  662
  663
  664
  665
  666
  667
  668
  669
  670
  671
  672
  673
  674
  675
  676
  677
  678
  679
  680
  681
  682
  683
  684
  685
  686
  687
  688
  689
  690
  691
  692
  693
  694
  695
  696
  697
  698
  699
  700
  701
  702
  703
  704
  705
  706
  707
  708
  709
  710
  711
  712
  713
  714
  715
  716
  717
  718
  719
  720
  721
  722
  723
  724
  725
  726
  727
  728
  729
  730
  731
  732
  733
  734
  735
  736
  737
  738
  739
  740
  741
  742
  743
  744
  745
  746
  747
  748
  749
  750
  751
  752
  753
  754
  755
  756
  757
  758
  759
  760
  761
  762
  763
  764
  765
  766
  767
  768
  769
  770
  771
  772
  773
  774
  775
  776
  777
  778
  779
  780
  781
  782
  783
  784
  785
  786
  787
  788
  789
  790
  791
  792
  793
  794
  795
  796
  797
  798
  799
  800
  801
  802
  803
  804
  805
  806
  807
  808
  809
  810
  811
  812
  813
  814
  815
  816
  817
  818
  819
  820
  821
  822
  823
  824
  825
  826
  827
  828
  829
  830
  831
  832
  833
  834
  835
  836
  837
  838
  839
  840
  841
  842
  843
  844
  845
  846
  847
  848
  849
  850
  851
  852
  853
  854
  855
  856
  857
  858
  859
  860
  861
  862
  863
  864
  865
  866
  867
  868
  869
  870
  871
  872
  873
  874
  875
  876
  877
  878
  879
  880
  881
  882
  883
  884
  885
  886
  887
  888
  889
  890
  891
  892
  893
  894
  895
  896
  897
  898
  899
  900
  901
  902
  903
  904
  905
  906
  907
  908
  909
  910
  911
  912
  913
  914
  915
  916
  917
  918
  919
  920
  921
  922
  923
  924
  925
  926
  927
  928
  929
  930
  931
  932
  933
  934
  935
  936
  937
  938
  939
  940
  941
  942
  943
  944
  945
  946
  947
  948
  949
  950
  951
  952
  953
  954
  955
  956
  957
  958
  959
  960
  961
  962
  963
  964
  965
  966
  967
  968
  969
  970
  971
  972
  973
  974
  975
  976
  977
  978
  979
  980
  981
  982
  983
  984
  985
  986
  987
  988
  989
  990
  991
  992
  993
  994
  995
  996
  997
  998
  999
 1000
 1001
 1002
 1003
 1004
 1005
 1006
 1007
 1008
 1009
 1010
 1011
 1012
 1013
 1014
 1015
 1016
 1017
 1018
 1019
 1020
 1021
 1022
 1023
 1024
 1025
 1026
 1027
 1028
 1029
 1030
 1031
 1032
 1033
 1034
 1035
 1036
 1037
 1038
 1039
 1040
 1041
 1042
 1043
 1044
 1045
 1046
 1047
 1048
 1049
 1050
 1051
 1052
 1053
 1054
 1055
 1056
 1057
 1058
 1059
 1060
 1061
 1062
 1063
 1064
 1065
 1066
 1067
 1068
 1069
 1070
 1071
 1072
 1073
 1074
 1075
 1076
 1077
 1078
 1079
 1080
 1081
 1082
 1083
 1084
 1085
 1086
 1087
 1088
 1089
 1090
 1091
 1092
 1093
 1094
 1095
 1096
 1097
 1098
 1099
 1100
 1101
 1102
 1103
 1104
 1105
 1106
 1107
 1108
 1109
 1110
 1111
 1112
 1113
 1114
 1115
 1116
 1117
 1118
 1119
 1120
 1121
 1122
 1123
 1124
 1125
 1126
 1127
 1128
 1129
 1130
 1131
 1132
 1133
 1134
 1135
 1136
 1137
 1138
 1139
 1140
 1141
 1142
 1143
 1144
 1145
 1146
 1147
 1148
 1149
 1150
 1151
 1152
 1153
 1154
 1155
 1156
 1157
 1158
 1159
 1160
 1161
 1162
 1163
 1164
 1165
 1166
 1167
 1168
 1169
 1170
 1171
 1172
 1173
 1174
 1175
 1176
 1177
 1178
 1179
 1180
 1181
 1182
 1183
 1184
 1185
 1186
 1187
 1188
 1189
 1190
 1191
 1192
 1193
 1194
 1195
 1196
 1197
 1198
 1199
 1200
 1201
 1202
 1203
 1204
 1205
 1206
 1207
 1208
 1209
 1210
 1211
 1212
 1213
 1214
 1215
 1216
 1217
 1218
 1219
 1220
 1221
 1222
 1223
 1224
 1225
 1226
 1227
 1228
 1229
 1230
 1231
 1232
 1233
 1234
 1235
 1236
 1237
 1238
 1239
 1240
 1241
 1242
 1243
 1244
 1245
 1246
 1247
 1248
 1249
 1250
 1251
 1252
 1253
 1254
 1255
 1256
 1257
 1258
 1259
 1260
 1261
 1262
 1263
 1264
 1265
 1266
 1267
 1268
 1269
 1270
 1271
 1272
 1273
 1274
 1275
 1276
 1277
 1278
 1279
 1280
 1281
 1282
 1283
 1284
 1285
 1286
 1287
 1288
 1289
 1290
 1291
 1292
 1293
 1294
 1295
 1296
 1297
 1298
 1299
 1300
 1301
 1302
 1303
 1304
 1305
 1306
 1307
 1308
 1309
 1310
 1311
 1312
 1313
 1314
 1315
 1316
 1317
 1318
 1319
 1320
 1321
 1322
 1323
 1324
 1325
 1326
 1327
 1328
 1329
 1330
 1331
 1332
 1333
 1334
 1335
 1336
 1337
 1338
 1339
 1340
 1341
 1342
 1343
 1344
 1345
 1346
 1347
 1348
 1349
 1350
 1351
 1352
 1353
 1354
 1355
 1356
 1357
 1358
 1359
 1360
 1361
 1362
 1363
 1364
 1365
 1366
 1367
 1368
 1369
 1370
 1371
 1372
 1373
 1374
 1375
 1376
 1377
 1378
 1379
 1380
 1381
 1382
 1383
 1384
 1385
 1386
 1387
 1388
 1389
 1390
 1391
 1392
 1393
 1394
 1395
 1396
 1397
 1398
 1399
 1400
 1401
 1402
 1403
 1404
 1405
 1406
 1407
 1408
 1409
 1410
 1411
 1412
 1413
 1414
 1415
 1416
 1417
 1418
 1419
 1420
 1421
 1422
 1423
 1424
 1425
 1426
 1427
 1428
 1429
 1430
 1431
 1432
 1433
 1434
 1435
 1436
 1437
 1438
 1439
 1440
 1441
 1442
 1443
 1444
 1445
 1446
 1447
 1448
 1449
 1450
 1451
 1452
 1453
 1454
 1455
 1456
 1457
 1458
 1459
 1460
 1461
 1462
 1463
 1464
 1465
 1466
 1467
 1468
 1469
 1470
 1471
 1472
 1473
 1474
 1475
 1476
 1477
 1478
 1479
 1480
 1481
 1482
 1483
 1484
 1485
 1486
 1487
 1488
 1489
 1490
 1491
 1492
 1493
 1494
 1495
 1496
 1497
 1498
 1499
 1500
 1501
 1502
 1503
 1504
 1505
 1506
 1507
 1508
 1509
 1510
 1511
 1512
 1513
 1514
 1515
 1516
 1517
 1518
 1519
 1520
 1521
 1522
 1523
 1524
 1525
 1526
 1527
 1528
 1529
 1530
 1531
 1532
 1533
 1534
 1535
 1536
 1537
 1538
 1539
 1540
 1541
 1542
 1543
 1544
 1545
 1546
 1547
 1548
 1549
 1550
 1551
 1552
 1553
 1554
 1555
 1556
 1557
 1558
 1559
 1560
 1561
 1562
 1563
 1564
 1565
 1566
 1567
 1568
 1569
 1570
 1571
 1572
 1573
 1574
 1575
 1576
 1577
 1578
 1579
 1580
 1581
 1582
 1583
 1584
 1585
 1586
 1587
 1588
 1589
 1590
 1591
 1592
 1593
 1594
 1595
 1596
 1597
 1598
 1599
 1600
 1601
 1602
 1603
 1604
 1605
 1606
 1607
 1608
 1609
 1610
 1611
 1612
 1613
 1614
 1615
 1616
 1617
 1618
 1619
 1620
 1621
 1622
 1623
 1624
 1625
 1626
 1627
 1628
 1629
 1630
 1631
 1632
 1633
 1634
 1635
 1636
 1637
 1638
 1639
 1640
 1641
 1642
 1643
 1644
 1645
 1646
 1647
 1648
 1649
 1650
 1651
 1652
 1653
 1654
 1655
 1656
 1657
 1658
 1659
 1660
 1661
 1662
 1663
 1664
 1665
 1666
 1667
 1668
 1669
 1670
 1671
 1672
 1673
 1674
 1675
 1676
 1677
 1678
 1679
 1680
 1681
 1682
 1683
 1684
 1685
 1686
 1687
 1688
 1689
 1690
 1691
 1692
 1693
 1694
 1695
 1696
 1697
 1698
 1699
 1700
 1701
 1702
 1703
 1704
 1705
 1706
 1707
 1708
 1709
 1710
 1711
 1712
 1713
 1714
 1715
 1716
 1717
 1718
 1719
 1720
 1721
 1722
 1723
 1724
 1725
 1726
 1727
 1728
 1729
 1730
 1731
 1732
 1733
 1734
 1735
 1736
 1737
 1738
 1739
 1740
 1741
 1742
 1743
 1744
 1745
 1746
 1747
 1748
 1749
 1750
 1751
 1752
 1753
 1754
 1755
 1756
 1757
 1758
 1759
 1760
 1761
 1762
 1763
 1764
 1765
 1766
 1767
 1768
 1769
 1770
 1771
 1772
 1773
 1774
 1775
 1776
 1777
 1778
 1779
 1780
 1781
 1782
 1783
 1784
 1785
 1786
 1787
 1788
 1789
 1790
 1791
 1792
 1793
 1794
 1795
 1796
 1797
 1798
 1799
 1800
 1801
 1802
 1803
 1804
 1805
 1806
 1807
 1808
 1809
 1810
 1811
 1812
 1813
 1814
 1815
 1816
 1817
 1818
 1819
 1820
 1821
 1822
 1823
 1824
 1825
 1826
 1827
 1828
 1829
 1830
 1831
 1832
 1833
 1834
 1835
 1836
 1837
 1838
 1839
 1840
 1841
 1842
 1843
 1844
 1845
 1846
 1847
 1848
 1849
 1850
 1851
 1852
 1853
 1854
 1855
 1856
 1857
 1858
 1859
 1860
 1861
 1862
 1863
 1864
 1865
 1866
 1867
 1868
 1869
 1870
 1871
 1872
 1873
 1874
 1875
 1876
 1877
 1878
 1879
 1880
 1881
 1882
 1883
 1884
 1885
 1886
 1887
 1888
 1889
 1890
 1891
 1892
 1893
 1894
 1895
 1896
 1897
 1898
 1899
 1900
 1901
 1902
 1903
 1904
 1905
 1906
 1907
 1908
 1909
 1910
 1911
 1912
 1913
 1914
 1915
 1916
 1917
 1918
 1919
 1920
 1921
 1922
 1923
 1924
 1925
 1926
 1927
 1928
 1929
 1930
 1931
 1932
 1933
 1934
 1935
 1936
 1937
 1938
 1939
 1940
 1941
 1942
 1943
 1944
 1945
 1946
 1947
 1948
 1949
 1950
 1951
 1952
 1953
 1954
 1955
 1956
 1957
 1958
 1959
 1960
 1961
 1962
 1963
 1964
 1965
 1966
 1967
 1968
 1969
 1970
 1971
 1972
 1973
 1974
 1975
 1976
 1977
 1978
 1979
 1980
 1981
 1982
 1983
 1984
 1985
 1986
 1987
 1988
 1989
 1990
 1991
 1992
 1993
 1994
 1995
 1996
 1997
 1998
 1999
 2000
 2001
 2002
 2003
 2004
 2005
 2006
 2007
 2008
 2009
 2010
 2011
 2012
 2013
 2014
 2015
 2016
 2017
 2018
 2019
 2020
 2021
 2022
 2023
 2024
 2025
 2026
 2027
 2028
 2029
 2030
 2031
 2032
 2033
 2034
 2035
 2036
 2037
 2038
 2039
 2040
 2041
 2042
 2043
 2044
 2045
 2046
 2047
 2048
SCALARS stress_11 FLOAT     1
LOOKUP_TABLE default
 0.103369E+001
 0.103726E+001
 0.104151E+001
 0.104652E+001
 0.105245E+001
 0.105951E+001
 0.106798E+001
 0.107825E+001
 0.109072E+001
 0.110607E+001
 0.112447E+001
 0.114658E+001
 0.116967E+001
 0.118524E+001
 0.116137E+001
 0.880434E+000
 0.103871E+001
 0.104287E+001
 0.104775E+001
 0.105351E+001
 0.106031E+001
 0.106842E+001
 0.107818E+001
 0.108996E+001
 0.110449E+001
 0.112206E+001
 0.114404E+001
 0.116995E+001
 0.119914E+001
 0.122505E+001
 0.121168E+001
 0.990581E+000
 0.104371E+001
 0.104842E+001
 0.105392E+001
 0.106039E+001
 0.106803E+001
 0.107716E+001
 0.108807E+001
 0.110143E+001
 0.111758E+001
 0.113776E+001
 0.116235E+001
 0.119250E+001
 0.122742E+001
 0.126226E+001
 0.126317E+001
 0.111217E+001
 0.104848E+001
 0.105370E+001
 0.105978E+001
 0.106691E+001
 0.107534E+001
 0.108534E+001
 0.109742E+001
 0.111199E+001
 0.112996E+001
 0.115205E+001
 0.117947E+001
 0.121329E+001
 0.125380E+001
 0.129704E+001
 0.131689E+001
 0.124010E+001
 0.105279E+001
 0.105847E+001
 0.106505E+001
 0.107276E+001
 0.108184E+001
 0.109267E+001
 0.110564E+001
 0.112144E+001
 0.114078E+001
 0.116473E+001
 0.119460E+001
 0.123185E+001
 0.127767E+001
 0.132982E+001
 0.137231E+001
 0.137315E+001
 0.105639E+001
 0.106243E+001
 0.106942E+001
 0.107759E+001
 0.108722E+001
 0.109866E+001
 0.111243E+001
 0.112915E+001
 0.114969E+001
 0.117522E+001
 0.120725E+001
 0.124770E+001
 0.129876E+001
 0.136074E+001
 0.142931E+001
 0.150942E+001
 0.105900E+001
 0.106530E+001
 0.107257E+001
 0.108107E+001
 0.109107E+001
 0.110298E+001
 0.111731E+001
 0.113475E+001
 0.115624E+001
 0.118307E+001
 0.121700E+001
 0.126053E+001
 0.131693E+001
 0.139003E+001
 0.148749E+001
 0.164676E+001
 0.106038E+001
 0.106681E+001
 0.107424E+001
 0.108290E+001
 0.109311E+001
 0.110529E+001
 0.111997E+001
 0.113789E+001
 0.116009E+001
 0.118798E+001
 0.122364E+001
 0.127018E+001
 0.133227E+001
 0.141785E+001
 0.154619E+001
 0.178269E+001
 0.106037E+001
 0.106681E+001
 0.107423E+001
 0.108291E+001
 0.109316E+001
 0.110541E+001
 0.112024E+001
 0.113844E+001
 0.116112E+001
 0.118988E+001
 0.122716E+001
 0.127675E+001
 0.134501E+001
 0.144424E+001
 0.160442E+001
 0.191441E+001
 0.105894E+001
 0.106524E+001
 0.107253E+001
 0.108107E+001
 0.109120E+001
 0.110337E+001
 0.111818E+001
 0.113647E+001
 0.115947E+001
 0.118897E+001
 0.122781E+001
 0.128057E+001
 0.135546E+001
 0.146908E+001
 0.166088E+001
 0.203896E+001
 0.105622E+001
 0.106227E+001
 0.106931E+001
 0.107759E+001
 0.108748E+001
 0.109943E+001
 0.111408E+001
 0.113234E+001
 0.115554E+001
 0.118571E+001
 0.122609E+001
 0.128215E+001
 0.136394E+001
 0.149205E+001
 0.171402E+001
 0.215326E+001
 0.105254E+001
 0.105826E+001
 0.106497E+001
 0.107292E+001
 0.108249E+001
 0.109414E+001
 0.110856E+001
 0.112671E+001
 0.115005E+001
 0.118084E+001
 0.122274E+001
 0.128210E+001
 0.137072E+001
 0.151266E+001
 0.176209E+001
 0.225424E+001
 0.104842E+001
 0.105378E+001
 0.106012E+001
 0.106772E+001
 0.107694E+001
 0.108827E+001
 0.110242E+001
 0.112044E+001
 0.114389E+001
 0.117525E+001
 0.121861E+001
 0.128109E+001
 0.137601E+001
 0.153030E+001
 0.180331E+001
 0.233903E+001
 0.104449E+001
 0.104950E+001
 0.105551E+001
 0.106279E+001
 0.107169E+001
 0.108272E+001
 0.109664E+001
 0.111453E+001
 0.113807E+001
 0.116994E+001
 0.121456E+001
 0.127971E+001
 0.137992E+001
 0.154429E+001
 0.183599E+001
 0.240510E+001
 0.104142E+001
 0.104616E+001
 0.105191E+001
 0.105893E+001
 0.106759E+001
 0.107841E+001
 0.109214E+001
 0.110994E+001
 0.113356E+001
 0.116581E+001
 0.121137E+001
 0.127849E+001
 0.138252E+001
 0.155403E+001
 0.185866E+001
 0.245036E+001
 0.103973E+001
 0.104432E+001
 0.104993E+001
 0.105682E+001
 0.106535E+001
 0.107604E+001
 0.108969E+001
 0.110744E+001
 0.113110E+001
 0.116355E+001
 0.120962E+001
 0.127778E+001
 0.138382E+001
 0.155902E+001
 0.187028E+001
 0.247338E+001
 0.103973E+001
 0.104432E+001
 0.104993E+001
 0.105682E+001
 0.106535E+001
 0.107604E+001
 0.108969E+001
 0.110744E+001
 0.113110E+001
 0.116355E+001
 0.120962E+001
 0.127778E+001
 0.138382E+001
 0.155902E+001
 0.187028E+001
 0.247338E+001
 0.104142E+001
 0.104616E+001
 0.105191E+001
 0.105893E+001
 0.106759E+001
 0.107841E+001
 0.109214E+001
 0.110994E+001
 0.113356E+001
 0.116581E+001
 0.121137E+001
 0.127849E+001
 0.138252E+001
 0.155403E+001
 0.185866E+001
 0.245036E+001
 0.104449E+001
 0.104950E+001
 0.105551E+001
 0.106279E+001
 0.107169E+001
 0.108272E+001
 0.109664E+001
 0.111453E+001
 0.113807E+001
 0.116994E+001
 0.121456E+001
 0.127971E+001
 0.137992E+001
 0.154429E+001
 0.183599E+001
 0.240510E+001
 0.104842E+001
 0.105378E+001
 0.106012E+001
 0.106772E+001
 0.107694E+001
 0.108827E+001
 0.110242E+001
 0.112044E+001
 0.114389E+001
 0.117525E+001
 0.121861E+001
 0.128109E+001
 0.137601E+001
 0.153030E+001
 0.180331E+001
 0.233903E+001
 0.105254E+001
 0.105826E+001
 0.106497E+001
 0.107292E+001
 0.108249E+001
 0.109414E+001
 0.110856E+001
 0.112671E+001
 0.115005E+001
 0.118084E+001
 0.122274E+001
 0.128210E+001
 0.137072E+001
 0.151266E+001
 0.176209E+001
 0.225424E+001
 0.105622E+001
 0.106227E+001
 0.106931E+001
 0.107759E+001
 0.108748E+001
 0.109943E+001
 0.111408E+001
 0.113234E+001
 0.115554E+001
 0.118571E+001
 0.122609E+001
 0.128215E+001
 0.136394E+001
 0.149205E+001
 0.171402E+001
 0.215326E+001
 0.105894E+001
 0.106524E+001
 0.107253E+001
 0.108107E+001
 0.109120E+001
 0.110337E+001
 0.111818E+001
 0.113647E+001
 0.115947E+001
 0.118897E+001
 0.122781E+001
 0.128057E+001
 0.135546E+001
 0.146908E+001
 0.166088E+001
 0.203896E+001
 0.106037E+001
 0.106681E+001
 0.107423E+001
 0.108291E+001
 0.109316E+001
 0.110541E+001
 0.112024E+001
 0.113844E+001
 0.116112E+001
 0.118988E+001
 0.122716E+001
 0.127675E+001
 0.134501E+001
 0.144424E+001
 0.160442E+001
 0.191441E+001
 0.106038E+001
 0.106681E+001
 0.107424E+001
 0.108290E+001
 0.109311E+001
 0.110529E+001
 0.111997E+001
 0.113789E+001
 0.116009E+001
 0.118798E+001
 0.122364E+001
 0.127018E+001
 0.133227E+001
 0.141785E+001
 0.154619E+001
 0.178269E+001
 0.105900E+001
 0.106530E+001
 0.107257E+001
 0.108107E+001
 0.109107E+001
 0.110298E+001
 0.111731E+001
 0.113475E+001
 0.115624E+001
 0.118307E+001
 0.121700E+001
 0.126053E+001
 0.131693E+001
 0.139003E+001
 0.148749E+001
 0.164676E+001
 0.105639E+001
 0.106243E+001
 0.106942E+001
 0.107759E+001
 0.108722E+001
 0.109866E+001
 0.111243E+001
 0.112915E+001
 0.114969E+001
 0.117522E+001
 0.120725E+001
 0.124770E+001
 0.129876E+001
 0.136074E+001
 0.142931E+001
 0.150942E+001
 0.105279E+001
 0.105847E+001
 0.106505E+001
 0.107276E+001
 0.108184E+001
 0.109267E+001
 0.110564E+001
 0.112144E+001
 0.114078E+001
 0.116473E+001
 0.119460E+001
 0.123185E+001
 0.127767E+001
 0.132982E+001
 0.137231E+001
 0.137315E+001
 0.104848E+001
 0.105370E+001
 0.105978E+001
 0.106691E+001
 0.107534E+001
 0.108534E+001
 0.109742E+001
 0.111199E+001
 0.112996E+001
 0.115205E+001
 0.117947E+001
 0.121329E+001
 0.125380E+001
 0.129704E+001
 0.131689E+001
 0.124010E+001
 0.104371E+001
 0.104842E+001
 0.105392E+001
 0.106039E+001
 0.106803E+001
 0.107716E+001
 0.108807E+001
 0.110143E+001
 0.111758E+001
 0.113776E+001
 0.116235E+001
 0.119250E+001
 0.122742E+001
 0.126226E+001
 0.126317E+001
 0.111217E+001
 0.103871E+001
 0.104287E+001
 0.104775E+001
 0.105351E+001
 0.106031E+001
 0.106842E+001
 0.107818E+001
 0.108996E+001
 0.110449E+001
 0.112206E+001
 0.114404E+001
 0.116995E+001
 0.119914E+001
 0.122505E+001
 0.121168E+001
 0.990581E+000
 0.103369E+001
 0.103726E+001
 0.104151E+001
 0.104652E+001
 0.105245E+001
 0.105951E+001
 0.106798E+001
 0.107825E+001
 0.109072E+001
 0.110607E+001
 0.112447E+001
 0.114658E+001
 0.116967E+001
 0.118524E+001
 0.116137E+001
 0.880434E+000
 0.103037E+001
 0.103358E+001
 0.103737E+001
 0.104180E+001
 0.104703E+001
 0.105322E+001
 0.106061E+001
 0.106949E+001
 0.108019E+001
 0.109305E+001
 0.110832E+001
 0.112526E+001
 0.114173E+001
 0.114467E+001
 0.110099E+001
 0.775726E+000
 0.102793E+001
 0.103083E+001
 0.103420E+001
 0.103810E+001
 0.104265E+001
 0.104797E+001
 0.105423E+001
 0.106159E+001
 0.107029E+001
 0.108024E+001
 0.109147E+001
 0.110219E+001
 0.110887E+001
 0.109709E+001
 0.102287E+001
 0.665333E+000
 0.102413E+001
 0.102654E+001
 0.102929E+001
 0.103244E+001
 0.103603E+001
 0.104018E+001
 0.104490E+001
 0.105034E+001
 0.105629E+001
 0.106288E+001
 0.106873E+001
 0.107266E+001
 0.106792E+001
 0.103994E+001
 0.937495E+000
 0.558241E+000
 0.101863E+001
 0.102035E+001
 0.102226E+001
 0.102439E+001
 0.102675E+001
 0.102932E+001
 0.103215E+001
 0.103501E+001
 0.103787E+001
 0.103989E+001
 0.104006E+001
 0.103557E+001
 0.101863E+001
 0.974244E+000
 0.844207E+000
 0.460952E+000
 0.101110E+001
 0.101191E+001
 0.101274E+001
 0.101357E+001
 0.101434E+001
 0.101501E+001
 0.101539E+001
 0.101530E+001
 0.101419E+001
 0.101115E+001
 0.100468E+001
 0.990605E+000
 0.961633E+000
 0.899307E+000
 0.747262E+000
 0.373365E+000
 0.100124E+001
 0.100091E+001
 0.100040E+001
 0.999615E+000
 0.998482E+000
 0.996801E+000
 0.994346E+000
 0.990683E+000
 0.985053E+000
 0.976360E+000
 0.962235E+000
 0.938382E+000
 0.896689E+000
 0.817030E+000
 0.649399E+000
 0.295883E+000
 0.988840E+000
 0.987134E+000
 0.985001E+000
 0.982326E+000
 0.978920E+000
 0.974535E+000
 0.968787E+000
 0.961053E+000
 0.950438E+000
 0.935389E+000
 0.913207E+000
 0.879297E+000
 0.824758E+000
 0.729763E+000
 0.553159E+000
 0.228542E+000
 0.973822E+000
 0.970513E+000
 0.966521E+000
 0.961662E+000
 0.955691E+000
 0.948253E+000
 0.938824E+000
 0.926656E+000
 0.910600E+000
 0.888821E+000
 0.858386E+000
 0.814380E+000
 0.747629E+000
 0.640218E+000
 0.460781E+000
 0.171168E+000
 0.956335E+000
 0.951235E+000
 0.945172E+000
 0.937910E+000
 0.929127E+000
 0.918368E+000
 0.905003E+000
 0.888122E+000
 0.866381E+000
 0.837753E+000
 0.799114E+000
 0.745381E+000
 0.667759E+000
 0.551246E+000
 0.374256E+000
 0.123345E+000
 0.936823E+000
 0.929798E+000
 0.921528E+000
 0.911720E+000
 0.899978E+000
 0.885762E+000
 0.868331E+000
 0.846643E+000
 0.819208E+000
 0.783864E+000
 0.737379E+000
 0.674744E+000
 0.588063E+000
 0.465723E+000
 0.295309E+000
 0.844407E-001
 0.916075E+000
 0.907080E+000
 0.896562E+000
 0.884177E+000
 0.869463E+000
 0.851800E+000
 0.830354E+000
 0.803980E+000
 0.771088E+000
 0.729433E+000
 0.675786E+000
 0.605439E+000
 0.511710E+000
 0.386435E+000
 0.225386E+000
 0.536451E-001
 0.895241E+000
 0.884333E+000
 0.871650E+000
 0.856794E+000
 0.839247E+000
 0.818323E+000
 0.793114E+000
 0.762402E+000
 0.724534E+000
 0.677242E+000
 0.617398E+000
 0.540746E+000
 0.441923E+000
 0.315973E+000
 0.165646E+000
 0.300324E-001
 0.875762E+000
 0.863122E+000
 0.848487E+000
 0.831415E+000
 0.811339E+000
 0.787524E+000
 0.759009E+000
 0.724527E+000
 0.682395E+000
 0.630370E+000
 0.565487E+000
 0.483995E+000
 0.381777E+000
 0.256642E+000
 0.116973E+000
 0.126375E-001
 0.859233E+000
 0.845163E+000
 0.828921E+000
 0.810031E+000
 0.787892E+000
 0.761731E+000
 0.730553E+000
 0.693062E+000
 0.647572E+000
 0.591886E+000
 0.523221E+000
 0.438286E+000
 0.334011E+000
 0.210376E+000
 0.799984E-001
 0.541687E-003
 0.847182E+000
 0.832089E+000
 0.814704E+000
 0.794524E+000
 0.770924E+000
 0.743109E+000
 0.710065E+000
 0.670482E+000
 0.622678E+000
 0.564510E+000
 0.493340E+000
 0.406228E+000
 0.300851E+000
 0.178676E+000
 0.551441E-001
-0.703952E-002
 0.840820E+000
 0.825195E+000
 0.807215E+000
 0.786365E+000
 0.762008E+000
 0.733339E+000
 0.699333E+000
 0.658678E+000
 0.609697E+000
 0.550277E+000
 0.477864E+000
 0.389706E+000
 0.283865E+000
 0.162567E+000
 0.426596E-001
-0.106790E-001
 0.840820E+000
 0.825195E+000
 0.807215E+000
 0.786365E+000
 0.762008E+000
 0.733339E+000
 0.699333E+000
 0.658678E+000
 0.609697E+000
 0.550277E+000
 0.477864E+000
 0.389706E+000
 0.283865E+000
 0.162567E+000
 0.426596E-001
-0.106790E-001
 0.847182E+000
 0.832089E+000
 0.814704E+000
 0.794524E+000
 0.770924E+000
 0.743109E+000
 0.710065E+000
 0.670482E+000
 0.622678E+000
 0.564510E+000
 0.493340E+000
 0.406228E+000
 0.300851E+000
 0.178676E+000
 0.551441E-001
-0.703952E-002
 0.859233E+000
 0.845163E+000
 0.828921E+000
 0.810031E+000
 0.787892E+000
 0.761731E+000
 0.730553E+000
 0.693062E+000
 0.647572E+000
 0.591886E+000
 0.523221E+000
 0.438286E+000
 0.334011E+000
 0.210376E+000
 0.799984E-001
 0.541687E-003
 0.875762E+000
 0.863122E+000
 0.848487E+000
 0.831415E+000
 0.811339E+000
 0.787524E+000
 0.759009E+000
 0.724527E+000
 0.682395E+000
 0.630370E+000
 0.565487E+000
 0.483995E+000
 0.381777E+000
 0.256642E+000
 0.116973E+000
 0.126375E-001
 0.895241E+000
 0.884333E+000
 0.871650E+000
 0.856794E+000
 0.839247E+000
 0.818323E+000
 0.793114E+000
 0.762402E+000
 0.724534E+000
 0.677242E+000
 0.617398E+000
 0.540746E+000
 0.441923E+000
 0.315973E+000
 0.165646E+000
 0.300324E-001
 0.916075E+000
 0.907080E+000
 0.896562E+000
 0.884177E+000
 0.869463E+000
 0.851800E+000
 0.830354E+000
 0.803980E+000
 0.771088E+000
 0.729433E+000
 0.675786E+000
 0.605439E+000
 0.511710E+000
 0.386435E+000
 0.225386E+000
 0.536451E-001
 0.936823E+000
 0.929798E+000
 0.921528E+000
 0.911720E+000
 0.899978E+000
 0.885762E+000
 0.868331E+000
 0.846643E+000
 0.819208E+000
 0.783864E+000
 0.737379E+000
 0.674744E+000
 0.588063E+000
 0.465723E+000
 0.295309E+000
 0.844407E-001
 0.956335E+000
 0.951235E+000
 0.945172E+000
 0.937910E+000
 0.929127E+000
 0.918368E+000
 0.905003E+000
 0.888122E+000
 0.866381E+000
 0.837753E+000
 0.799114E+000
 0.745381E+000
 0.667759E+000
 0.551246E+000
 0.374256E+000
 0.123345E+000
 0.973822E+000
 0.970513E+000
 0.966521E+000
 0.961662E+000
 0.955691E+000
 0.948253E+000
 0.938824E+000
 0.926656E+000
 0.910600E+000
 0.888821E+000
 0.858386E+000
 0.814380E+000
 0.747629E+000
 0.640218E+000
 0.460781E+000
 0.171168E+000
 0.988840E+000
 0.987134E+000
 0.985001E+000
 0.982326E+000
 0.978920E+000
 0.974535E+000
 0.968787E+000
 0.961053E+000
 0.950438E+000
 0.935389E+000
 0.913207E+000
 0.879297E+000
 0.824758E+000
 0.729763E+000
 0.553159E+000
 0.228542E+000
 0.100124E+001
 0.100091E+001
 0.100040E+001
 0.999615E+000
 0.998482E+000
 0.996801E+000
 0.994346E+000
 0.990683E+000
 0.985053E+000
 0.976360E+000
 0.962235E+000
 0.938382E+000
 0.896689E+000
 0.817030E+000
 0.649399E+000
 0.295883E+000
 0.101110E+001
 0.101191E+001
 0.101274E+001
 0.101357E+001
 0.101434E+001
 0.101501E+001
 0.101539E+001
 0.101530E+001
 0.101419E+001
 0.101115E+001
 0.100468E+001
 0.990605E+000
 0.961633E+000
 0.899307E+000
 0.747262E+000
 0.373365E+000
 0.101863E+001
 0.102035E+001
 0.102226E+001
 0.102439E+001
 0.102675E+001
 0.102932E+001
 0.103215E+001
 0.103501E+001
 0.103787E+001
 0.103989E+001
 0.104006E+001
 0.103557E+001
 0.101863E+001
 0.974244E+000
 0.844207E+000
 0.460952E+000
 0.102413E+001
 0.102654E+001
 0.102929E+001
 0.103244E+001
 0.103603E+001
 0.104018E+001
 0.104490E+001
 0.105034E+001
 0.105629E+001
 0.106288E+001
 0.106873E+001
 0.107266E+001
 0.106792E+001
 0.103994E+001
 0.937495E+000
 0.558241E+000
 0.102793E+001
 0.103083E+001
 0.103420E+001
 0.103810E+001
 0.104265E+001
 0.104797E+001
 0.105423E+001
 0.106159E+001
 0.107029E+001
 0.108024E+001
 0.109147E+001
 0.110219E+001
 0.110887E+001
 0.109709E+001
 0.102287E+001
 0.665333E+000
 0.103037E+001
 0.103358E+001
 0.103737E+001
 0.104180E+001
 0.104703E+001
 0.105322E+001
 0.106061E+001
 0.106949E+001
 0.108019E+001
 0.109305E+001
 0.110832E+001
 0.112526E+001
 0.114173E+001
 0.114467E+001
 0.110099E+001
 0.775726E+000
 0.103369E+001
 0.103726E+001
 0.104151E+001
 0.104652E+001
 0.105245E+001
 0.105951E+001
 0.106798E+001
 0.107825E+001
 0.109072E+001
 0.110607E+001
 0.112447E+001
 0.114658E+001
 0.116967E+001
 0.118524E+001
 0.116137E+001
 0.880434E+000
 0.103871E+001
 0.104287E+001
 0.104775E+001
 0.105351E+001
 0.106031E+001
 0.106842E+001
 0.107818E+001
 0.108996E+001
 0.110449E+001
 0.112206E+001
 0.114404E+001
 0.116995E+001
 0.119914E+001
 0.122505E+001
 0.121168E+001
 0.990581E+000
 0.104371E+001
 0.104842E+001
 0.105392E+001
 0.106039E+001
 0.106803E+001
 0.107716E+001
 0.108807E+001
 0.110143E+001
 0.111758E+001
 0.113776E+001
 0.116235E+001
 0.119250E+001
 0.122742E+001
 0.126226E+001
 0.126317E+001
 0.111217E+001
 0.104848E+001
 0.105370E+001
 0.105978E+001
 0.106691E+001
 0.107534E+001
 0.108534E+001
 0.109742E+001
 0.111199E+001
 0.112996E+001
 0.115205E+001
 0.117947E+001
 0.121329E+001
 0.125380E+001
 0.129704E+001
 0.131689E+001
 0.124010E+001
 0.105279E+001
 0.105847E+001
 0.106505E+001
 0.107276E+001
 0.108184E+001
 0.109267E+001
 0.110564E+001
 0.112144E+001
 0.114078E+001
 0.116473E+001
 0.119460E+001
 0.123185E+001
 0.127767E+001
 0.132982E+001
 0.137231E+001
 0.137315E+001
 0.105639E+001
 0.106243E+001
 0.106942E+001
 0.107759E+001
 0.108722E+001
 0.109866E+001
 0.111243E+001
 0.112915E+001
 0.114969E+001
 0.117522E+001
 0.120725E+001
 0.124770E+001
 0.129876E+001
 0.136074E+001
 0.142931E+001
 0.150942E+001
 0.105900E+001
 0.106530E+001
 0.107257E+001
 0.108107E+001
 0.109107E+001
 0.110298E+001
 0.111731E+001
 0.113475E+001
 0.115624E+001
 0.118307E+001
 0.121700E+001
 0.126053E+001
 0.131693E+001
 0.139003E+001
 0.148749E+001
 0.164676E+001
 0.106038E+001
 0.106681E+001
 0.107424E+001
 0.108290E+001
 0.109311E+001
 0.110529E+001
 0.111997E+001
 0.113789E+001
 0.116009E+001
 0.118798E+001
 0.122364E+001
 0.127018E+001
 0.133227E+001
 0.141785E+001
 0.154619E+001
 0.178269E+001
 0.106037E+001
 0.106681E+001
 0.107423E+001
 0.108291E+001
 0.109316E+001
 0.110541E+001
 0.112024E+001
 0.113844E+001
 0.116112E+001
 0.118988E+001
 0.122716E+001
 0.127675E+001
 0.134501E+001
 0.144424E+001
 0.160442E+001
 0.191441E+001
 0.105894E+001
 0.106524E+001
 0.107253E+001
 0.108107E+001
 0.109120E+001
 0.110337E+001
 0.111818E+001
 0.113647E+001
 0.115947E+001
 0.118897E+001
 0.122781E+001
 0.128057E+001
 0.135546E+001
 0.146908E+001
 0.166088E+001
 0.203896E+001
 0.105622E+001
 0.106227E+001
 0.106931E+001
 0.107759E+001
 0.108748E+001
 0.109943E+001
 0.111408E+001
 0.113234E+001
 0.115554E+001
 0.118571E+001
 0.122609E+001
 0.128215E+001
 0.136394E+001
 0.149205E+001
 0.171402E+001
 0.215326E+001
 0.105254E+001
 0.105826E+001
 0.106497E+001
 0.107292E+001
 0.108249E+001
 0.109414E+001
 0.110856E+001
 0.112671E+001
 0.115005E+001
 0.118084E+001
 0.122274E+001
 0.128210E+001
 0.137072E+001
 0.151266E+001
 0.176209E+001
 0.225424E+001
 0.104842E+001
 0.105378E+001
 0.106012E+001
 0.106772E+001
 0.107694E+001
 0.108827E+001
 0.110242E+001
 0.112044E+001
 0.114389E+001
 0.117525E+001
 0.121861E+001
 0.128109E+001
 0.137601E+001
 0.153030E+001
 0.180331E+001
 0.233903E+001
 0.104449E+001
 0.104950E+001
 0.105551E+001
 0.106279E+001
 0.107169E+001
 0.108272E+001
 0.109664E+001
 0.111453E+001
 0.113807E+001
 0.116994E+001
 0.121456E+001
 0.127971E+001
 0.137992E+001
 0.154429E+001
 0.183599E+001
 0.240510E+001
 0.104142E+001
 0.104616E+001
 0.105191E+001
 0.105893E+001
 0.106759E+001
 0.107841E+001
 0.109214E+001
 0.110994E+001
 0.113356E+001
 0.116581E+001
 0.121137E+001
 0.127849E+001
 0.138252E+001
 0.155403E+001
 0.185866E+001
 0.245036E+001
 0.103973E+001
 0.104432E+001
 0.104993E+001
 0.105682E+001
 0.106535E+001
 0.107604E+001
 0.108969E+001
 0.110744E+001
 0.113110E+001
 0.116355E+001
 0.120962E+001
 0.127778E+001
 0.138382E+001
 0.155902E+001
 0.187028E+001
 0.247338E+001
 0.103973E+001
 0.104432E+001
 0.104993E+001
 0.105682E+001
 0.106535E+001
 0.107604E+001
 0.108969E+001
 0.110744E+001
 0.113110E+001
 0.116355E+001
 0.120962E+001
 0.127778E+001
 0.138382E+001
 0.155902E+001
 0.187028E+001
 0.247338E+001
 0.104142E+001
 0.104616E+001
 0.105191E+001
 0.105893E+001
 0.106759E+001
 0.107841E+001
 0.109214E+001
 0.110994E+001
 0.113356E+001
 0.116581E+001
 0.121137E+001
 0.127849E+001
 0.138252E+001
 0.155403E+001
 0.185866E+001
 0.245036E+001
 0.104449E+001
 0.104950E+001
 0.105551E+001
 0.106279E+001
 0.107169E+001
 0.108272E+001
 0.109664E+001
 0.111453E+001
 0.113807E+001
 0.116994E+001
 0.121456E+001
 0.127971E+001
 0.137992E+001
 0.154429E+001
 0.183599E+001
 0.240510E+001
 0.104842E+001
 0.105378E+001
 0.106012E+001
 0.106772E+001
 0.107694E+001
 0.108827E+001
 0.110242E+001
 0.112044E+001
 0.114389E+001
 0.117525E+001
 0.121861E+001
 0.128109E+001
 0.137601E+001
 0.153030E+001
 0.180331E+001
 0.233903E+001
 0.105254E+001
 0.105826E+001
 0.106497E+001
 0.107292E+001
 0.108249E+001
 0.109414E+001
 0.110856E+001
 0.112671E+001
 0.115005E+001
 0.118084E+001
 0.122274E+001
 0.128210E+001
 0.137072E+001
 0.151266E+001
 0.176209E+001
 0.225424E+001
 0.105622E+001
 0.106227E+001
 0.106931E+001
 0.107759E+001
 0.108748E+001
 0.109943E+001
 0.111408E+001
 0.113234E+001
 0.115554E+001
 0.118571E+001
 0.122609E+001
 0.128215E+001
 0.136394E+001
 0.149205E+001
 0.171402E+001
 0.215326E+001
 0.105894E+001
 0.106524E+001
 0.107253E+001
 0.108107E+001
 0.109120E+001
 0.110337E+001
 0.111818E+001
 0.113647E+001
 0.115947E+001
 0.118897E+001
 0.122781E+001
 0.128057E+001
 0.135546E+001
 0.146908E+001
 0.166088E+001
 0.203896E+001
 0.106037E+001
 0.106681E+001
 0.107423E+001
 0.108291E+001
 0.109316E+001
 0.110541E+001
 0.112024E+001
 0.113844E+001
 0.116112E+001
 0.118988E+001
 0.122716E+001
 0.127675E+001
 0.134501E+001
 0.144424E+001
 0.160442E+001
 0.191441E+001
 0.106038E+001
 0.106681E+001
 0.107424E+001
 0.108290E+001
 0.109311E+001
 0.110529E+001
 0.111997E+001
 0.113789E+001
 0.116009E+001
 0.118798E+001
 0.122364E+001
 0.127018E+001
 0.133227E+001
 0.141785E+001
 0.154619E+001
 0.178269E+001
 0.105900E+001
 0.106530E+001
 0.107257E+001
 0.108107E+001
 0.109107E+001
 0.110298E+001
 0.111731E+001
 0.113475E+001
 0.115624E+001
 0.118307E+001
 0.121700E+001
 0.126053E+001
 0.131693E+001
 0.139003E+001
 0.148749E+001
 0.164676E+001
 0.105639E+001
 0.106243E+001
 0.106942E+001
 0.107759E+001
 0.108722E+001
 0.109866E+001
 0.111243E+001
 0.112915E+001
 0.114969E+001
 0.117522E+001
 0.120725E+001
 0.124770E+001
 0.129876E+001
 0.136074E+001
 0.142931E+001
 0.150942E+001
 0.105279E+001
 0.105847E+001
 0.106505E+001
 0.107276E+001
 0.108184E+001
 0.109267E+001
 0.110564E+001
 0.112144E+001
 0.114078E+001
 0.116473E+001
 0.119460E+001
 0.123185E+001
 0.127767E+001
 0.132982E+001
 0.137231E+001
 0.137315E+001
 0.104848E+001
 0.105370E+001
 0.105978E+001
 0.106691E+001
 0.107534E+001
 0.108534E+001
 0.109742E+001
 0.111199E+001
 0.112996E+001
 0.115205E+001
 0.117947E+001
 0.121329E+001
 0.125380E+001
 0.129704E+001
 0.131689E+001
 0.124010E+001
 0.104371E+001
 0.104842E+001
 0.105392E+001
 0.106039E+001
 0.106803E+001
 0.107716E+001
 0.108807E+001
 0.110143E+001
 0.111758E+001
 0.113776E+001
 0.116235E+001
 0.119250E+001
 0.122742E+001
 0.126226E+001
 0.126317E+001
 0.111217E+001
 0.103871E+001
 0.104287E+001
 0.104775E+001
 0.105351E+001
 0.106031E+001
 0.106842E+001
 0.107818E+001
 0.108996E+001
 0.110449E+001
 0.112206E+001
 0.114404E+001
 0.116995E+001
 0.119914E+001
 0.122505E+001
 0.121168E+001
 0.990581E+000
 0.103369E+001
 0.103726E+001
 0.104151E+001
 0.104652E+001
 0.105245E+001
 0.105951E+001
 0.106798E+001
 0.107825E+001
 0.109072E+001
 0.110607E+001
 0.112447E+001
 0.114658E+001
 0.116967E+001
 0.118524E+001
 0.116137E+001
 0.880434E+000
 0.103037E+001
 0.103358E+001
 0.103737E+001
 0.104180E+001
 0.104703E+001
 0.105322E+001
 0.106061E+001
 0.106949E+001
 0.108019E+001
 0.109305E+001
 0.110832E+001
 0.112526E+001
 0.114173E+001
 0.114467E+001
 0.110099E+001
 0.775726E+000
 0.102793E+001
 0.103083E+001
 0.103420E+001
 0.103810E+001
 0.104265E+001
 0.104797E+001
 0.105423E+001
 0.106159E+001
 0.107029E+001
 0.108024E+001
 0.109147E+001
 0.110219E+001
 0.110887E+001
 0.109709E+001
 0.102287E+001
 0.665333E+000
 0.102413E+001
 0.102654E+001
 0.102929E+001
 0.103244E+001
 0.103603E+001
 0.104018E+001
 0.104490E+001
 0.105034E+001
 0.105629E+001
 0.106288E+001
 0.106873E+001
 0.107266E+001
 0.106792E+001
 0.103994E+001
 0.937495E+000
 0.558241E+000
 0.101863E+001
 0.102035E+001
 0.102226E+001
 0.102439E+001
 0.102675E+001
 0.102932E+001
 0.103215E+001
 0.103501E+001
 0.103787E+001
 0.103989E+001
 0.104006E+001
 0.103557E+001
 0.101863E+001
 0.974244E+000
 0.844207E+000
 0.460952E+000
 0.101110E+001
 0.101191E+001
 0.101274E+001
 0.101357E+001
 0.101434E+001
 0.101501E+001
 0.101539E+001
 0.101530E+001
 0.101419E+001
 0.101115E+001
 0.100468E+001
 0.990605E+000
 0.961633E+000
 0.899307E+000
 0.747262E+000
 0.373365E+000
 0.100124E+001
 0.100091E+001
 0.100040E+001
 0.999615E+000
 0.998482E+000
 0.996801E+000
 0.994346E+000
 0.990683E+000
 0.985053E+000
 0.976360E+000
 0.962235E+000
 0.938382E+000
 0.896689E+000
 0.817030E+000
 0.649399E+000
 0.295883E+000
 0.988840E+000
 0.987134E+000
 0.985001E+000
 0.982326E+000
 0.978920E+000
 0.974535E+000
 0.968787E+000
 0.961053E+000
 0.950438E+000
 0.935389E+000
 0.913207E+000
 0.879297E+000
 0.824758E+000
 0.729763E+000
 0.553159E+000
 0.228542E+000
 0.973822E+000
 0.970513E+000
 0.966521E+000
 0.961662E+000
 0.955691E+000
 0.948253E+000
 0.938824E+000
 0.926656E+000
 0.910600E+000
 0.888821E+000
 0.858386E+000
 0.814380E+000
 0.747629E+000
 0.640218E+000
 0.460781E+000
 0.171168E+000
 0.956335E+000
 0.951235E+000
 0.945172E+000
 0.937910E+000
 0.929127E+000
 0.918368E+000
 0.905003E+000
 0.888122E+000
 0.866381E+000
 0.837753E+000
 0.799114E+000
 0.745381E+000
 0.667759E+000
 0.551246E+000
 0.374256E+000
 0.123345E+000
 0.936823E+000
 0.929798E+000
 0.921528E+000
 0.911720E+000
 0.899978E+000
 0.885762E+000
 0.868331E+000
 0.846643E+000
 0.819208E+000
 0.783864E+000
 0.737379E+000
 0.674744E+000
 0.588063E+000
 0.465723E+000
 0.295309E+000
 0.844407E-001
 0.916075E+000
 0.907080E+000
 0.896562E+000
 0.884177E+000
 0.869463E+000
 0.851800E+000
 0.830354E+000
 0.803980E+000
 0.771088E+000
 0.729433E+000
 0.675786E+000
 0.605439E+000
 0.511710E+000
 0.386435E+000
 0.225386E+000
 0.536451E-001
 0.895241E+000
 0.884333E+000
 0.871650E+000
 0.856794E+000
 0.839247E+000
 0.818323E+000
 0.793114E+000
 0.762402E+000
 0.724534E+000
 0.677242E+000
 0.617398E+000
 0.540746E+000
 0.441923E+000
 0.315973E+000
 0.165646E+000
 0.300324E-001
 0.875762E+000
 0.863122E+000
 0.848487E+000
 0.831415E+000
 0.811339E+000
 0.787524E+000
 0.759009E+000
 0.724527E+000
 0.682395E+000
 0.630370E+000
 0.565487E+000
 0.483995E+000
 0.381777E+000
 0.256642E+000
 0.116973E+000
 0.126375E-001
 0.859233E+000
 0.845163E+000
 0.828921E+000
 0.810031E+000
 0.787892E+000
 0.761731E+000
 0.730553E+000
 0.693062E+000
 0.647572E+000
 0.591886E+000
 0.523221E+000
 0.438286E+000
 0.334011E+000
 0.210376E+000
 0.799984E-001
 0.541687E-003
 0.847182E+000
 0.832089E+000
 0.814704E+000
 0.794524E+000
 0.770924E+000
 0.743109E+000
 0.710065E+000
 0.670482E+000
 0.622678E+000
 0.564510E+000
 0.493340E+000
 0.406228E+000
 0.300851E+000
 0.178676E+000
 0.551441E-001
-0.703952E-002
 0.840820E+000
 0.825195E+000
 0.807215E+000
 0.786365E+000
 0.762008E+000
 0.733339E+000
 0.699333E+000
 0.658678E+000
 0.609697E+000
 0.550277E+000
 0.477864E+000
 0.389706E+000
 0.283865E+000
 0.162567E+000
 0.426596E-001
-0.106790E-001
 0.840820E+000
 0.825195E+000
 0.807215E+000
 0.786365E+000
 0.762008E+000
 0.733339E+000
 0.699333E+000
 0.658678E+000
 0.609697E+000
 0.550277E+000
 0.477864E+000
 0.389706E+000
 0.283865E+000
 0.162567E+000
 0.426596E-001
-0.106790E-001
 0.847182E+000
 0.832089E+000
 0.814704E+000
 0.794524E+000
 0.770924E+000
 0.743109E+000
 0.710065E+000
 0.670482E+000
 0.622678E+000
 0.564510E+000
 0.493340E+000
 0.406228E+000
 0.300851E+000
 0.178676E+000
 0.551441E-001
-0.703952E-002
 0.859233E+000
 0.845163E+000
 0.828921E+000
 0.810031E+000
 0.787892E+000
 0.761731E+000
 0.730553E+000
 0.693062E+000
 0.647572E+000
 0.591886E+000
 0.523221E+000
 0.438286E+000
 0.334011E+000
 0.210376E+000
 0.799984E-001
 0.541687E-003
 0.875762E+000
 0.863122E+000
 0.848487E+000
 0.831415E+000
 0.811339E+000
 0.787524E+000
 0.759009E+000
 0.724527E+000
 0.682395E+000
 0.630370E+000
 0.565487E+000
 0.483995E+000
 0.381777E+000
 0.256642E+000
 0.116973E+000
 0.126375E-001
 0.895241E+000
 0.884333E+000
 0.871650E+000
 0.856794E+000
 0.839247E+000
 0.818323E+000
 0.793114E+000
 0.762402E+000
 0.724534E+000
 0.677242E+000
 0.617398E+000
 0.540746E+000
 0.441923E+000
 0.315973E+000
 0.165646E+000
 0.300324E-001
 0.916075E+000
 0.907080E+000
 0.896562E+000
 0.884177E+000
 0.869463E+000
 0.851800E+000
 0.830354E+000
 0.803980E+000
 0.771088E+000
 0.729433E+000
 0.675786E+000
 0.605439E+000
 0.511710E+000
 0.386435E+000
 0.225386E+000
 0.536451E-001
 0.936823E+000
 0.929798E+000
 0.921528E+000
 0.911720E+000
 0.899978E+000
 0.885762E+000
 0.868331E+000
 0.846643E+000
 0.819208E+000
 0.783864E+000
 0.737379E+000
 0.674744E+000
 0.588063E+000
 0.465723E+000
 0.295309E+000
 0.844407E-001
 0.956335E+000
 0.951235E+000
 0.945172E+000
 0.937910E+000
 0.929127E+000
 0.918368E+000
 0.905003E+000
 0.888122E+000
 0.866381E+000
 0.837753E+000
 0.799114E+000
 0.745381E+000
 0.667759E+000
 0.551246E+000
 0.374256E+000
 0.123345E+000
 0.973822E+000
 0.970513E+000
 0.966521E+000
 0.961662E+000
 0.955691E+000
 0.948253E+000
 0.938824E+000
 0.926656E+000
 0.910600E+000
 0.888821E+000
 0.858386E+000
 0.814380E+000
 0.747629E+000
 0.640218E+000
 0.460781E+000
 0.171168E+000
 0.988840E+000
 0.987134E+000
 0.985001E+000
 0.982326E+000
 0.978920E+000
 0.974535E+000
 0.968787E+000
 0.961053E+000
 0.950438E+000
 0.935389E+000
 0.913207E+000
 0.879297E+000
 0.824758E+000
 0.729763E+000
 0.553159E+000
 0.228542E+000
 0.100124E+001
 0.100091E+001
 0.100040E+001
 0.999615E+000
 0.998482E+000
 0.996801E+000
 0.994346E+000
 0.990683E+000
 0.985053E+000
 0.976360E+000
 0.962235E+000
 0.938382E+000
 0.896689E+000
 0.817030E+000
 0.649399E+000
 0.295883E+000
 0.101110E+001
 0.101191E+001
 0.101274E+001
 0.101357E+001
 0.101434E+001
 0.101501E+001
 0.101539E+001
 0.101530E+001
 0.101419E+001
 0.101115E+001
 0.100468E+001
 0.990605E+000
 0.961633E+000
 0.899307E+000
 0.747262E+000
 0.373365E+000
 0.101863E+001
 0.102035E+001
 0.102226E+001
 0.102439E+001
 0.102675E+001
 0.102932E+001
 0.103215E+001
 0.103501E+001
 0.103787E+001
 0.103989E+001
 0.104006E+001
 0.103557E+001
 0.101863E+001
 0.974244E+000
 0.844207E+000
 0.460952E+000
 0.102413E+001
 0.102654E+001
 0.102929E+001
 0.103244E+001
 0.103603E+001
 0.104018E+001
 0.104490E+001
 0.105034E+001
 0.105629E+001
 0.106288E+001
 0.106873E+001
 0.107266E+001
 0.106792E+001
 0.103994E+001
 0.937495E+000
 0.558241E+000
 0.102793E+001
 0.103083E+001
 0.103420E+001
 0.103810E+001
 0.104265E+001
 0.104797E+001
 0.105423E+001
 0.106159E+001
 0.107029E+001
 0.108024E+001
 0.109147E+001
 0.110219E+001
 0.110887E+001
 0.109709E+001
 0.102287E+001
 0.665333E+000
 0.103037E+001
 0.103358E+001
 0.103737E+001
 0.104180E+001
 0.104703E+001
 0.105322E+001
 0.106061E+001
 0.106949E+001
 0.108019E+001
 0.109305E+001
 0.110832E+001
 0.112526E+001
 0.114173E+001
 0.114467E+001
 0.110099E+001
 0.775726E+000
SCALARS stress_22 FLOAT     1
LOOKUP_TABLE default
-0.317948E-001
-0.352718E-001
-0.393076E-001
-0.440193E-001
-0.495532E-001
-0.561026E-001
-0.639128E-001
-0.733102E-001
-0.846477E-001
-0.984140E-001
-0.114735E+000
-0.133678E+000
-0.152227E+000
-0.160410E+000
-0.123211E+000
 0.188332E+000
-0.320236E-001
-0.354287E-001
-0.393704E-001
-0.439519E-001
-0.493079E-001
-0.556122E-001
-0.630819E-001
-0.719903E-001
-0.826165E-001
-0.953084E-001
-0.109903E+000
-0.126434E+000
-0.139541E+000
-0.143420E+000
-0.844726E-001
 0.217105E+000
-0.312866E-001
-0.345164E-001
-0.382337E-001
-0.425296E-001
-0.475234E-001
-0.533521E-001
-0.602189E-001
-0.682580E-001
-0.778337E-001
-0.886878E-001
-0.101430E+000
-0.113382E+000
-0.123137E+000
-0.115801E+000
-0.464601E-001
 0.245755E+000
-0.293174E-001
-0.322353E-001
-0.355689E-001
-0.393960E-001
-0.437984E-001
-0.489125E-001
-0.547977E-001
-0.617198E-001
-0.694771E-001
-0.785125E-001
-0.875931E-001
-0.960946E-001
-0.989191E-001
-0.830643E-001
-0.387216E-002
 0.267004E+000
-0.258249E-001
-0.282695E-001
-0.310379E-001
-0.341737E-001
-0.377563E-001
-0.418076E-001
-0.464776E-001
-0.516391E-001
-0.574908E-001
-0.634786E-001
-0.691450E-001
-0.725007E-001
-0.686247E-001
-0.441648E-001
 0.408641E-001
 0.280716E+000
-0.205259E-001
-0.223208E-001
-0.243130E-001
-0.265380E-001
-0.289940E-001
-0.317427E-001
-0.346961E-001
-0.378945E-001
-0.410491E-001
-0.437957E-001
-0.451867E-001
-0.430019E-001
-0.322573E-001
-0.837240E-004
 0.860610E-001
 0.286882E+000
-0.131908E-001
-0.141420E-001
-0.151530E-001
-0.162034E-001
-0.172978E-001
-0.183587E-001
-0.193435E-001
-0.200513E-001
-0.201850E-001
-0.191680E-001
-0.158396E-001
-0.789201E-002
 0.954470E-002
 0.477794E-001
 0.130092E+000
 0.286056E+000
-0.368880E-002
-0.361503E-002
-0.342514E-002
-0.308908E-002
-0.252787E-002
-0.165837E-002
-0.306290E-003
 0.178365E-002
 0.503300E-002
 0.101604E-001
 0.184300E-001
 0.321110E-001
 0.556290E-001
 0.976826E-001
 0.171618E+000
 0.279101E+000
 0.793201E-002
 0.920367E-002
 0.107670E-001
 0.127048E-001
 0.151187E-001
 0.181728E-001
 0.220967E-001
 0.272326E-001
 0.340967E-001
 0.434938E-001
 0.566965E-001
 0.757972E-001
 0.104351E+000
 0.147765E+000
 0.209573E+000
 0.267181E+000
 0.213943E-001
 0.239847E-001
 0.270618E-001
 0.307330E-001
 0.351547E-001
 0.405375E-001
 0.471749E-001
 0.554757E-001
 0.660206E-001
 0.796410E-001
 0.975376E-001
 0.121451E+000
 0.153722E+000
 0.196164E+000
 0.243183E+000
 0.251689E+000
 0.361225E-001
 0.400982E-001
 0.447457E-001
 0.502111E-001
 0.566879E-001
 0.644348E-001
 0.737939E-001
 0.852219E-001
 0.993287E-001
 0.116923E+000
 0.139051E+000
 0.166951E+000
 0.201555E+000
 0.241120E+000
 0.271963E+000
 0.234186E+000
 0.512425E-001
 0.565829E-001
 0.627710E-001
 0.699826E-001
 0.784474E-001
 0.884601E-001
 0.100399E+000
 0.114747E+000
 0.132115E+000
 0.153245E+000
 0.178966E+000
 0.209928E+000
 0.245623E+000
 0.281052E+000
 0.295689E+000
 0.216305E+000
 0.656161E-001
 0.722095E-001
 0.798025E-001
 0.885993E-001
 0.988568E-001
 0.110897E+000
 0.125120E+000
 0.142020E+000
 0.162183E+000
 0.186261E+000
 0.214835E+000
 0.247960E+000
 0.283810E+000
 0.314612E+000
 0.314348E+000
 0.199654E+000
 0.779638E-001
 0.856015E-001
 0.943608E-001
 0.104468E+000
 0.116199E+000
 0.129895E+000
 0.145968E+000
 0.164907E+000
 0.187269E+000
 0.213608E+000
 0.244267E+000
 0.278784E+000
 0.314247E+000
 0.340717E+000
 0.328075E+000
 0.185701E+000
 0.870422E-001
 0.954307E-001
 0.105025E+000
 0.116068E+000
 0.128848E+000
 0.143715E+000
 0.161087E+000
 0.181447E+000
 0.205319E+000
 0.233178E+000
 0.265184E+000
 0.300493E+000
 0.335423E+000
 0.358560E+000
 0.337066E+000
 0.175663E+000
 0.918581E-001
 0.100639E+000
 0.110670E+000
 0.122199E+000
 0.135524E+000
 0.150998E+000
 0.169040E+000
 0.190128E+000
 0.214768E+000
 0.243388E+000
 0.276051E+000
 0.311708E+000
 0.346283E+000
 0.367612E+000
 0.341506E+000
 0.170417E+000
 0.918581E-001
 0.100639E+000
 0.110670E+000
 0.122199E+000
 0.135524E+000
 0.150998E+000
 0.169040E+000
 0.190128E+000
 0.214768E+000
 0.243388E+000
 0.276051E+000
 0.311708E+000
 0.346283E+000
 0.367612E+000
 0.341506E+000
 0.170417E+000
 0.870422E-001
 0.954307E-001
 0.105025E+000
 0.116068E+000
 0.128848E+000
 0.143715E+000
 0.161087E+000
 0.181447E+000
 0.205319E+000
 0.233178E+000
 0.265184E+000
 0.300493E+000
 0.335423E+000
 0.358560E+000
 0.337066E+000
 0.175663E+000
 0.779638E-001
 0.856015E-001
 0.943608E-001
 0.104468E+000
 0.116199E+000
 0.129895E+000
 0.145968E+000
 0.164907E+000
 0.187269E+000
 0.213608E+000
 0.244267E+000
 0.278784E+000
 0.314247E+000
 0.340717E+000
 0.328075E+000
 0.185701E+000
 0.656161E-001
 0.722095E-001
 0.798025E-001
 0.885993E-001
 0.988568E-001
 0.110897E+000
 0.125120E+000
 0.142020E+000
 0.162183E+000
 0.186261E+000
 0.214835E+000
 0.247960E+000
 0.283810E+000
 0.314612E+000
 0.314348E+000
 0.199654E+000
 0.512425E-001
 0.565829E-001
 0.627710E-001
 0.699826E-001
 0.784474E-001
 0.884601E-001
 0.100399E+000
 0.114747E+000
 0.132115E+000
 0.153245E+000
 0.178966E+000
 0.209928E+000
 0.245623E+000
 0.281052E+000
 0.295689E+000
 0.216305E+000
 0.361225E-001
 0.400982E-001
 0.447457E-001
 0.502111E-001
 0.566879E-001
 0.644348E-001
 0.737939E-001
 0.852219E-001
 0.993287E-001
 0.116923E+000
 0.139051E+000
 0.166951E+000
 0.201555E+000
 0.241120E+000
 0.271963E+000
 0.234186E+000
 0.213943E-001
 0.239847E-001
 0.270618E-001
 0.307330E-001
 0.351547E-001
 0.405375E-001
 0.471749E-001
 0.554757E-001
 0.660206E-001
 0.796410E-001
 0.975376E-001
 0.121451E+000
 0.153722E+000
 0.196164E+000
 0.243183E+000
 0.251689E+000
 0.793201E-002
 0.920367E-002
 0.107670E-001
 0.127048E-001
 0.151187E-001
 0.181728E-001
 0.220967E-001
 0.272326E-001
 0.340967E-001
 0.434938E-001
 0.566965E-001
 0.757972E-001
 0.104351E+000
 0.147765E+000
 0.209573E+000
 0.267181E+000
-0.368880E-002
-0.361503E-002
-0.342514E-002
-0.308908E-002
-0.252787E-002
-0.165837E-002
-0.306290E-003
 0.178365E-002
 0.503300E-002
 0.101604E-001
 0.184300E-001
 0.321110E-001
 0.556290E-001
 0.976826E-001
 0.171618E+000
 0.279101E+000
-0.131908E-001
-0.141420E-001
-0.151530E-001
-0.162034E-001
-0.172978E-001
-0.183587E-001
-0.193435E-001
-0.200513E-001
-0.201850E-001
-0.191680E-001
-0.158396E-001
-0.789201E-002
 0.954470E-002
 0.477794E-001
 0.130092E+000
 0.286056E+000
-0.205259E-001
-0.223208E-001
-0.243130E-001
-0.265380E-001
-0.289940E-001
-0.317427E-001
-0.346961E-001
-0.378945E-001
-0.410491E-001
-0.437957E-001
-0.451867E-001
-0.430019E-001
-0.322573E-001
-0.837240E-004
 0.860610E-001
 0.286882E+000
-0.258249E-001
-0.282695E-001
-0.310379E-001
-0.341737E-001
-0.377563E-001
-0.418076E-001
-0.464776E-001
-0.516391E-001
-0.574908E-001
-0.634786E-001
-0.691450E-001
-0.725007E-001
-0.686247E-001
-0.441648E-001
 0.408641E-001
 0.280716E+000
-0.293174E-001
-0.322353E-001
-0.355689E-001
-0.393960E-001
-0.437984E-001
-0.489125E-001
-0.547977E-001
-0.617198E-001
-0.694771E-001
-0.785125E-001
-0.875931E-001
-0.960946E-001
-0.989191E-001
-0.830643E-001
-0.387216E-002
 0.267004E+000
-0.312866E-001
-0.345164E-001
-0.382337E-001
-0.425296E-001
-0.475234E-001
-0.533521E-001
-0.602189E-001
-0.682580E-001
-0.778337E-001
-0.886878E-001
-0.101430E+000
-0.113382E+000
-0.123137E+000
-0.115801E+000
-0.464601E-001
 0.245755E+000
-0.320236E-001
-0.354287E-001
-0.393704E-001
-0.439519E-001
-0.493079E-001
-0.556122E-001
-0.630819E-001
-0.719903E-001
-0.826165E-001
-0.953084E-001
-0.109903E+000
-0.126434E+000
-0.139541E+000
-0.143420E+000
-0.844726E-001
 0.217105E+000
-0.317948E-001
-0.352718E-001
-0.393076E-001
-0.440193E-001
-0.495532E-001
-0.561026E-001
-0.639128E-001
-0.733102E-001
-0.846477E-001
-0.984140E-001
-0.114735E+000
-0.133678E+000
-0.152227E+000
-0.160410E+000
-0.123211E+000
 0.188332E+000
-0.328068E-001
-0.364398E-001
-0.406417E-001
-0.455476E-001
-0.513148E-001
-0.581399E-001
-0.663075E-001
-0.761095E-001
-0.880883E-001
-0.102442E+000
-0.120190E+000
-0.139904E+000
-0.162321E+000
-0.171432E+000
-0.146761E+000
 0.160517E+000
-0.354069E-001
-0.392728E-001
-0.437582E-001
-0.489850E-001
-0.551075E-001
-0.623591E-001
-0.709628E-001
-0.813868E-001
-0.938199E-001
-0.109194E+000
-0.127108E+000
-0.148727E+000
-0.169908E+000
-0.183766E+000
-0.153039E+000
 0.122711E+000
-0.375175E-001
-0.415686E-001
-0.462600E-001
-0.517056E-001
-0.580860E-001
-0.655785E-001
-0.745378E-001
-0.851776E-001
-0.981259E-001
-0.113604E+000
-0.132129E+000
-0.153767E+000
-0.175084E+000
-0.190596E+000
-0.157338E+000
 0.741580E-001
-0.389088E-001
-0.430666E-001
-0.478568E-001
-0.534110E-001
-0.598701E-001
-0.674879E-001
-0.764750E-001
-0.872411E-001
-0.100159E+000
-0.115571E+000
-0.134118E+000
-0.155092E+000
-0.176735E+000
-0.192006E+000
-0.161621E+000
 0.191836E-001
-0.393236E-001
-0.434768E-001
-0.482456E-001
-0.537375E-001
-0.601305E-001
-0.676056E-001
-0.764430E-001
-0.869745E-001
-0.995098E-001
-0.114567E+000
-0.132392E+000
-0.152588E+000
-0.173996E+000
-0.188842E+000
-0.166233E+000
-0.419635E-001
-0.384906E-001
-0.425129E-001
-0.470967E-001
-0.523658E-001
-0.584619E-001
-0.655845E-001
-0.739866E-001
-0.839356E-001
-0.958096E-001
-0.110002E+000
-0.126712E+000
-0.145925E+000
-0.166619E+000
-0.181965E+000
-0.171854E+000
-0.108225E+000
-0.361683E-001
-0.399029E-001
-0.441379E-001
-0.489780E-001
-0.545667E-001
-0.610881E-001
-0.687535E-001
-0.778397E-001
-0.886818E-001
-0.101617E+000
-0.116955E+000
-0.134948E+000
-0.154868E+000
-0.172402E+000
-0.178930E+000
-0.178286E+000
-0.321741E-001
-0.354636E-001
-0.391642E-001
-0.433800E-001
-0.482430E-001
-0.539116E-001
-0.605862E-001
-0.685190E-001
-0.780131E-001
-0.894243E-001
-0.103209E+000
-0.119868E+000
-0.139454E+000
-0.161179E+000
-0.187687E+000
-0.250490E+000
-0.264567E-001
-0.291368E-001
-0.321321E-001
-0.355391E-001
-0.394740E-001
-0.440804E-001
-0.495389E-001
-0.560807E-001
-0.640064E-001
-0.737359E-001
-0.858876E-001
-0.101340E+000
-0.121392E+000
-0.149264E+000
-0.198079E+000
-0.322902E+000
-0.191390E-001
-0.210672E-001
-0.232108E-001
-0.256578E-001
-0.285107E-001
-0.318958E-001
-0.359770E-001
-0.409778E-001
-0.472247E-001
-0.552260E-001
-0.658124E-001
-0.804123E-001
-0.101877E+000
-0.137505E+000
-0.209786E+000
-0.393361E+000
-0.105747E-001
-0.116442E-001
-0.128374E-001
-0.142312E-001
-0.159125E-001
-0.179922E-001
-0.206243E-001
-0.240403E-001
-0.286107E-001
-0.349604E-001
-0.441961E-001
-0.584275E-001
-0.821801E-001
-0.126594E+000
-0.222230E+000
-0.459574E+000
-0.136003E-002
-0.152243E-002
-0.173415E-002
-0.205598E-002
-0.255889E-002
-0.334145E-002
-0.455601E-002
-0.645307E-002
-0.946265E-002
-0.143512E-001
-0.225485E-001
-0.368980E-001
-0.635498E-001
-0.117045E+000
-0.234634E+000
-0.519225E+000
 0.769460E-002
 0.841174E-002
 0.913171E-002
 0.981427E-002
 0.104042E-001
 0.108112E-001
 0.108787E-001
 0.103295E-001
 0.866521E-002
 0.496561E-002
-0.253018E-002
-0.173668E-001
-0.471338E-001
-0.109199E+000
-0.246098E+000
-0.570093E+000
 0.156530E-001
 0.171361E-001
 0.186522E-001
 0.201839E-001
 0.216898E-001
 0.230844E-001
 0.242035E-001
 0.247416E-001
 0.241324E-001
 0.213119E-001
 0.142236E-001
-0.127012E-002
-0.339140E-001
-0.103245E+000
-0.255705E+000
-0.610191E+000
 0.215929E-001
 0.236443E-001
 0.257422E-001
 0.278894E-001
 0.300549E-001
 0.321558E-001
 0.340198E-001
 0.353174E-001
 0.354280E-001
 0.331762E-001
 0.262847E-001
 0.101887E-001
-0.246604E-001
-0.992648E-001
-0.262633E+000
-0.637894E+000
 0.247708E-001
 0.271252E-001
 0.295304E-001
 0.320009E-001
 0.345117E-001
 0.369803E-001
 0.392301E-001
 0.409173E-001
 0.413913E-001
 0.394160E-001
 0.325962E-001
 0.161443E-001
-0.199000E-001
-0.972759E-001
-0.266263E+000
-0.652044E+000
 0.247708E-001
 0.271252E-001
 0.295304E-001
 0.320009E-001
 0.345117E-001
 0.369803E-001
 0.392301E-001
 0.409173E-001
 0.413913E-001
 0.394160E-001
 0.325962E-001
 0.161443E-001
-0.199000E-001
-0.972759E-001
-0.266263E+000
-0.652044E+000
 0.215929E-001
 0.236443E-001
 0.257422E-001
 0.278894E-001
 0.300549E-001
 0.321558E-001
 0.340198E-001
 0.353174E-001
 0.354280E-001
 0.331762E-001
 0.262847E-001
 0.101887E-001
-0.246604E-001
-0.992648E-001
-0.262633E+000
-0.637894E+000
 0.156530E-001
 0.171361E-001
 0.186522E-001
 0.201839E-001
 0.216898E-001
 0.230844E-001
 0.242035E-001
 0.247416E-001
 0.241324E-001
 0.213119E-001
 0.142236E-001
-0.127012E-002
-0.339140E-001
-0.103245E+000
-0.255705E+000
-0.610191E+000
 0.769460E-002
 0.841174E-002
 0.913171E-002
 0.981427E-002
 0.104042E-001
 0.108112E-001
 0.108787E-001
 0.103295E-001
 0.866521E-002
 0.496561E-002
-0.253018E-002
-0.173668E-001
-0.471338E-001
-0.109199E+000
-0.246098E+000
-0.570093E+000
-0.136003E-002
-0.152243E-002
-0.173415E-002
-0.205598E-002
-0.255889E-002
-0.334145E-002
-0.455601E-002
-0.645307E-002
-0.946265E-002
-0.143512E-001
-0.225485E-001
-0.368980E-001
-0.635498E-001
-0.117045E+000
-0.234634E+000
-0.519225E+000
-0.105747E-001
-0.116442E-001
-0.128374E-001
-0.142312E-001
-0.159125E-001
-0.179922E-001
-0.206243E-001
-0.240403E-001
-0.286107E-001
-0.349604E-001
-0.441961E-001
-0.584275E-001
-0.821801E-001
-0.126594E+000
-0.222230E+000
-0.459574E+000
-0.191390E-001
-0.210672E-001
-0.232108E-001
-0.256578E-001
-0.285107E-001
-0.318958E-001
-0.359770E-001
-0.409778E-001
-0.472247E-001
-0.552260E-001
-0.658124E-001
-0.804123E-001
-0.101877E+000
-0.137505E+000
-0.209786E+000
-0.393361E+000
-0.264567E-001
-0.291368E-001
-0.321321E-001
-0.355391E-001
-0.394740E-001
-0.440804E-001
-0.495389E-001
-0.560807E-001
-0.640064E-001
-0.737359E-001
-0.858876E-001
-0.101340E+000
-0.121392E+000
-0.149264E+000
-0.198079E+000
-0.322902E+000
-0.321741E-001
-0.354636E-001
-0.391642E-001
-0.433800E-001
-0.482430E-001
-0.539116E-001
-0.605862E-001
-0.685190E-001
-0.780131E-001
-0.894243E-001
-0.103209E+000
-0.119868E+000
-0.139454E+000
-0.161179E+000
-0.187687E+000
-0.250490E+000
-0.361683E-001
-0.399029E-001
-0.441379E-001
-0.489780E-001
-0.545667E-001
-0.610881E-001
-0.687535E-001
-0.778397E-001
-0.886818E-001
-0.101617E+000
-0.116955E+000
-0.134948E+000
-0.154868E+000
-0.172402E+000
-0.178930E+000
-0.178286E+000
-0.384906E-001
-0.425129E-001
-0.470967E-001
-0.523658E-001
-0.584619E-001
-0.655845E-001
-0.739866E-001
-0.839356E-001
-0.958096E-001
-0.110002E+000
-0.126712E+000
-0.145925E+000
-0.166619E+000
-0.181965E+000
-0.171854E+000
-0.108225E+000
-0.393236E-001
-0.434768E-001
-0.482456E-001
-0.537375E-001
-0.601305E-001
-0.676056E-001
-0.764430E-001
-0.869745E-001
-0.995098E-001
-0.114567E+000
-0.132392E+000
-0.152588E+000
-0.173996E+000
-0.188842E+000
-0.166233E+000
-0.419635E-001
-0.389088E-001
-0.430666E-001
-0.478568E-001
-0.534110E-001
-0.598701E-001
-0.674879E-001
-0.764750E-001
-0.872411E-001
-0.100159E+000
-0.115571E+000
-0.134118E+000
-0.155092E+000
-0.176735E+000
-0.192006E+000
-0.161621E+000
 0.191836E-001
-0.375175E-001
-0.415686E-001
-0.462600E-001
-0.517056E-001
-0.580860E-001
-0.655785E-001
-0.745378E-001
-0.851776E-001
-0.981259E-001
-0.113604E+000
-0.132129E+000
-0.153767E+000
-0.175084E+000
-0.190596E+000
-0.157338E+000
 0.741580E-001
-0.354069E-001
-0.392728E-001
-0.437582E-001
-0.489850E-001
-0.551075E-001
-0.623591E-001
-0.709628E-001
-0.813868E-001
-0.938199E-001
-0.109194E+000
-0.127108E+000
-0.148727E+000
-0.169908E+000
-0.183766E+000
-0.153039E+000
 0.122711E+000
-0.328068E-001
-0.364398E-001
-0.406417E-001
-0.455476E-001
-0.513148E-001
-0.581399E-001
-0.663075E-001
-0.761095E-001
-0.880883E-001
-0.102442E+000
-0.120190E+000
-0.139904E+000
-0.162321E+000
-0.171432E+000
-0.146761E+000
 0.160517E+000
-0.317948E-001
-0.352718E-001
-0.393076E-001
-0.440193E-001
-0.495532E-001
-0.561026E-001
-0.639128E-001
-0.733102E-001
-0.846477E-001
-0.984140E-001
-0.114735E+000
-0.133678E+000
-0.152227E+000
-0.160410E+000
-0.123211E+000
 0.188332E+000
-0.320236E-001
-0.354287E-001
-0.393704E-001
-0.439519E-001
-0.493079E-001
-0.556122E-001
-0.630819E-001
-0.719903E-001
-0.826165E-001
-0.953084E-001
-0.109903E+000
-0.126434E+000
-0.139541E+000
-0.143420E+000
-0.844726E-001
 0.217105E+000
-0.312866E-001
-0.345164E-001
-0.382337E-001
-0.425296E-001
-0.475234E-001
-0.533521E-001
-0.602189E-001
-0.682580E-001
-0.778337E-001
-0.886878E-001
-0.101430E+000
-0.113382E+000
-0.123137E+000
-0.115801E+000
-0.464601E-001
 0.245755E+000
-0.293174E-001
-0.322353E-001
-0.355689E-001
-0.393960E-001
-0.437984E-001
-0.489125E-001
-0.547977E-001
-0.617198E-001
-0.694771E-001
-0.785125E-001
-0.875931E-001
-0.960946E-001
-0.989191E-001
-0.830643E-001
-0.387216E-002
 0.267004E+000
-0.258249E-001
-0.282695E-001
-0.310379E-001
-0.341737E-001
-0.377563E-001
-0.418076E-001
-0.464776E-001
-0.516391E-001
-0.574908E-001
-0.634786E-001
-0.691450E-001
-0.725007E-001
-0.686247E-001
-0.441648E-001
 0.408641E-001
 0.280716E+000
-0.205259E-001
-0.223208E-001
-0.243130E-001
-0.265380E-001
-0.289940E-001
-0.317427E-001
-0.346961E-001
-0.378945E-001
-0.410491E-001
-0.437957E-001
-0.451867E-001
-0.430019E-001
-0.322573E-001
-0.837240E-004
 0.860610E-001
 0.286882E+000
-0.131908E-001
-0.141420E-001
-0.151530E-001
-0.162034E-001
-0.172978E-001
-0.183587E-001
-0.193435E-001
-0.200513E-001
-0.201850E-001
-0.191680E-001
-0.158396E-001
-0.789201E-002
 0.954470E-002
 0.477794E-001
 0.130092E+000
 0.286056E+000
-0.368880E-002
-0.361503E-002
-0.342514E-002
-0.308908E-002
-0.252787E-002
-0.165837E-002
-0.306290E-003
 0.178365E-002
 0.503300E-002
 0.101604E-001
 0.184300E-001
 0.321110E-001
 0.556290E-001
 0.976826E-001
 0.171618E+000
 0.279101E+000
 0.793201E-002
 0.920367E-002
 0.107670E-001
 0.127048E-001
 0.151187E-001
 0.181728E-001
 0.220967E-001
 0.272326E-001
 0.340967E-001
 0.434938E-001
 0.566965E-001
 0.757972E-001
 0.104351E+000
 0.147765E+000
 0.209573E+000
 0.267181E+000
 0.213943E-001
 0.239847E-001
 0.270618E-001
 0.307330E-001
 0.351547E-001
 0.405375E-001
 0.471749E-001
 0.554757E-001
 0.660206E-001
 0.796410E-001
 0.975376E-001
 0.121451E+000
 0.153722E+000
 0.196164E+000
 0.243183E+000
 0.251689E+000
 0.361225E-001
 0.400982E-001
 0.447457E-001
 0.502111E-001
 0.566879E-001
 0.644348E-001
 0.737939E-001
 0.852219E-001
 0.993287E-001
 0.116923E+000
 0.139051E+000
 0.166951E+000
 0.201555E+000
 0.241120E+000
 0.271963E+000
 0.234186E+000
 0.512425E-001
 0.565829E-001
 0.627710E-001
 0.699826E-001
 0.784474E-001
 0.884601E-001
 0.100399E+000
 0.114747E+000
 0.132115E+000
 0.153245E+000
 0.178966E+000
 0.209928E+000
 0.245623E+000
 0.281052E+000
 0.295689E+000
 0.216305E+000
 0.656161E-001
 0.722095E-001
 0.798025E-001
 0.885993E-001
 0.988568E-001
 0.110897E+000
 0.125120E+000
 0.142020E+000
 0.162183E+000
 0.186261E+000
 0.214835E+000
 0.247960E+000
 0.283810E+000
 0.314612E+000
 0.314348E+000
 0.199654E+000
 0.779638E-001
 0.856015E-001
 0.943608E-001
 0.104468E+000
 0.116199E+000
 0.129895E+000
 0.145968E+000
 0.164907E+000
 0.187269E+000
 0.213608E+000
 0.244267E+000
 0.278784E+000
 0.314247E+000
 0.340717E+000
 0.328075E+000
 0.185701E+000
 0.870422E-001
 0.954307E-001
 0.105025E+000
 0.116068E+000
 0.128848E+000
 0.143715E+000
 0.161087E+000
 0.181447E+000
 0.205319E+000
 0.233178E+000
 0.265184E+000
 0.300493E+000
 0.335423E+000
 0.358560E+000
 0.337066E+000
 0.175663E+000
 0.918581E-001
 0.100639E+000
 0.110670E+000
 0.122199E+000
 0.135524E+000
 0.150998E+000
 0.169040E+000
 0.190128E+000
 0.214768E+000
 0.243388E+000
 0.276051E+000
 0.311708E+000
 0.346283E+000
 0.367612E+000
 0.341506E+000
 0.170417E+000
 0.918581E-001
 0.100639E+000
 0.110670E+000
 0.122199E+000
 0.135524E+000
 0.150998E+000
 0.169040E+000
 0.190128E+000
 0.214768E+000
 0.243388E+000
 0.276051E+000
 0.311708E+000
 0.346283E+000
 0.367612E+000
 0.341506E+000
 0.170417E+000
 0.870422E-001
 0.954307E-001
 0.105025E+000
 0.116068E+000
 0.128848E+000
 0.143715E+000
 0.161087E+000
 0.181447E+000
 0.205319E+000
 0.233178E+000
 0.265184E+000
 0.300493E+000
 0.335423E+000
 0.358560E+000
 0.337066E+000
 0.175663E+000
 0.779638E-001
 0.856015E-001
 0.943608E-001
 0.104468E+000
 0.116199E+000
 0.129895E+000
 0.145968E+000
 0.164907E+000
 0.187269E+000
 0.213608E+000
 0.244267E+000
 0.278784E+000
 0.314247E+000
 0.340717E+000
 0.328075E+000
 0.185701E+000
 0.656161E-001
 0.722095E-001
 0.798025E-001
 0.885993E-001
 0.988568E-001
 0.110897E+000
 0.125120E+000
 0.142020E+000
 0.162183E+000
 0.186261E+000
 0.214835E+000
 0.247960E+000
 0.283810E+000
 0.314612E+000
 0.314348E+000
 0.199654E+000
 0.512425E-001
 0.565829E-001
 0.627710E-001
 0.699826E-001
 0.784474E-001
 0.884601E-001
 0.100399E+000
 0.114747E+000
 0.132115E+000
 0.153245E+000
 0.178966E+000
 0.209928E+000
 0.245623E+000
 0.281052E+000
 0.295689E+000
 0.216305E+000
 0.361225E-001
 0.400982E-001
 0.447457E-001
 0.502111E-001
 0.566879E-001
 0.644348E-001
 0.737939E-001
 0.852219E-001
 0.993287E-001
 0.116923E+000
 0.139051E+000
 0.166951E+000
 0.201555E+000
 0.241120E+000
 0.271963E+000
 0.234186E+000
 0.213943E-001
 0.239847E-001
 0.270618E-001
 0.307330E-001
 0.351547E-001
 0.405375E-001
 0.471749E-001
 0.554757E-001
 0.660206E-001
 0.796410E-001
 0.975376E-001
 0.121451E+000
 0.153722E+000
 0.196164E+000
 0.243183E+000
 0.251689E+000
 0.793201E-002
 0.920367E-002
 0.107670E-001
 0.127048E-001
 0.151187E-001
 0.181728E-001
 0.220967E-001
 0.272326E-001
 0.340967E-001
 0.434938E-001
 0.566965E-001
 0.757972E-001
 0.104351E+000
 0.147765E+000
 0.209573E+000
 0.267181E+000
-0.368880E-002
-0.361503E-002
-0.342514E-002
-0.308908E-002
-0.252787E-002
-0.165837E-002
-0.306290E-003
 0.178365E-002
 0.503300E-002
 0.101604E-001
 0.184300E-001
 0.321110E-001
 0.556290E-001
 0.976826E-001
 0.171618E+000
 0.279101E+000
-0.131908E-001
-0.141420E-001
-0.151530E-001
-0.162034E-001
-0.172978E-001
-0.183587E-001
-0.193435E-001
-0.200513E-001
-0.201850E-001
-0.191680E-001
-0.158396E-001
-0.789201E-002
 0.954470E-002
 0.477794E-001
 0.130092E+000
 0.286056E+000
-0.205259E-001
-0.223208E-001
-0.243130E-001
-0.265380E-001
-0.289940E-001
-0.317427E-001
-0.346961E-001
-0.378945E-001
-0.410491E-001
-0.437957E-001
-0.451867E-001
-0.430019E-001
-0.322573E-001
-0.837240E-004
 0.860610E-001
 0.286882E+000
-0.258249E-001
-0.282695E-001
-0.310379E-001
-0.341737E-001
-0.377563E-001
-0.418076E-001
-0.464776E-001
-0.516391E-001
-0.574908E-001
-0.634786E-001
-0.691450E-001
-0.725007E-001
-0.686247E-001
-0.441648E-001
 0.408641E-001
 0.280716E+000
-0.293174E-001
-0.322353E-001
-0.355689E-001
-0.393960E-001
-0.437984E-001
-0.489125E-001
-0.547977E-001
-0.617198E-001
-0.694771E-001
-0.785125E-001
-0.875931E-001
-0.960946E-001
-0.989191E-001
-0.830643E-001
-0.387216E-002
 0.267004E+000
-0.312866E-001
-0.345164E-001
-0.382337E-001
-0.425296E-001
-0.475234E-001
-0.533521E-001
-0.602189E-001
-0.682580E-001
-0.778337E-001
-0.886878E-001
-0.101430E+000
-0.113382E+000
-0.123137E+000
-0.115801E+000
-0.464601E-001
 0.245755E+000
-0.320236E-001
-0.354287E-001
-0.393704E-001
-0.439519E-001
-0.493079E-001
-0.556122E-001
-0.630819E-001
-0.719903E-001
-0.826165E-001
-0.953084E-001
-0.109903E+000
-0.126434E+000
-0.139541E+000
-0.143420E+000
-0.844726E-001
 0.217105E+000
-0.317948E-001
-0.352718E-001
-0.393076E-001
-0.440193E-001
-0.495532E-001
-0.561026E-001
-0.639128E-001
-0.733102E-001
-0.846477E-001
-0.984140E-001
-0.114735E+000
-0.133678E+000
-0.152227E+000
-0.160410E+000
-0.123211E+000
 0.188332E+000
-0.328068E-001
-0.364398E-001
-0.406417E-001
-0.455476E-001
-0.513148E-001
-0.581399E-001
-0.663075E-001
-0.761095E-001
-0.880883E-001
-0.102442E+000
-0.120190E+000
-0.139904E+000
-0.162321E+000
-0.171432E+000
-0.146761E+000
 0.160517E+000
-0.354069E-001
-0.392728E-001
-0.437582E-001
-0.489850E-001
-0.551075E-001
-0.623591E-001
-0.709628E-001
-0.813868E-001
-0.938199E-001
-0.109194E+000
-0.127108E+000
-0.148727E+000
-0.169908E+000
-0.183766E+000
-0.153039E+000
 0.122711E+000
-0.375175E-001
-0.415686E-001
-0.462600E-001
-0.517056E-001
-0.580860E-001
-0.655785E-001
-0.745378E-001
-0.851776E-001
-0.981259E-001
-0.113604E+000
-0.132129E+000
-0.153767E+000
-0.175084E+000
-0.190596E+000
-0.157338E+000
 0.741580E-001
-0.389088E-001
-0.430666E-001
-0.478568E-001
-0.534110E-001
-0.598701E-001
-0.674879E-001
-0.764750E-001
-0.872411E-001
-0.100159E+000
-0.115571E+000
-0.134118E+000
-0.155092E+000
-0.176735E+000
-0.192006E+000
-0.161621E+000
 0.191836E-001
-0.393236E-001
-0.434768E-001
-0.482456E-001
-0.537375E-001
-0.601305E-001
-0.676056E-001
-0.764430E-001
-0.869745E-001
-0.995098E-001
-0.114567E+000
-0.132392E+000
-0.152588E+000
-0.173996E+000
-0.188842E+000
-0.166233E+000
-0.419635E-001
-0.384906E-001
-0.425129E-001
-0.470967E-001
-0.523658E-001
-0.584619E-001
-0.655845E-001
-0.739866E-001
-0.839356E-001
-0.958096E-001
-0.110002E+000
-0.126712E+000
-0.145925E+000
-0.166619E+000
-0.181965E+000
-0.171854E+000
-0.108225E+000
-0.361683E-001
-0.399029E-001
-0.441379E-001
-0.489780E-001
-0.545667E-001
-0.610881E-001
-0.687535E-001
-0.778397E-001
-0.886818E-001
-0.101617E+000
-0.116955E+000
-0.134948E+000
-0.154868E+000
-0.172402E+000
-0.178930E+000
-0.178286E+000
-0.321741E-001
-0.354636E-001
-0.391642E-001
-0.433800E-001
-0.482430E-001
-0.539116E-001
-0.605862E-001
-0.685190E-001
-0.780131E-001
-0.894243E-001
-0.103209E+000
-0.119868E+000
-0.139454E+000
-0.161179E+000
-0.187687E+000
-0.250490E+000
-0.264567E-001
-0.291368E-001
-0.321321E-001
-0.355391E-001
-0.394740E-001
-0.440804E-001
-0.495389E-001
-0.560807E-001
-0.640064E-001
-0.737359E-001
-0.858876E-001
-0.101340E+000
-0.121392E+000
-0.149264E+000
-0.198079E+000
-0.322902E+000
-0.191390E-001
-0.210672E-001
-0.232108E-001
-0.256578E-001
-0.285107E-001
-0.318958E-001
-0.359770E-001
-0.409778E-001
-0.472247E-001
-0.552260E-001
-0.658124E-001
-0.804123E-001
-0.101877E+000
-0.137505E+000
-0.209786E+000
-0.393361E+000
-0.105747E-001
-0.116442E-001
-0.128374E-001
-0.142312E-001
-0.159125E-001
-0.179922E-001
-0.206243E-001
-0.240403E-001
-0.286107E-001
-0.349604E-001
-0.441961E-001
-0.584275E-001
-0.821801E-001
-0.126594E+000
-0.222230E+000
-0.459574E+000
-0.136003E-002
-0.152243E-002
-0.173415E-002
-0.205598E-002
-0.255889E-002
-0.334145E-002
-0.455601E-002
-0.645307E-002
-0.946265E-002
-0.143512E-001
-0.225485E-001
-0.368980E-001
-0.635498E-001
-0.117045E+000
-0.234634E+000
-0.519225E+000
 0.769460E-002
 0.841174E-002
 0.913171E-002
 0.981427E-002
 0.104042E-001
 0.108112E-001
 0.108787E-001
 0.103295E-001
 0.866521E-002
 0.496561E-002
-0.253018E-002
-0.173668E-001
-0.471338E-001
-0.109199E+000
-0.246098E+000
-0.570093E+000
 0.156530E-001
 0.171361E-001
 0.186522E-001
 0.201839E-001
 0.216898E-001
 0.230844E-001
 0.242035E-001
 0.247416E-001
 0.241324E-001
 0.213119E-001
 0.142236E-001
-0.127012E-002
-0.339140E-001
-0.103245E+000
-0.255705E+000
-0.610191E+000
 0.215929E-001
 0.236443E-001
 0.257422E-001
 0.278894E-001
 0.300549E-001
 0.321558E-001
 0.340198E-001
 0.353174E-001
 0.354280E-001
 0.331762E-001
 0.262847E-001
 0.101887E-001
-0.246604E-001
-0.992648E-001
-0.262633E+000
-0.637894E+000
 0.247708E-001
 0.271252E-001
 0.295304E-001
 0.320009E-001
 0.345117E-001
 0.369803E-001
 0.392301E-001
 0.409173E-001
 0.413913E-001
 0.394160E-001
 0.325962E-001
 0.161443E-001
-0.199000E-001
-0.972759E-001
-0.266263E+000
-0.652044E+000
 0.247708E-001
 0.271252E-001
 0.295304E-001
 0.320009E-001
 0.345117E-001
 0.369803E-001
 0.392301E-001
 0.409173E-001
 0.413913E-001
 0.394160E-001
 0.325962E-001
 0.161443E-001
-0.199000E-001
-0.972759E-001
-0.266263E+000
-0.652044E+000
 0.215929E-001
 0.236443E-001
 0.257422E-001
 0.278894E-001
 0.300549E-001
 0.321558E-001
 0.340198E-001
 0.353174E-001
 0.354280E-001
 0.331762E-001
 0.262847E-001
 0.101887E-001
-0.246604E-001
-0.992648E-001
-0.262633E+000
-0.637894E+000
 0.156530E-001
 0.171361E-001
 0.186522E-001
 0.201839E-001
 0.216898E-001
 0.230844E-001
 0.242035E-001
 0.247416E-001
 0.241324E-001
 0.213119E-001
 0.142236E-001
-0.127012E-002
-0.339140E-001
-0.103245E+000
-0.255705E+000
-0.610191E+000
 0.769460E-002
 0.841174E-002
 0.913171E-002
 0.981427E-002
 0.104042E-001
 0.108112E-001
 0.108787E-001
 0.103295E-001
 0.866521E-002
 0.496561E-002
-0.253018E-002
-0.173668E-001
-0.471338E-001
-0.109199E+000
-0.246098E+000
-0.570093E+000
-0.136003E-002
-0.152243E-002
-0.173415E-002
-0.205598E-002
-0.255889E-002
-0.334145E-002
-0.455601E-002
-0.645307E-002
-0.946265E-002
-0.143512E-001
-0.225485E-001
-0.368980E-001
-0.635498E-001
-0.117045E+000
-0.234634E+000
-0.519225E+000
-0.105747E-001
-0.116442E-001
-0.128374E-001
-0.142312E-001
-0.159125E-001
-0.179922E-001
-0.206243E-001
-0.240403E-001
-0.286107E-001
-0.349604E-001
-0.441961E-001
-0.584275E-001
-0.821801E-001
-0.126594E+000
-0.222230E+000
-0.459574E+000
-0.191390E-001
-0.210672E-001
-0.232108E-001
-0.256578E-001
-0.285107E-001
-0.318958E-001
-0.359770E-001
-0.409778E-001
-0.472247E-001
-0.552260E-001
-0.658124E-001
-0.804123E-001
-0.101877E+000
-0.137505E+000
-0.209786E+000
-0.393361E+000
-0.264567E-001
-0.291368E-001
-0.321321E-001
-0.355391E-001
-0.394740E-001
-0.440804E-001
-0.495389E-001
-0.560807E-001
-0.640064E-001
-0.737359E-001
-0.858876E-001
-0.101340E+000
-0.121392E+000
-0.149264E+000
-0.198079E+000
-0.322902E+000
-0.321741E-001
-0.354636E-001
-0.391642E-001
-0.433800E-001
-0.482430E-001
-0.539116E-001
-0.605862E-001
-0.685190E-001
-0.780131E-001
-0.894243E-001
-0.103209E+000
-0.119868E+000
-0.139454E+000
-0.161179E+000
-0.187687E+000
-0.250490E+000
-0.361683E-001
-0.399029E-001
-0.441379E-001
-0.489780E-001
-0.545667E-001
-0.610881E-001
-0.687535E-001
-0.778397E-001
-0.886818E-001
-0.101617E+000
-0.116955E+000
-0.134948E+000
-0.154868E+000
-0.172402E+000
-0.178930E+000
-0.178286E+000
-0.384906E-001
-0.425129E-001
-0.470967E-001
-0.523658E-001
-0.584619E-001
-0.655845E-001
-0.739866E-001
-0.839356E-001
-0.958096E-001
-0.110002E+000
-0.126712E+000
-0.145925E+000
-0.166619E+000
-0.181965E+000
-0.171854E+000
-0.108225E+000
-0.393236E-001
-0.434768E-001
-0.482456E-001
-0.537375E-001
-0.601305E-001
-0.676056E-001
-0.764430E-001
-0.869745E-001
-0.995098E-001
-0.114567E+000
-0.132392E+000
-0.152588E+000
-0.173996E+000
-0.188842E+000
-0.166233E+000
-0.419635E-001
-0.389088E-001
-0.430666E-001
-0.478568E-001
-0.534110E-001
-0.598701E-001
-0.674879E-001
-0.764750E-001
-0.872411E-001
-0.100159E+000
-0.115571E+000
-0.134118E+000
-0.155092E+000
-0.176735E+000
-0.192006E+000
-0.161621E+000
 0.191836E-001
-0.375175E-001
-0.415686E-001
-0.462600E-001
-0.517056E-001
-0.580860E-001
-0.655785E-001
-0.745378E-001
-0.851776E-001
-0.981259E-001
-0.113604E+000
-0.132129E+000
-0.153767E+000
-0.175084E+000
-0.190596E+000
-0.157338E+000
 0.741580E-001
-0.354069E-001
-0.392728E-001
-0.437582E-001
-0.489850E-001
-0.551075E-001
-0.623591E-001
-0.709628E-001
-0.813868E-001
-0.938199E-001
-0.109194E+000
-0.127108E+000
-0.148727E+000
-0.169908E+000
-0.183766E+000
-0.153039E+000
 0.122711E+000
-0.328068E-001
-0.364398E-001
-0.406417E-001
-0.455476E-001
-0.513148E-001
-0.581399E-001
-0.663075E-001
-0.761095E-001
-0.880883E-001
-0.102442E+000
-0.120190E+000
-0.139904E+000
-0.162321E+000
-0.171432E+000
-0.146761E+000
 0.160517E+000
SCALARS stress_33 FLOAT     1
LOOKUP_TABLE default
 0.300567E+000
 0.300597E+000
 0.300661E+000
 0.300750E+000
 0.300868E+000
 0.301021E+000
 0.301220E+000
 0.301482E+000
 0.301821E+000
 0.302296E+000
 0.302919E+000
 0.303871E+000
 0.305232E+000
 0.307450E+000
 0.311447E+000
 0.320630E+000
 0.302006E+000
 0.302231E+000
 0.302515E+000
 0.302866E+000
 0.303302E+000
 0.303841E+000
 0.304530E+000
 0.305390E+000
 0.306562E+000
 0.308027E+000
 0.310240E+000
 0.313055E+000
 0.317879E+000
 0.324489E+000
 0.338163E+000
 0.362306E+000
 0.303726E+000
 0.304170E+000
 0.304707E+000
 0.305359E+000
 0.306153E+000
 0.307142E+000
 0.308356E+000
 0.309951E+000
 0.311924E+000
 0.314721E+000
 0.318276E+000
 0.323734E+000
 0.331285E+000
 0.343939E+000
 0.365014E+000
 0.407376E+000
 0.305748E+000
 0.306439E+000
 0.307265E+000
 0.308254E+000
 0.309462E+000
 0.310927E+000
 0.312787E+000
 0.315080E+000
 0.318145E+000
 0.322060E+000
 0.327563E+000
 0.335157E+000
 0.346464E+000
 0.364192E+000
 0.393905E+000
 0.452132E+000
 0.308091E+000
 0.309059E+000
 0.310204E+000
 0.311577E+000
 0.313224E+000
 0.315258E+000
 0.317749E+000
 0.320939E+000
 0.324988E+000
 0.330375E+000
 0.337637E+000
 0.347804E+000
 0.362714E+000
 0.385697E+000
 0.423952E+000
 0.496160E+000
 0.310760E+000
 0.312031E+000
 0.313533E+000
 0.315314E+000
 0.317467E+000
 0.320074E+000
 0.323319E+000
 0.327377E+000
 0.332593E+000
 0.339427E+000
 0.348618E+000
 0.361410E+000
 0.379951E+000
 0.408197E+000
 0.454611E+000
 0.538890E+000
 0.313743E+000
 0.315346E+000
 0.317226E+000
 0.319459E+000
 0.322131E+000
 0.325385E+000
 0.329389E+000
 0.334408E+000
 0.340815E+000
 0.349169E+000
 0.360348E+000
 0.375791E+000
 0.397944E+000
 0.431342E+000
 0.485274E+000
 0.579845E+000
 0.317008E+000
 0.318959E+000
 0.321244E+000
 0.323943E+000
 0.327175E+000
 0.331088E+000
 0.335899E+000
 0.341904E+000
 0.349536E+000
 0.359441E+000
 0.372621E+000
 0.390688E+000
 0.416371E+000
 0.454658E+000
 0.515342E+000
 0.618536E+000
 0.320492E+000
 0.322803E+000
 0.325499E+000
 0.328683E+000
 0.332482E+000
 0.337075E+000
 0.342702E+000
 0.349703E+000
 0.358565E+000
 0.370013E+000
 0.385157E+000
 0.405765E+000
 0.434810E+000
 0.477601E+000
 0.544198E+000
 0.654478E+000
 0.324101E+000
 0.326768E+000
 0.329878E+000
 0.333541E+000
 0.337906E+000
 0.343171E+000
 0.349605E+000
 0.357584E+000
 0.367646E+000
 0.380584E+000
 0.397603E+000
 0.420607E+000
 0.452756E+000
 0.499573E+000
 0.571220E+000
 0.687196E+000
 0.327702E+000
 0.330711E+000
 0.334216E+000
 0.338342E+000
 0.343250E+000
 0.349159E+000
 0.356363E+000
 0.365270E+000
 0.376462E+000
 0.390791E+000
 0.409543E+000
 0.434730E+000
 0.469649E+000
 0.519951E+000
 0.595794E+000
 0.716232E+000
 0.331134E+000
 0.334454E+000
 0.338321E+000
 0.342872E+000
 0.348280E+000
 0.354780E+000
 0.362687E+000
 0.372437E+000
 0.384649E+000
 0.400224E+000
 0.420512E+000
 0.447609E+000
 0.484904E+000
 0.538114E+000
 0.617334E+000
 0.741163E+000
 0.334210E+000
 0.337796E+000
 0.341977E+000
 0.346896E+000
 0.352738E+000
 0.359750E+000
 0.368263E+000
 0.378738E+000
 0.391822E+000
 0.408454E+000
 0.430033E+000
 0.458714E+000
 0.497946E+000
 0.553472E+000
 0.635298E+000
 0.761606E+000
 0.336737E+000
 0.340532E+000
 0.344963E+000
 0.350176E+000
 0.356365E+000
 0.363785E+000
 0.372782E+000
 0.383831E+000
 0.397603E+000
 0.415064E+000
 0.437648E+000
 0.467549E+000
 0.508250E+000
 0.565502E+000
 0.649218E+000
 0.777239E+000
 0.338537E+000
 0.342476E+000
 0.347081E+000
 0.352500E+000
 0.358931E+000
 0.366636E+000
 0.375969E+000
 0.387417E+000
 0.401664E+000
 0.419696E+000
 0.442967E+000
 0.473695E+000
 0.515382E+000
 0.573776E+000
 0.658718E+000
 0.787808E+000
 0.339475E+000
 0.343487E+000
 0.348181E+000
 0.353706E+000
 0.360262E+000
 0.368113E+000
 0.377618E+000
 0.389270E+000
 0.403760E+000
 0.422082E+000
 0.445702E+000
 0.476848E+000
 0.519030E+000
 0.577991E+000
 0.663536E+000
 0.793138E+000
 0.339475E+000
 0.343487E+000
 0.348181E+000
 0.353706E+000
 0.360262E+000
 0.368113E+000
 0.377618E+000
 0.389270E+000
 0.403760E+000
 0.422082E+000
 0.445702E+000
 0.476848E+000
 0.519030E+000
 0.577991E+000
 0.663536E+000
 0.793138E+000
 0.338537E+000
 0.342476E+000
 0.347081E+000
 0.352500E+000
 0.358931E+000
 0.366636E+000
 0.375969E+000
 0.387417E+000
 0.401664E+000
 0.419696E+000
 0.442967E+000
 0.473695E+000
 0.515382E+000
 0.573776E+000
 0.658718E+000
 0.787808E+000
 0.336737E+000
 0.340532E+000
 0.344963E+000
 0.350176E+000
 0.356365E+000
 0.363785E+000
 0.372782E+000
 0.383831E+000
 0.397603E+000
 0.415064E+000
 0.437648E+000
 0.467549E+000
 0.508250E+000
 0.565502E+000
 0.649218E+000
 0.777239E+000
 0.334210E+000
 0.337796E+000
 0.341977E+000
 0.346896E+000
 0.352738E+000
 0.359750E+000
 0.368263E+000
 0.378738E+000
 0.391822E+000
 0.408454E+000
 0.430033E+000
 0.458714E+000
 0.497946E+000
 0.553472E+000
 0.635298E+000
 0.761606E+000
 0.331134E+000
 0.334454E+000
 0.338321E+000
 0.342872E+000
 0.348280E+000
 0.354780E+000
 0.362687E+000
 0.372437E+000
 0.384649E+000
 0.400224E+000
 0.420512E+000
 0.447609E+000
 0.484904E+000
 0.538114E+000
 0.617334E+000
 0.741163E+000
 0.327702E+000
 0.330711E+000
 0.334216E+000
 0.338342E+000
 0.343250E+000
 0.349159E+000
 0.356363E+000
 0.365270E+000
 0.376462E+000
 0.390791E+000
 0.409543E+000
 0.434730E+000
 0.469649E+000
 0.519951E+000
 0.595794E+000
 0.716232E+000
 0.324101E+000
 0.326768E+000
 0.329878E+000
 0.333541E+000
 0.337906E+000
 0.343171E+000
 0.349605E+000
 0.357584E+000
 0.367646E+000
 0.380584E+000
 0.397603E+000
 0.420607E+000
 0.452756E+000
 0.499573E+000
 0.571220E+000
 0.687196E+000
 0.320492E+000
 0.322803E+000
 0.325499E+000
 0.328683E+000
 0.332482E+000
 0.337075E+000
 0.342702E+000
 0.349703E+000
 0.358565E+000
 0.370013E+000
 0.385157E+000
 0.405765E+000
 0.434810E+000
 0.477601E+000
 0.544198E+000
 0.654478E+000
 0.317008E+000
 0.318959E+000
 0.321244E+000
 0.323943E+000
 0.327175E+000
 0.331088E+000
 0.335899E+000
 0.341904E+000
 0.349536E+000
 0.359441E+000
 0.372621E+000
 0.390688E+000
 0.416371E+000
 0.454658E+000
 0.515342E+000
 0.618536E+000
 0.313743E+000
 0.315346E+000
 0.317226E+000
 0.319459E+000
 0.322131E+000
 0.325385E+000
 0.329389E+000
 0.334408E+000
 0.340815E+000
 0.349169E+000
 0.360348E+000
 0.375791E+000
 0.397944E+000
 0.431342E+000
 0.485274E+000
 0.579845E+000
 0.310760E+000
 0.312031E+000
 0.313533E+000
 0.315314E+000
 0.317467E+000
 0.320074E+000
 0.323319E+000
 0.327377E+000
 0.332593E+000
 0.339427E+000
 0.348618E+000
 0.361410E+000
 0.379951E+000
 0.408197E+000
 0.454611E+000
 0.538890E+000
 0.308091E+000
 0.309059E+000
 0.310204E+000
 0.311577E+000
 0.313224E+000
 0.315258E+000
 0.317749E+000
 0.320939E+000
 0.324988E+000
 0.330375E+000
 0.337637E+000
 0.347804E+000
 0.362714E+000
 0.385697E+000
 0.423952E+000
 0.496160E+000
 0.305748E+000
 0.306439E+000
 0.307265E+000
 0.308254E+000
 0.309462E+000
 0.310927E+000
 0.312787E+000
 0.315080E+000
 0.318145E+000
 0.322060E+000
 0.327563E+000
 0.335157E+000
 0.346464E+000
 0.364192E+000
 0.393905E+000
 0.452132E+000
 0.303726E+000
 0.304170E+000
 0.304707E+000
 0.305359E+000
 0.306153E+000
 0.307142E+000
 0.308356E+000
 0.309951E+000
 0.311924E+000
 0.314721E+000
 0.318276E+000
 0.323734E+000
 0.331285E+000
 0.343939E+000
 0.365014E+000
 0.407376E+000
 0.302006E+000
 0.302231E+000
 0.302515E+000
 0.302866E+000
 0.303302E+000
 0.303841E+000
 0.304530E+000
 0.305390E+000
 0.306562E+000
 0.308027E+000
 0.310240E+000
 0.313055E+000
 0.317879E+000
 0.324489E+000
 0.338163E+000
 0.362306E+000
 0.300567E+000
 0.300597E+000
 0.300661E+000
 0.300750E+000
 0.300868E+000
 0.301021E+000
 0.301220E+000
 0.301482E+000
 0.301821E+000
 0.302296E+000
 0.302919E+000
 0.303871E+000
 0.305232E+000
 0.307450E+000
 0.311447E+000
 0.320630E+000
 0.299268E+000
 0.299144E+000
 0.299017E+000
 0.298876E+000
 0.298714E+000
 0.298525E+000
 0.298292E+000
 0.298014E+000
 0.297632E+000
 0.297182E+000
 0.296438E+000
 0.295606E+000
 0.293824E+000
 0.291970E+000
 0.286268E+000
 0.280873E+000
 0.297756E+000
 0.297468E+000
 0.297132E+000
 0.296735E+000
 0.296263E+000
 0.295683E+000
 0.294982E+000
 0.294062E+000
 0.292941E+000
 0.291313E+000
 0.289308E+000
 0.286039E+000
 0.281690E+000
 0.273997E+000
 0.260948E+000
 0.236413E+000
 0.295983E+000
 0.295491E+000
 0.294909E+000
 0.294219E+000
 0.293384E+000
 0.292379E+000
 0.291107E+000
 0.289550E+000
 0.287448E+000
 0.284784E+000
 0.280979E+000
 0.275669E+000
 0.267850E+000
 0.254805E+000
 0.234047E+000
 0.189720E+000
 0.293916E+000
 0.293184E+000
 0.292322E+000
 0.291293E+000
 0.290064E+000
 0.288550E+000
 0.286703E+000
 0.284330E+000
 0.281314E+000
 0.277296E+000
 0.271781E+000
 0.264143E+000
 0.252568E+000
 0.234671E+000
 0.204776E+000
 0.144041E+000
 0.291533E+000
 0.290530E+000
 0.289348E+000
 0.287949E+000
 0.286262E+000
 0.284222E+000
 0.281683E+000
 0.278497E+000
 0.274405E+000
 0.268976E+000
 0.261687E+000
 0.251405E+000
 0.236291E+000
 0.213140E+000
 0.174309E+000
 0.994206E-001
 0.288826E+000
 0.287519E+000
 0.285990E+000
 0.284175E+000
 0.282006E+000
 0.279365E+000
 0.276108E+000
 0.272024E+000
 0.266773E+000
 0.259907E+000
 0.250657E+000
 0.237737E+000
 0.219021E+000
 0.190519E+000
 0.143264E+000
 0.562974E-001
 0.285801E+000
 0.284169E+000
 0.282259E+000
 0.280004E+000
 0.277306E+000
 0.274034E+000
 0.270010E+000
 0.264964E+000
 0.258527E+000
 0.250132E+000
 0.238875E+000
 0.223305E+000
 0.200967E+000
 0.167208E+000
 0.112269E+000
 0.150768E-001
 0.282495E+000
 0.280515E+000
 0.278207E+000
 0.275485E+000
 0.272234E+000
 0.268302E+000
 0.263471E+000
 0.257441E+000
 0.249776E+000
 0.239819E+000
 0.226553E+000
 0.208353E+000
 0.182452E+000
 0.143712E+000
 0.819282E-001
-0.237966E-001
 0.278963E+000
 0.276630E+000
 0.273912E+000
 0.270711E+000
 0.266896E+000
 0.262286E+000
 0.256639E+000
 0.249612E+000
 0.240712E+000
 0.229205E+000
 0.213968E+000
 0.193212E+000
 0.163910E+000
 0.120595E+000
 0.528529E-001
-0.598669E-001
 0.275305E+000
 0.272619E+000
 0.269495E+000
 0.265819E+000
 0.261440E+000
 0.256160E+000
 0.249706E+000
 0.241699E+000
 0.231595E+000
 0.218591E+000
 0.201470E+000
 0.178299E+000
 0.145856E+000
 0.984656E-001
 0.256569E-001
-0.926759E-001
 0.271650E+000
 0.268631E+000
 0.265117E+000
 0.260984E+000
 0.256065E+000
 0.250142E+000
 0.242919E+000
 0.233982E+000
 0.222743E+000
 0.208342E+000
 0.189477E+000
 0.164103E+000
 0.128859E+000
 0.779524E-001
 0.946690E-003
-0.121779E+000
 0.268164E+000
 0.264843E+000
 0.260975E+000
 0.256422E+000
 0.251006E+000
 0.244494E+000
 0.236567E+000
 0.226785E+000
 0.214521E+000
 0.198867E+000
 0.178455E+000
 0.151155E+000
 0.113512E+000
 0.596784E-001
-0.206964E-001
-0.146758E+000
 0.265037E+000
 0.261460E+000
 0.257286E+000
 0.252369E+000
 0.246523E+000
 0.239500E+000
 0.230966E+000
 0.220457E+000
 0.207318E+000
 0.190601E+000
 0.168887E+000
 0.139988E+000
 0.100393E+000
 0.442329E-001
-0.387376E-001
-0.167237E+000
 0.262466E+000
 0.258690E+000
 0.254272E+000
 0.249065E+000
 0.242875E+000
 0.235445E+000
 0.226427E+000
 0.215341E+000
 0.201511E+000
 0.183959E+000
 0.161233E+000
 0.131105E+000
 0.900292E-001
 0.321391E-001
-0.527119E-001
-0.182895E+000
 0.260632E+000
 0.256720E+000
 0.252134E+000
 0.246724E+000
 0.240294E+000
 0.232580E+000
 0.223225E+000
 0.211740E+000
 0.197432E+000
 0.179306E+000
 0.155887E+000
 0.124925E+000
 0.828572E-001
 0.238234E-001
-0.622465E-001
-0.193480E+000
 0.259677E+000
 0.255696E+000
 0.251024E+000
 0.245510E+000
 0.238956E+000
 0.231096E+000
 0.221569E+000
 0.209879E+000
 0.195326E+000
 0.176908E+000
 0.153138E+000
 0.121755E+000
 0.791895E-001
 0.195874E-001
-0.670810E-001
-0.198817E+000
 0.259677E+000
 0.255696E+000
 0.251024E+000
 0.245510E+000
 0.238956E+000
 0.231096E+000
 0.221569E+000
 0.209879E+000
 0.195326E+000
 0.176908E+000
 0.153138E+000
 0.121755E+000
 0.791895E-001
 0.195874E-001
-0.670810E-001
-0.198817E+000
 0.260632E+000
 0.256720E+000
 0.252134E+000
 0.246724E+000
 0.240294E+000
 0.232580E+000
 0.223225E+000
 0.211740E+000
 0.197432E+000
 0.179306E+000
 0.155887E+000
 0.124925E+000
 0.828572E-001
 0.238234E-001
-0.622465E-001
-0.193480E+000
 0.262466E+000
 0.258690E+000
 0.254272E+000
 0.249065E+000
 0.242875E+000
 0.235445E+000
 0.226427E+000
 0.215341E+000
 0.201511E+000
 0.183959E+000
 0.161233E+000
 0.131105E+000
 0.900292E-001
 0.321391E-001
-0.527119E-001
-0.182895E+000
 0.265037E+000
 0.261460E+000
 0.257286E+000
 0.252369E+000
 0.246523E+000
 0.239500E+000
 0.230966E+000
 0.220457E+000
 0.207318E+000
 0.190601E+000
 0.168887E+000
 0.139988E+000
 0.100393E+000
 0.442329E-001
-0.387376E-001
-0.167237E+000
 0.268164E+000
 0.264843E+000
 0.260975E+000
 0.256422E+000
 0.251006E+000
 0.244494E+000
 0.236567E+000
 0.226785E+000
 0.214521E+000
 0.198867E+000
 0.178455E+000
 0.151155E+000
 0.113512E+000
 0.596784E-001
-0.206964E-001
-0.146758E+000
 0.271650E+000
 0.268631E+000
 0.265117E+000
 0.260984E+000
 0.256065E+000
 0.250142E+000
 0.242919E+000
 0.233982E+000
 0.222743E+000
 0.208342E+000
 0.189477E+000
 0.164103E+000
 0.128859E+000
 0.779524E-001
 0.946690E-003
-0.121779E+000
 0.275305E+000
 0.272619E+000
 0.269495E+000
 0.265819E+000
 0.261440E+000
 0.256160E+000
 0.249706E+000
 0.241699E+000
 0.231595E+000
 0.218591E+000
 0.201470E+000
 0.178299E+000
 0.145856E+000
 0.984656E-001
 0.256569E-001
-0.926759E-001
 0.278963E+000
 0.276630E+000
 0.273912E+000
 0.270711E+000
 0.266896E+000
 0.262286E+000
 0.256639E+000
 0.249612E+000
 0.240712E+000
 0.229205E+000
 0.213968E+000
 0.193212E+000
 0.163910E+000
 0.120595E+000
 0.528529E-001
-0.598669E-001
 0.282495E+000
 0.280515E+000
 0.278207E+000
 0.275485E+000
 0.272234E+000
 0.268302E+000
 0.263471E+000
 0.257441E+000
 0.249776E+000
 0.239819E+000
 0.226553E+000
 0.208353E+000
 0.182452E+000
 0.143712E+000
 0.819282E-001
-0.237966E-001
 0.285801E+000
 0.284169E+000
 0.282259E+000
 0.280004E+000
 0.277306E+000
 0.274034E+000
 0.270010E+000
 0.264964E+000
 0.258527E+000
 0.250132E+000
 0.238875E+000
 0.223305E+000
 0.200967E+000
 0.167208E+000
 0.112269E+000
 0.150768E-001
 0.288826E+000
 0.287519E+000
 0.285990E+000
 0.284175E+000
 0.282006E+000
 0.279365E+000
 0.276108E+000
 0.272024E+000
 0.266773E+000
 0.259907E+000
 0.250657E+000
 0.237737E+000
 0.219021E+000
 0.190519E+000
 0.143264E+000
 0.562974E-001
 0.291533E+000
 0.290530E+000
 0.289348E+000
 0.287949E+000
 0.286262E+000
 0.284222E+000
 0.281683E+000
 0.278497E+000
 0.274405E+000
 0.268976E+000
 0.261687E+000
 0.251405E+000
 0.236291E+000
 0.213140E+000
 0.174309E+000
 0.994206E-001
 0.293916E+000
 0.293184E+000
 0.292322E+000
 0.291293E+000
 0.290064E+000
 0.288550E+000
 0.286703E+000
 0.284330E+000
 0.281314E+000
 0.277296E+000
 0.271781E+000
 0.264143E+000
 0.252568E+000
 0.234671E+000
 0.204776E+000
 0.144041E+000
 0.295983E+000
 0.295491E+000
 0.294909E+000
 0.294219E+000
 0.293384E+000
 0.292379E+000
 0.291107E+000
 0.289550E+000
 0.287448E+000
 0.284784E+000
 0.280979E+000
 0.275669E+000
 0.267850E+000
 0.254805E+000
 0.234047E+000
 0.189720E+000
 0.297756E+000
 0.297468E+000
 0.297132E+000
 0.296735E+000
 0.296263E+000
 0.295683E+000
 0.294982E+000
 0.294062E+000
 0.292941E+000
 0.291313E+000
 0.289308E+000
 0.286039E+000
 0.281690E+000
 0.273997E+000
 0.260948E+000
 0.236413E+000
 0.299268E+000
 0.299144E+000
 0.299017E+000
 0.298876E+000
 0.298714E+000
 0.298525E+000
 0.298292E+000
 0.298014E+000
 0.297632E+000
 0.297182E+000
 0.296438E+000
 0.295606E+000
 0.293824E+000
 0.291970E+000
 0.286268E+000
 0.280873E+000
 0.300567E+000
 0.300597E+000
 0.300661E+000
 0.300750E+000
 0.300868E+000
 0.301021E+000
 0.301220E+000
 0.301482E+000
 0.301821E+000
 0.302296E+000
 0.302919E+000
 0.303871E+000
 0.305232E+000
 0.307450E+000
 0.311447E+000
 0.320630E+000
 0.302006E+000
 0.302231E+000
 0.302515E+000
 0.302866E+000
 0.303302E+000
 0.303841E+000
 0.304530E+000
 0.305390E+000
 0.306562E+000
 0.308027E+000
 0.310240E+000
 0.313055E+000
 0.317879E+000
 0.324489E+000
 0.338163E+000
 0.362306E+000
 0.303726E+000
 0.304170E+000
 0.304707E+000
 0.305359E+000
 0.306153E+000
 0.307142E+000
 0.308356E+000
 0.309951E+000
 0.311924E+000
 0.314721E+000
 0.318276E+000
 0.323734E+000
 0.331285E+000
 0.343939E+000
 0.365014E+000
 0.407376E+000
 0.305748E+000
 0.306439E+000
 0.307265E+000
 0.308254E+000
 0.309462E+000
 0.310927E+000
 0.312787E+000
 0.315080E+000
 0.318145E+000
 0.322060E+000
 0.327563E+000
 0.335157E+000
 0.346464E+000
 0.364192E+000
 0.393905E+000
 0.452132E+000
 0.308091E+000
 0.309059E+000
 0.310204E+000
 0.311577E+000
 0.313224E+000
 0.315258E+000
 0.317749E+000
 0.320939E+000
 0.324988E+000
 0.330375E+000
 0.337637E+000
 0.347804E+000
 0.362714E+000
 0.385697E+000
 0.423952E+000
 0.496160E+000
 0.310760E+000
 0.312031E+000
 0.313533E+000
 0.315314E+000
 0.317467E+000
 0.320074E+000
 0.323319E+000
 0.327377E+000
 0.332593E+000
 0.339427E+000
 0.348618E+000
 0.361410E+000
 0.379951E+000
 0.408197E+000
 0.454611E+000
 0.538890E+000
 0.313743E+000
 0.315346E+000
 0.317226E+000
 0.319459E+000
 0.322131E+000
 0.325385E+000
 0.329389E+000
 0.334408E+000
 0.340815E+000
 0.349169E+000
 0.360348E+000
 0.375791E+000
 0.397944E+000
 0.431342E+000
 0.485274E+000
 0.579845E+000
 0.317008E+000
 0.318959E+000
 0.321244E+000
 0.323943E+000
 0.327175E+000
 0.331088E+000
 0.335899E+000
 0.341904E+000
 0.349536E+000
 0.359441E+000
 0.372621E+000
 0.390688E+000
 0.416371E+000
 0.454658E+000
 0.515342E+000
 0.618536E+000
 0.320492E+000
 0.322803E+000
 0.325499E+000
 0.328683E+000
 0.332482E+000
 0.337075E+000
 0.342702E+000
 0.349703E+000
 0.358565E+000
 0.370013E+000
 0.385157E+000
 0.405765E+000
 0.434810E+000
 0.477601E+000
 0.544198E+000
 0.654478E+000
 0.324101E+000
 0.326768E+000
 0.329878E+000
 0.333541E+000
 0.337906E+000
 0.343171E+000
 0.349605E+000
 0.357584E+000
 0.367646E+000
 0.380584E+000
 0.397603E+000
 0.420607E+000
 0.452756E+000
 0.499573E+000
 0.571220E+000
 0.687196E+000
 0.327702E+000
 0.330711E+000
 0.334216E+000
 0.338342E+000
 0.343250E+000
 0.349159E+000
 0.356363E+000
 0.365270E+000
 0.376462E+000
 0.390791E+000
 0.409543E+000
 0.434730E+000
 0.469649E+000
 0.519951E+000
 0.595794E+000
 0.716232E+000
 0.331134E+000
 0.334454E+000
 0.338321E+000
 0.342872E+000
 0.348280E+000
 0.354780E+000
 0.362687E+000
 0.372437E+000
 0.384649E+000
 0.400224E+000
 0.420512E+000
 0.447609E+000
 0.484904E+000
 0.538114E+000
 0.617334E+000
 0.741163E+000
 0.334210E+000
 0.337796E+000
 0.341977E+000
 0.346896E+000
 0.352738E+000
 0.359750E+000
 0.368263E+000
 0.378738E+000
 0.391822E+000
 0.408454E+000
 0.430033E+000
 0.458714E+000
 0.497946E+000
 0.553472E+000
 0.635298E+000
 0.761606E+000
 0.336737E+000
 0.340532E+000
 0.344963E+000
 0.350176E+000
 0.356365E+000
 0.363785E+000
 0.372782E+000
 0.383831E+000
 0.397603E+000
 0.415064E+000
 0.437648E+000
 0.467549E+000
 0.508250E+000
 0.565502E+000
 0.649218E+000
 0.777239E+000
 0.338537E+000
 0.342476E+000
 0.347081E+000
 0.352500E+000
 0.358931E+000
 0.366636E+000
 0.375969E+000
 0.387417E+000
 0.401664E+000
 0.419696E+000
 0.442967E+000
 0.473695E+000
 0.515382E+000
 0.573776E+000
 0.658718E+000
 0.787808E+000
 0.339475E+000
 0.343487E+000
 0.348181E+000
 0.353706E+000
 0.360262E+000
 0.368113E+000
 0.377618E+000
 0.389270E+000
 0.403760E+000
 0.422082E+000
 0.445702E+000
 0.476848E+000
 0.519030E+000
 0.577991E+000
 0.663536E+000
 0.793138E+000
 0.339475E+000
 0.343487E+000
 0.348181E+000
 0.353706E+000
 0.360262E+000
 0.368113E+000
 0.377618E+000
 0.389270E+000
 0.403760E+000
 0.422082E+000
 0.445702E+000
 0.476848E+000
 0.519030E+000
 0.577991E+000
 0.663536E+000
 0.793138E+000
 0.338537E+000
 0.342476E+000
 0.347081E+000
 0.352500E+000
 0.358931E+000
 0.366636E+000
 0.375969E+000
 0.387417E+000
 0.401664E+000
 0.419696E+000
 0.442967E+000
 0.473695E+000
 0.515382E+000
 0.573776E+000
 0.658718E+000
 0.787808E+000
 0.336737E+000
 0.340532E+000
 0.344963E+000
 0.350176E+000
 0.356365E+000
 0.363785E+000
 0.372782E+000
 0.383831E+000
 0.397603E+000
 0.415064E+000
 0.437648E+000
 0.467549E+000
 0.508250E+000
 0.565502E+000
 0.649218E+000
 0.777239E+000
 0.334210E+000
 0.337796E+000
 0.341977E+000
 0.346896E+000
 0.352738E+000
 0.359750E+000
 0.368263E+000
 0.378738E+000
 0.391822E+000
 0.408454E+000
 0.430033E+000
 0.458714E+000
 0.497946E+000
 0.553472E+000
 0.635298E+000
 0.761606E+000
 0.331134E+000
 0.334454E+000
 0.338321E+000
 0.342872E+000
 0.348280E+000
 0.354780E+000
 0.362687E+000
 0.372437E+000
 0.384649E+000
 0.400224E+000
 0.420512E+000
 0.447609E+000
 0.484904E+000
 0.538114E+000
 0.617334E+000
 0.741163E+000
 0.327702E+000
 0.330711E+000
 0.334216E+000
 0.338342E+000
 0.343250E+000
 0.349159E+000
 0.356363E+000
 0.365270E+000
 0.376462E+000
 0.390791E+000
 0.409543E+000
 0.434730E+000
 0.469649E+000
 0.519951E+000
 0.595794E+000
 0.716232E+000
 0.324101E+000
 0.326768E+000
 0.329878E+000
 0.333541E+000
 0.337906E+000
 0.343171E+000
 0.349605E+000
 0.357584E+000
 0.367646E+000
 0.380584E+000
 0.397603E+000
 0.420607E+000
 0.452756E+000
 0.499573E+000
 0.571220E+000
 0.687196E+000
 0.320492E+000
 0.322803E+000
 0.325499E+000
 0.328683E+000
 0.332482E+000
 0.337075E+000
 0.342702E+000
 0.349703E+000
 0.358565E+000
 0.370013E+000
 0.385157E+000
 0.405765E+000
 0.434810E+000
 0.477601E+000
 0.544198E+000
 0.654478E+000
 0.317008E+000
 0.318959E+000
 0.321244E+000
 0.323943E+000
 0.327175E+000
 0.331088E+000
 0.335899E+000
 0.341904E+000
 0.349536E+000
 0.359441E+000
 0.372621E+000
 0.390688E+000
 0.416371E+000
 0.454658E+000
 0.515342E+000
 0.618536E+000
 0.313743E+000
 0.315346E+000
 0.317226E+000
 0.319459E+000
 0.322131E+000
 0.325385E+000
 0.329389E+000
 0.334408E+000
 0.340815E+000
 0.349169E+000
 0.360348E+000
 0.375791E+000
 0.397944E+000
 0.431342E+000
 0.485274E+000
 0.579845E+000
 0.310760E+000
 0.312031E+000
 0.313533E+000
 0.315314E+000
 0.317467E+000
 0.320074E+000
 0.323319E+000
 0.327377E+000
 0.332593E+000
 0.339427E+000
 0.348618E+000
 0.361410E+000
 0.379951E+000
 0.408197E+000
 0.454611E+000
 0.538890E+000
 0.308091E+000
 0.309059E+000
 0.310204E+000
 0.311577E+000
 0.313224E+000
 0.315258E+000
 0.317749E+000
 0.320939E+000
 0.324988E+000
 0.330375E+000
 0.337637E+000
 0.347804E+000
 0.362714E+000
 0.385697E+000
 0.423952E+000
 0.496160E+000
 0.305748E+000
 0.306439E+000
 0.307265E+000
 0.308254E+000
 0.309462E+000
 0.310927E+000
 0.312787E+000
 0.315080E+000
 0.318145E+000
 0.322060E+000
 0.327563E+000
 0.335157E+000
 0.346464E+000
 0.364192E+000
 0.393905E+000
 0.452132E+000
 0.303726E+000
 0.304170E+000
 0.304707E+000
 0.305359E+000
 0.306153E+000
 0.307142E+000
 0.308356E+000
 0.309951E+000
 0.311924E+000
 0.314721E+000
 0.318276E+000
 0.323734E+000
 0.331285E+000
 0.343939E+000
 0.365014E+000
 0.407376E+000
 0.302006E+000
 0.302231E+000
 0.302515E+000
 0.302866E+000
 0.303302E+000
 0.303841E+000
 0.304530E+000
 0.305390E+000
 0.306562E+000
 0.308027E+000
 0.310240E+000
 0.313055E+000
 0.317879E+000
 0.324489E+000
 0.338163E+000
 0.362306E+000
 0.300567E+000
 0.300597E+000
 0.300661E+000
 0.300750E+000
 0.300868E+000
 0.301021E+000
 0.301220E+000
 0.301482E+000
 0.301821E+000
 0.302296E+000
 0.302919E+000
 0.303871E+000
 0.305232E+000
 0.307450E+000
 0.311447E+000
 0.320630E+000
 0.299268E+000
 0.299144E+000
 0.299017E+000
 0.298876E+000
 0.298714E+000
 0.298525E+000
 0.298292E+000
 0.298014E+000
 0.297632E+000
 0.297182E+000
 0.296438E+000
 0.295606E+000
 0.293824E+000
 0.291970E+000
 0.286268E+000
 0.280873E+000
 0.297756E+000
 0.297468E+000
 0.297132E+000
 0.296735E+000
 0.296263E+000
 0.295683E+000
 0.294982E+000
 0.294062E+000
 0.292941E+000
 0.291313E+000
 0.289308E+000
 0.286039E+000
 0.281690E+000
 0.273997E+000
 0.260948E+000
 0.236413E+000
 0.295983E+000
 0.295491E+000
 0.294909E+000
 0.294219E+000
 0.293384E+000
 0.292379E+000
 0.291107E+000
 0.289550E+000
 0.287448E+000
 0.284784E+000
 0.280979E+000
 0.275669E+000
 0.267850E+000
 0.254805E+000
 0.234047E+000
 0.189720E+000
 0.293916E+000
 0.293184E+000
 0.292322E+000
 0.291293E+000
 0.290064E+000
 0.288550E+000
 0.286703E+000
 0.284330E+000
 0.281314E+000
 0.277296E+000
 0.271781E+000
 0.264143E+000
 0.252568E+000
 0.234671E+000
 0.204776E+000
 0.144041E+000
 0.291533E+000
 0.290530E+000
 0.289348E+000
 0.287949E+000
 0.286262E+000
 0.284222E+000
 0.281683E+000
 0.278497E+000
 0.274405E+000
 0.268976E+000
 0.261687E+000
 0.251405E+000
 0.236291E+000
 0.213140E+000
 0.174309E+000
 0.994206E-001
 0.288826E+000
 0.287519E+000
 0.285990E+000
 0.284175E+000
 0.282006E+000
 0.279365E+000
 0.276108E+000
 0.272024E+000
 0.266773E+000
 0.259907E+000
 0.250657E+000
 0.237737E+000
 0.219021E+000
 0.190519E+000
 0.143264E+000
 0.562974E-001
 0.285801E+000
 0.284169E+000
 0.282259E+000
 0.280004E+000
 0.277306E+000
 0.274034E+000
 0.270010E+000
 0.264964E+000
 0.258527E+000
 0.250132E+000
 0.238875E+000
 0.223305E+000
 0.200967E+000
 0.167208E+000
 0.112269E+000
 0.150768E-001
 0.282495E+000
 0.280515E+000
 0.278207E+000
 0.275485E+000
 0.272234E+000
 0.268302E+000
 0.263471E+000
 0.257441E+000
 0.249776E+000
 0.239819E+000
 0.226553E+000
 0.208353E+000
 0.182452E+000
 0.143712E+000
 0.819282E-001
-0.237966E-001
 0.278963E+000
 0.276630E+000
 0.273912E+000
 0.270711E+000
 0.266896E+000
 0.262286E+000
 0.256639E+000
 0.249612E+000
 0.240712E+000
 0.229205E+000
 0.213968E+000
 0.193212E+000
 0.163910E+000
 0.120595E+000
 0.528529E-001
-0.598669E-001
 0.275305E+000
 0.272619E+000
 0.269495E+000
 0.265819E+000
 0.261440E+000
 0.256160E+000
 0.249706E+000
 0.241699E+000
 0.231595E+000
 0.218591E+000
 0.201470E+000
 0.178299E+000
 0.145856E+000
 0.984656E-001
 0.256569E-001
-0.926759E-001
 0.271650E+000
 0.268631E+000
 0.265117E+000
 0.260984E+000
 0.256065E+000
 0.250142E+000
 0.242919E+000
 0.233982E+000
 0.222743E+000
 0.208342E+000
 0.189477E+000
 0.164103E+000
 0.128859E+000
 0.779524E-001
 0.946690E-003
-0.121779E+000
 0.268164E+000
 0.264843E+000
 0.260975E+000
 0.256422E+000
 0.251006E+000
 0.244494E+000
 0.236567E+000
 0.226785E+000
 0.214521E+000
 0.198867E+000
 0.178455E+000
 0.151155E+000
 0.113512E+000
 0.596784E-001
-0.206964E-001
-0.146758E+000
 0.265037E+000
 0.261460E+000
 0.257286E+000
 0.252369E+000
 0.246523E+000
 0.239500E+000
 0.230966E+000
 0.220457E+000
 0.207318E+000
 0.190601E+000
 0.168887E+000
 0.139988E+000
 0.100393E+000
 0.442329E-001
-0.387376E-001
-0.167237E+000
 0.262466E+000
 0.258690E+000
 0.254272E+000
 0.249065E+000
 0.242875E+000
 0.235445E+000
 0.226427E+000
 0.215341E+000
 0.201511E+000
 0.183959E+000
 0.161233E+000
 0.131105E+000
 0.900292E-001
 0.321391E-001
-0.527119E-001
-0.182895E+000
 0.260632E+000
 0.256720E+000
 0.252134E+000
 0.246724E+000
 0.240294E+000
 0.232580E+000
 0.223225E+000
 0.211740E+000
 0.197432E+000
 0.179306E+000
 0.155887E+000
 0.124925E+000
 0.828572E-001
 0.238234E-001
-0.622465E-001
-0.193480E+000
 0.259677E+000
 0.255696E+000
 0.251024E+000
 0.245510E+000
 0.238956E+000
 0.231096E+000
 0.221569E+000
 0.209879E+000
 0.195326E+000
 0.176908E+000
 0.153138E+000
 0.121755E+000
 0.791895E-001
 0.195874E-001
-0.670810E-001
-0.198817E+000
 0.259677E+000
 0.255696E+000
 0.251024E+000
 0.245510E+000
 0.238956E+000
 0.231096E+000
 0.221569E+000
 0.209879E+000
 0.195326E+000
 0.176908E+000
 0.153138E+000
 0.121755E+000
 0.791895E-001
 0.195874E-001
-0.670810E-001
-0.198817E+000
 0.260632E+000
 0.256720E+000
 0.252134E+000
 0.246724E+000
 0.240294E+000
 0.232580E+000
 0.223225E+000
 0.211740E+000
 0.197432E+000
 0.179306E+000
 0.155887E+000
 0.124925E+000
 0.828572E-001
 0.238234E-001
-0.622465E-001
-0.193480E+000
 0.262466E+000
 0.258690E+000
 0.254272E+000
 0.249065E+000
 0.242875E+000
 0.235445E+000
 0.226427E+000
 0.215341E+000
 0.201511E+000
 0.183959E+000
 0.161233E+000
 0.131105E+000
 0.900292E-001
 0.321391E-001
-0.527119E-001
-0.182895E+000
 0.265037E+000
 0.261460E+000
 0.257286E+000
 0.252369E+000
 0.246523E+000
 0.239500E+000
 0.230966E+000
 0.220457E+000
 0.207318E+000
 0.190601E+000
 0.168887E+000
 0.139988E+000
 0.100393E+000
 0.442329E-001
-0.387376E-001
-0.167237E+000
 0.268164E+000
 0.264843E+000
 0.260975E+000
 0.256422E+000
 0.251006E+000
 0.244494E+000
 0.236567E+000
 0.226785E+000
 0.214521E+000
 0.198867E+000
 0.178455E+000
 0.151155E+000
 0.113512E+000
 0.596784E-001
-0.206964E-001
-0.146758E+000
 0.271650E+000
 0.268631E+000
 0.265117E+000
 0.260984E+000
 0.256065E+000
 0.250142E+000
 0.242919E+000
 0.233982E+000
 0.222743E+000
 0.208342E+000
 0.189477E+000
 0.164103E+000
 0.128859E+000
 0.779524E-001
 0.946690E-003
-0.121779E+000
 0.275305E+000
 0.272619E+000
 0.269495E+000
 0.265819E+000
 0.261440E+000
 0.256160E+000
 0.249706E+000
 0.241699E+000
 0.231595E+000
 0.218591E+000
 0.201470E+000
 0.178299E+000
 0.145856E+000
 0.984656E-001
 0.256569E-001
-0.926759E-001
 0.278963E+000
 0.276630E+000
 0.273912E+000
 0.270711E+000
 0.266896E+000
 0.262286E+000
 0.256639E+000
 0.249612E+000
 0.240712E+000
 0.229205E+000
 0.213968E+000
 0.193212E+000
 0.163910E+000
 0.120595E+000
 0.528529E-001
-0.598669E-001
 0.282495E+000
 0.280515E+000
 0.278207E+000
 0.275485E+000
 0.272234E+000
 0.268302E+000
 0.263471E+000
 0.257441E+000
 0.249776E+000
 0.239819E+000
 0.226553E+000
 0.208353E+000
 0.182452E+000
 0.143712E+000
 0.819282E-001
-0.237966E-001
 0.285801E+000
 0.284169E+000
 0.282259E+000
 0.280004E+000
 0.277306E+000
 0.274034E+000
 0.270010E+000
 0.264964E+000
 0.258527E+000
 0.250132E+000
 0.238875E+000
 0.223305E+000
 0.200967E+000
 0.167208E+000
 0.112269E+000
 0.150768E-001
 0.288826E+000
 0.287519E+000
 0.285990E+000
 0.284175E+000
 0.282006E+000
 0.279365E+000
 0.276108E+000
 0.272024E+000
 0.266773E+000
 0.259907E+000
 0.250657E+000
 0.237737E+000
 0.219021E+000
 0.190519E+000
 0.143264E+000
 0.562974E-001
 0.291533E+000
 0.290530E+000
 0.289348E+000
 0.287949E+000
 0.286262E+000
 0.284222E+000
 0.281683E+000
 0.278497E+000
 0.274405E+000
 0.268976E+000
 0.261687E+000
 0.251405E+000
 0.236291E+000
 0.213140E+000
 0.174309E+000
 0.994206E-001
 0.293916E+000
 0.293184E+000
 0.292322E+000
 0.291293E+000
 0.290064E+000
 0.288550E+000
 0.286703E+000
 0.284330E+000
 0.281314E+000
 0.277296E+000
 0.271781E+000
 0.264143E+000
 0.252568E+000
 0.234671E+000
 0.204776E+000
 0.144041E+000
 0.295983E+000
 0.295491E+000
 0.294909E+000
 0.294219E+000
 0.293384E+000
 0.292379E+000
 0.291107E+000
 0.289550E+000
 0.287448E+000
 0.284784E+000
 0.280979E+000
 0.275669E+000
 0.267850E+000
 0.254805E+000
 0.234047E+000
 0.189720E+000
 0.297756E+000
 0.297468E+000
 0.297132E+000
 0.296735E+000
 0.296263E+000
 0.295683E+000
 0.294982E+000
 0.294062E+000
 0.292941E+000
 0.291313E+000
 0.289308E+000
 0.286039E+000
 0.281690E+000
 0.273997E+000
 0.260948E+000
 0.236413E+000
 0.299268E+000
 0.299144E+000
 0.299017E+000
 0.298876E+000
 0.298714E+000
 0.298525E+000
 0.298292E+000
 0.298014E+000
 0.297632E+000
 0.297182E+000
 0.296438E+000
 0.295606E+000
 0.293824E+000
 0.291970E+000
 0.286268E+000
 0.280873E+000
SCALARS stress_23 FLOAT     1
LOOKUP_TABLE default
 0.000000E+000
 0.000000E+000
 0.000000E+000
 0.000000E+000
 0.000000E+000
 0.000000E+000
 0.000000E+000
 0.000000E+000
 0.000000E+000
 0.000000E+000
 0.000000E+000
 0.000000E+000
 0.000000E+000
 0.000000E+000
 0.000000E+000
 0.000000E+000
 0.000000E+000
 0.000000E+000
 0.000000E+000
 0.000000E+000
 0.000000E+000
 0.000000E+000
 0.000000E+000
 0.000000E+000
 0.000000E+000
 0.000000E+000
 0.000000E+000
 0.000000E+000
 0.000000E+000
 0.000000E+000
 0.000000E+000
 0.000000E+000
 0.000000E+000
 0.000000E+000
 0.000000E+000
 0.000000E+000
 0.000000E+000
 0.000000E+000
 0.000000E+000
 0.000000E+000
 0.000000E+000
 0.000000E+000
 0.000000E+000
 0.000000E+000
 0.000000E+000
 0.000000E+000
 0.000000E+000
 0.000000E+000
 0.000000E+000
 0.000000E+000
 0.000000E+000
 0.000000E+000
 0.000000E+000
 0.000000E+000
 0.000000E+000
 0.000000E+000
 0.000000E+000
 0.000000E+000
 0.000000E+000
 0.000000E+000
 0.000000E+000
 0.000000E+000
 0.000000E+000
 0.000000E+000
 0.000000E+000
 0.000000E+000
 0.000000E+000
 0.000000E+000
 0.000000E+000
 0.000000E+000
 0.000000E+000
 0.000000E+000
 0.000000E+000
 0.000000E+000
 0.000000E+000
 0.000000E+000
 0.000000E+000
 0.000000E+000
 0.000000E+000
 0.000000E+000
 0.000000E+000
 0.000000E+000
 0.000000E+000
 0.000000E+000
 0.000000E+000
 0.000000E+000
 0.000000E+000
 0.000000E+000
 0.000000E+000
 0.000000E+000
 0.000000E+000
 0.000000E+000
 0.000000E+000
 0.000000E+000
 0.000000E+000
 0.000000E+000
 0.000000E+000
 0.000000E+000
 0.000000E+000
 0.000000E+000
 0.000000E+000
 0.000000E+000
 0.000000E+000
 0.000000E+000
 0.000000E+000
 0.000000E+000
 0.000000E+000
 0.000000E+000
 0.000000E+000
 0.000000E+000
 0.000000E+000
 0.000000E+000
 0.000000E+000
 0.000000E+000
 0.000000E+000
 0.000000E+000
 0.000000E+000
 0.000000E+000
 0.000000E+000
 0.000000E+000
 0.000000E+000
 0.000000E+000
 0.000000E+000
 0.000000E+000
 0.000000E+000
 0.000000E+000
 0.000000E+000
 0.000000E+000
 0.000000E+000
 0.000000E+000
 0.000000E+000
 0.000000E+000
 0.000000E+000
 0.000000E+000
 0.000000E+000
 0.000000E+000
 0.000000E+000
 0.000000E+000
 0.000000E+000
 0.000000E+000
 0.000000E+000
 0.000000E+000
 0.000000E+000
 0.000000E+000
 0.000000E+000
 0.000000E+000
 0.000000E+000
 0.000000E+000
 0.000000E+000
 0.000000E+000
 0.000000E+000
 0.000000E+000
 0.000000E+000
 0.000000E+000
 0.000000E+000
 0.000000E+000
 0.000000E+000
 0.000000E+000
 0.000000E+000
 0.000000E+000
 0.000000E+000
 0.000000E+000
 0.000000E+000
 0.000000E+000
 0.000000E+000
 0.000000E+000
 0.000000E+000
 0.000000E+000
 0.000000E+000
 0.000000E+000
 0.000000E+000
 0.000000E+000
 0.000000E+000
 0.000000E+000
 0.000000E+000
 0.000000E+000
 0.000000E+000
 0.000000E+000
 0.000000E+000
 0.000000E+000
 0.000000E+000
 0.000000E+000
 0.000000E+000
 0.000000E+000
 0.000000E+000
 0.000000E+000
 0.000000E+000
 0.000000E+000
 0.000000E+000
 0.000000E+000
 0.000000E+000
 0.000000E+000
 0.000000E+000
 0.000000E+000
 0.000000E+000
 0.000000E+000
 0.000000E+000
 0.000000E+000
 0.000000E+000
 0.000000E+000
 0.000000E+000
 0.000000E+000
 0.000000E+000
 0.000000E+000
 0.000000E+000
 0.000000E+000
 0.000000E+000
 0.000000E+000
 0.000000E+000
 0.000000E+000
 0.000000E+000
 0.000000E+000
 0.000000E+000
 0.000000E+000
 0.000000E+000
 0.000000E+000
 0.000000E+000
 0.000000E+000
 0.000000E+000
 0.000000E+000
 0.000000E+000
 0.000000E+000
 0.000000E+000
 0.000000E+000
 0.000000E+000
 0.000000E+000
 0.000000E+000
 0.000000E+000
 0.000000E+000
 0.000000E+000
 0.000000E+000
 0.000000E+000
 0.000000E+000
 0.000000E+000
 0.000000E+000
 0.000000E+000
 0.000000E+000
 0.000000E+000
 0.000000E+000
 0.000000E+000
 0.000000E+000
 0.000000E+000
 0.000000E+000
 0.000000E+000
 0.000000E+000
 0.000000E+000
 0.000000E+000
 0.000000E+000
 0.000000E+000
 0.000000E+000
 0.000000E+000
 0.000000E+000
 0.000000E+000
 0.000000E+000
 0.000000E+000
 0.000000E+000
 0.000000E+000
 0.000000E+000
 0.000000E+000
 0.000000E+000
 0.000000E+000
 0.000000E+000
 0.000000E+000
 0.000000E+000
 0.000000E+000
 0.000000E+000
 0.000000E+000
 0.000000E+000
 0.000000E+000
 0.000000E+000
 0.000000E+000
 0.000000E+000
 0.000000E+000
 0.000000E+000
 0.000000E+000
 0.000000E+000
 0.000000E+000
 0.000000E+000
 0.000000E+000
 0.000000E+000
 0.000000E+000
 0.000000E+000
 0.000000E+000
 0.000000E+000
 0.000000E+000
 0.000000E+000
 0.000000E+000
 0.000000E+000
 0.000000E+000
 0.000000E+000
 0.000000E+000
 0.000000E+000
 0.000000E+000
 0.000000E+000
 0.000000E+000
 0.000000E+000
 0.000000E+000
 0.000000E+000
 0.000000E+000
 0.000000E+000
 0.000000E+000
 0.000000E+000
 0.000000E+000
 0.000000E+000
 0.000000E+000
 0.000000E+000
 0.000000E+000
 0.000000E+000
 0.000000E+000
 0.000000E+000
 0.000000E+000
 0.000000E+000
 0.000000E+000
 0.000000E+000
 0.000000E+000
 0.000000E+000
 0.000000E+000
 0.000000E+000
 0.000000E+000
 0.000000E+000
 0.000000E+000
 0.000000E+000
 0.000000E+000
 0.000000E+000
 0.000000E+000
 0.000000E+000
 0.000000E+000
 0.000000E+000
 0.000000E+000
 0.000000E+000
 0.000000E+000
 0.000000E+000
 0.000000E+000
 0.000000E+000
 0.000000E+000
 0.000000E+000
 0.000000E+000
 0.000000E+000
 0.000000E+000
 0.000000E+000
 0.000000E+000
 0.000000E+000
 0.000000E+000
 0.000000E+000
 0.000000E+000
 0.000000E+000
 0.000000E+000
 0.000000E+000
 0.000000E+000
 0.000000E+000
 0.000000E+000
 0.000000E+000
 0.000000E+000
 0.000000E+000
 0.000000E+000
 0.000000E+000
 0.000000E+000
 0.000000E+000
 0.000000E+000
 0.000000E+000
 0.000000E+000
 0.000000E+000
 0.000000E+000
 0.000000E+000
 0.000000E+000
 0.000000E+000
 0.000000E+000
 0.000000E+000
 0.000000E+000
 0.000000E+000
 0.000000E+000
 0.000000E+000
 0.000000E+000
 0.000000E+000
 0.000000E+000
 0.000000E+000
 0.000000E+000
 0.000000E+000
 0.000000E+000
 0.000000E+000
 0.000000E+000
 0.000000E+000
 0.000000E+000
 0.000000E+000
 0.000000E+000
 0.000000E+000
 0.000000E+000
 0.000000E+000
 0.000000E+000
 0.000000E+000
 0.000000E+000
 0.000000E+000
 0.000000E+000
 0.000000E+000
 0.000000E+000
 0.000000E+000
 0.000000E+000
 0.000000E+000
 0.000000E+000
 0.000000E+000
 0.000000E+000
 0.000000E+000
 0.000000E+000
 0.000000E+000
 0.000000E+000
 0.000000E+000
 0.000000E+000
 0.000000E+000
 0.000000E+000
 0.000000E+000
 0.000000E+000
 0.000000E+000
 0.000000E+000
 0.000000E+000
 0.000000E+000
 0.000000E+000
 0.000000E+000
 0.000000E+000
 0.000000E+000
 0.000000E+000
 0.000000E+000
 0.000000E+000
 0.000000E+000
 0.000000E+000
 0.000000E+000
 0.000000E+000
 0.000000E+000
 0.000000E+000
 0.000000E+000
 0.000000E+000
 0.000000E+000
 0.000000E+000
 0.000000E+000
 0.000000E+000
 0.000000E+000
 0.000000E+000
 0.000000E+000
 0.000000E+000
 0.000000E+000
 0.000000E+000
 0.000000E+000
 0.000000E+000
 0.000000E+000
 0.000000E+000
 0.000000E+000
 0.000000E+000
 0.000000E+000
 0.000000E+000
 0.000000E+000
 0.000000E+000
 0.000000E+000
 0.000000E+000
 0.000000E+000
 0.000000E+000
 0.000000E+000
 0.000000E+000
 0.000000E+000
 0.000000E+000
 0.000000E+000
 0.000000E+000
 0.000000E+000
 0.000000E+000
 0.000000E+000
 0.000000E+000
 0.000000E+000
 0.000000E+000
 0.000000E+000
 0.000000E+000
 0.000000E+000
 0.000000E+000
 0.000000E+000
 0.000000E+000
 0.000000E+000
 0.000000E+000
 0.000000E+000
 0.000000E+000
 0.000000E+000
 0.000000E+000
 0.000000E+000
 0.000000E+000
 0.000000E+000
 0.000000E+000
 0.000000E+000
 0.000000E+000
 0.000000E+000
 0.000000E+000
 0.000000E+000
 0.000000E+000
 0.000000E+000
 0.000000E+000
 0.000000E+000
 0.000000E+000
 0.000000E+000
 0.000000E+000
 0.000000E+000
 0.000000E+000
 0.000000E+000
 0.000000E+000
 0.000000E+000
 0.000000E+000
 0.000000E+000
 0.000000E+000
 0.000000E+000
 0.000000E+000
 0.000000E+000
 0.000000E+000
 0.000000E+000
 0.000000E+000
 0.000000E+000
 0.000000E+000
 0.000000E+000
 0.000000E+000
 0.000000E+000
 0.000000E+000
 0.000000E+000
 0.000000E+000
 0.000000E+000
 0.000000E+000
 0.000000E+000
 0.000000E+000
 0.000000E+000
 0.000000E+000
 0.000000E+000
 0.000000E+000
 0.000000E+000
 0.000000E+000
 0.000000E+000
 0.000000E+000
 0.000000E+000
 0.000000E+000
 0.000000E+000
 0.000000E+000
 0.000000E+000
 0.000000E+000
 0.000000E+000
 0.000000E+000
 0.000000E+000
 0.000000E+000
 0.000000E+000
 0.000000E+000
 0.000000E+000
 0.000000E+000
 0.000000E+000
 0.000000E+000
 0.000000E+000
 0.000000E+000
 0.000000E+000
 0.000000E+000
 0.000000E+000
 0.000000E+000
 0.000000E+000
 0.000000E+000
 0.000000E+000
 0.000000E+000
 0.000000E+000
 0.000000E+000
 0.000000E+000
 0.000000E+000
 0.000000E+000
 0.000000E+000
 0.000000E+000
 0.000000E+000
 0.000000E+000
 0.000000E+000
 0.000000E+000
 0.000000E+000
 0.000000E+000
 0.000000E+000
 0.000000E+000
 0.000000E+000
 0.000000E+000
 0.000000E+000
 0.000000E+000
 0.000000E+000
 0.000000E+000
 0.000000E+000
 0.000000E+000
 0.000000E+000
 0.000000E+000
 0.000000E+000
 0.000000E+000
 0.000000E+000
 0.000000E+000
 0.000000E+000
 0.000000E+000
 0.000000E+000
 0.000000E+000
 0.000000E+000
 0.000000E+000
 0.000000E+000
 0.000000E+000
 0.000000E+000
 0.000000E+000
 0.000000E+000
 0.000000E+000
 0.000000E+000
 0.000000E+000
 0.000000E+000
 0.000000E+000
 0.000000E+000
 0.000000E+000
 0.000000E+000
 0.000000E+000
 0.000000E+000
 0.000000E+000
 0.000000E+000
 0.000000E+000
 0.000000E+000
 0.000000E+000
 0.000000E+000
 0.000000E+000
 0.000000E+000
 0.000000E+000
 0.000000E+000
 0.000000E+000
 0.000000E+000
 0.000000E+000
 0.000000E+000
 0.000000E+000
 0.000000E+000
 0.000000E+000
 0.000000E+000
 0.000000E+000
 0.000000E+000
 0.000000E+000
 0.000000E+000
 0.000000E+000
 0.000000E+000
 0.000000E+000
 0.000000E+000
 0.000000E+000
 0.000000E+000
 0.000000E+000
 0.000000E+000
 0.000000E+000
 0.000000E+000
 0.000000E+000
 0.000000E+000
 0.000000E+000
 0.000000E+000
 0.000000E+000
 0.000000E+000
 0.000000E+000
 0.000000E+000
 0.000000E+000
 0.000000E+000
 0.000000E+000
 0.000000E+000
 0.000000E+000
 0.000000E+000
 0.000000E+000
 0.000000E+000
 0.000000E+000
 0.000000E+000
 0.000000E+000
 0.000000E+000
 0.000000E+000
 0.000000E+000
 0.000000E+000
 0.000000E+000
 0.000000E+000
 0.000000E+000
 0.000000E+000
 0.000000E+000
 0.000000E+000
 0.000000E+000
 0.000000E+000
 0.000000E+000
 0.000000E+000
 0.000000E+000
 0.000000E+000
 0.000000E+000
 0.000000E+000
 0.000000E+000
 0.000000E+000
 0.000000E+000
 0.000000E+000
 0.000000E+000
 0.000000E+000
 0.000000E+000
 0.000000E+000
 0.000000E+000
 0.000000E+000
 0.000000E+000
 0.000000E+000
 0.000000E+000
 0.000000E+000
 0.000000E+000
 0.000000E+000
 0.000000E+000
 0.000000E+000
 0.000000E+000
 0.000000E+000
 0.000000E+000
 0.000000E+000
 0.000000E+000
 0.000000E+000
 0.000000E+000
 0.000000E+000
 0.000000E+000
 0.000000E+000
 0.000000E+000
 0.000000E+000
 0.000000E+000
 0.000000E+000
 0.000000E+000
 0.000000E+000
 0.000000E+000
 0.000000E+000
 0.000000E+000
 0.000000E+000
 0.000000E+000
 0.000000E+000
 0.000000E+000
 0.000000E+000
 0.000000E+000
 0.000000E+000
 0.000000E+000
 0.000000E+000
 0.000000E+000
 0.000000E+000
 0.000000E+000
 0.000000E+000
 0.000000E+000
 0.000000E+000
 0.000000E+000
 0.000000E+000
 0.000000E+000
 0.000000E+000
 0.000000E+000
 0.000000E+000
 0.000000E+000
 0.000000E+000
 0.000000E+000
 0.000000E+000
 0.000000E+000
 0.000000E+000
 0.000000E+000
 0.000000E+000
 0.000000E+000
 0.000000E+000
 0.000000E+000
 0.000000E+000
 0.000000E+000
 0.000000E+000
 0.000000E+000
 0.000000E+000
 0.000000E+000
 0.000000E+000
 0.000000E+000
 0.000000E+000
 0.000000E+000
 0.000000E+000
 0.000000E+000
 0.000000E+000
 0.000000E+000
 0.000000E+000
 0.000000E+000
 0.000000E+000
 0.000000E+000
 0.000000E+000
 0.000000E+000
 0.000000E+000
 0.000000E+000
 0.000000E+000
 0.000000E+000
 0.000000E+000
 0.000000E+000
 0.000000E+000
 0.000000E+000
 0.000000E+000
 0.000000E+000
 0.000000E+000
 0.000000E+000
 0.000000E+000
 0.000000E+000
 0.000000E+000
 0.000000E+000
 0.000000E+000
 0.000000E+000
 0.000000E+000
 0.000000E+000
 0.000000E+000
 0.000000E+000
 0.000000E+000
 0.000000E+000
 0.000000E+000
 0.000000E+000
 0.000000E+000
 0.000000E+000
 0.000000E+000
 0.000000E+000
 0.000000E+000
 0.000000E+000
 0.000000E+000
 0.000000E+000
 0.000000E+000
 0.000000E+000
 0.000000E+000
 0.000000E+000
 0.000000E+000
 0.000000E+000
 0.000000E+000
 0.000000E+000
 0.000000E+000
 0.000000E+000
 0.000000E+000
 0.000000E+000
 0.000000E+000
 0.000000E+000
 0.000000E+000
 0.000000E+000
 0.000000E+000
 0.000000E+000
 0.000000E+000
 0.000000E+000
 0.000000E+000
 0.000000E+000
 0.000000E+000
 0.000000E+000
 0.000000E+000
 0.000000E+000
 0.000000E+000
 0.000000E+000
 0.000000E+000
 0.000000E+000
 0.000000E+000
 0.000000E+000
 0.000000E+000
 0.000000E+000
 0.000000E+000
 0.000000E+000
 0.000000E+000
 0.000000E+000
 0.000000E+000
 0.000000E+000
 0.000000E+000
 0.000000E+000
 0.000000E+000
 0.000000E+000
 0.000000E+000
 0.000000E+000
 0.000000E+000
 0.000000E+000
 0.000000E+000
 0.000000E+000
 0.000000E+000
 0.000000E+000
 0.000000E+000
 0.000000E+000
 0.000000E+000
 0.000000E+000
 0.000000E+000
 0.000000E+000
 0.000000E+000
 0.000000E+000
 0.000000E+000
 0.000000E+000
 0.000000E+000
 0.000000E+000
 0.000000E+000
 0.000000E+000
 0.000000E+000
 0.000000E+000
 0.000000E+000
 0.000000E+000
 0.000000E+000
 0.000000E+000
 0.000000E+000
 0.000000E+000
 0.000000E+000
 0.000000E+000
 0.000000E+000
 0.000000E+000
 0.000000E+000
 0.000000E+000
 0.000000E+000
 0.000000E+000
 0.000000E+000
 0.000000E+000
 0.000000E+000
 0.000000E+000
 0.000000E+000
 0.000000E+000
 0.000000E+000
 0.000000E+000
 0.000000E+000
 0.000000E+000
 0.000000E+000
 0.000000E+000
 0.000000E+000
 0.000000E+000
 0.000000E+000
 0.000000E+000
 0.000000E+000
 0.000000E+000
 0.000000E+000
 0.000000E+000
 0.000000E+000
 0.000000E+000
 0.000000E+000
 0.000000E+000
 0.000000E+000
 0.000000E+000
 0.000000E+000
 0.000000E+000
 0.000000E+000
 0.000000E+000
 0.000000E+000
 0.000000E+000
 0.000000E+000
 0.000000E+000
 0.000000E+000
 0.000000E+000
 0.000000E+000
 0.000000E+000
 0.000000E+000
 0.000000E+000
 0.000000E+000
 0.000000E+000
 0.000000E+000
 0.000000E+000
 0.000000E+000
 0.000000E+000
 0.000000E+000
 0.000000E+000
 0.000000E+000
 0.000000E+000
 0.000000E+000
 0.000000E+000
 0.000000E+000
 0.000000E+000
 0.000000E+000
 0.000000E+000
 0.000000E+000
 0.000000E+000
 0.000000E+000
 0.000000E+000
 0.000000E+000
 0.000000E+000
 0.000000E+000
 0.000000E+000
 0.000000E+000
 0.000000E+000
 0.000000E+000
 0.000000E+000
 0.000000E+000
 0.000000E+000
 0.000000E+000
 0.000000E+000
 0.000000E+000
 0.000000E+000
 0.000000E+000
 0.000000E+000
 0.000000E+000
 0.000000E+000
 0.000000E+000
 0.000000E+000
 0.000000E+000
 0.000000E+000
 0.000000E+000
 0.000000E+000
 0.000000E+000
 0.000000E+000
 0.000000E+000
 0.000000E+000
 0.000000E+000
 0.000000E+000
 0.000000E+000
 0.000000E+000
 0.000000E+000
 0.000000E+000
 0.000000E+000
 0.000000E+000
 0.000000E+000
 0.000000E+000
 0.000000E+000
 0.000000E+000
 0.000000E+000
 0.000000E+000
 0.000000E+000
 0.000000E+000
 0.000000E+000
 0.000000E+000
 0.000000E+000
 0.000000E+000
 0.000000E+000
 0.000000E+000
 0.000000E+000
 0.000000E+000
 0.000000E+000
 0.000000E+000
 0.000000E+000
 0.000000E+000
 0.000000E+000
 0.000000E+000
 0.000000E+000
 0.000000E+000
 0.000000E+000
 0.000000E+000
 0.000000E+000
 0.000000E+000
 0.000000E+000
 0.000000E+000
 0.000000E+000
 0.000000E+000
 0.000000E+000
 0.000000E+000
 0.000000E+000
 0.000000E+000
 0.000000E+000
 0.000000E+000
 0.000000E+000
 0.000000E+000
 0.000000E+000
 0.000000E+000
 0.000000E+000
 0.000000E+000
 0.000000E+000
 0.000000E+000
 0.000000E+000
 0.000000E+000
 0.000000E+000
 0.000000E+000
 0.000000E+000
 0.000000E+000
 0.000000E+000
 0.000000E+000
 0.000000E+000
 0.000000E+000
 0.000000E+000
 0.000000E+000
 0.000000E+000
 0.000000E+000
 0.000000E+000
 0.000000E+000
 0.000000E+000
 0.000000E+000
 0.000000E+000
 0.000000E+000
 0.000000E+000
 0.000000E+000
 0.000000E+000
 0.000000E+000
 0.000000E+000
 0.000000E+000
 0.000000E+000
 0.000000E+000
 0.000000E+000
 0.000000E+000
 0.000000E+000
 0.000000E+000
 0.000000E+000
 0.000000E+000
 0.000000E+000
 0.000000E+000
 0.000000E+000
 0.000000E+000
 0.000000E+000
 0.000000E+000
 0.000000E+000
 0.000000E+000
 0.000000E+000
 0.000000E+000
 0.000000E+000
 0.000000E+000
 0.000000E+000
 0.000000E+000
 0.000000E+000
 0.000000E+000
 0.000000E+000
 0.000000E+000
 0.000000E+000
 0.000000E+000
 0.000000E+000
 0.000000E+000
 0.000000E+000
 0.000000E+000
 0.000000E+000
 0.000000E+000
 0.000000E+000
 0.000000E+000
 0.000000E+000
 0.000000E+000
 0.000000E+000
 0.000000E+000
 0.000000E+000
 0.000000E+000
 0.000000E+000
 0.000000E+000
 0.000000E+000
 0.000000E+000
 0.000000E+000
 0.000000E+000
 0.000000E+000
 0.000000E+000
 0.000000E+000
 0.000000E+000
 0.000000E+000
 0.000000E+000
 0.000000E+000
 0.000000E+000
 0.000000E+000
 0.000000E+000
 0.000000E+000
 0.000000E+000
 0.000000E+000
 0.000000E+000
 0.000000E+000
 0.000000E+000
 0.000000E+000
 0.000000E+000
 0.000000E+000
 0.000000E+000
 0.000000E+000
 0.000000E+000
 0.000000E+000
 0.000000E+000
 0.000000E+000
 0.000000E+000
 0.000000E+000
 0.000000E+000
 0.000000E+000
 0.000000E+000
 0.000000E+000
 0.000000E+000
 0.000000E+000
 0.000000E+000
 0.000000E+000
 0.000000E+000
 0.000000E+000
 0.000000E+000
 0.000000E+000
 0.000000E+000
 0.000000E+000
 0.000000E+000
 0.000000E+000
 0.000000E+000
 0.000000E+000
 0.000000E+000
 0.000000E+000
 0.000000E+000
 0.000000E+000
 0.000000E+000
 0.000000E+000
 0.000000E+000
 0.000000E+000
 0.000000E+000
 0.000000E+000
 0.000000E+000
 0.000000E+000
 0.000000E+000
 0.000000E+000
 0.000000E+000
 0.000000E+000
 0.000000E+000
 0.000000E+000
 0.000000E+000
 0.000000E+000
 0.000000E+000
 0.000000E+000
 0.000000E+000
 0.000000E+000
 0.000000E+000
 0.000000E+000
 0.000000E+000
 0.000000E+000
 0.000000E+000
 0.000000E+000
 0.000000E+000
 0.000000E+000
 0.000000E+000
 0.000000E+000
 0.000000E+000
 0.000000E+000
 0.000000E+000
 0.000000E+000
 0.000000E+000
 0.000000E+000
 0.000000E+000
 0.000000E+000
 0.000000E+000
 0.000000E+000
 0.000000E+000
 0.000000E+000
 0.000000E+000
 0.000000E+000
 0.000000E+000
 0.000000E+000
 0.000000E+000
 0.000000E+000
 0.000000E+000
 0.000000E+000
 0.000000E+000
 0.000000E+000
 0.000000E+000
 0.000000E+000
 0.000000E+000
 0.000000E+000
 0.000000E+000
 0.000000E+000
 0.000000E+000
 0.000000E+000
 0.000000E+000
 0.000000E+000
 0.000000E+000
 0.000000E+000
 0.000000E+000
 0.000000E+000
 0.000000E+000
 0.000000E+000
 0.000000E+000
 0.000000E+000
 0.000000E+000
 0.000000E+000
 0.000000E+000
 0.000000E+000
 0.000000E+000
 0.000000E+000
 0.000000E+000
 0.000000E+000
 0.000000E+000
 0.000000E+000
 0.000000E+000
 0.000000E+000
 0.000000E+000
 0.000000E+000
 0.000000E+000
 0.000000E+000
 0.000000E+000
 0.000000E+000
 0.000000E+000
 0.000000E+000
 0.000000E+000
 0.000000E+000
 0.000000E+000
 0.000000E+000
 0.000000E+000
 0.000000E+000
 0.000000E+000
 0.000000E+000
 0.000000E+000
 0.000000E+000
 0.000000E+000
 0.000000E+000
 0.000000E+000
 0.000000E+000
 0.000000E+000
 0.000000E+000
 0.000000E+000
 0.000000E+000
 0.000000E+000
 0.000000E+000
 0.000000E+000
 0.000000E+000
 0.000000E+000
 0.000000E+000
 0.000000E+000
 0.000000E+000
 0.000000E+000
 0.000000E+000
 0.000000E+000
 0.000000E+000
 0.000000E+000
 0.000000E+000
 0.000000E+000
 0.000000E+000
 0.000000E+000
 0.000000E+000
 0.000000E+000
 0.000000E+000
 0.000000E+000
 0.000000E+000
 0.000000E+000
 0.000000E+000
 0.000000E+000
 0.000000E+000
 0.000000E+000
 0.000000E+000
 0.000000E+000
 0.000000E+000
 0.000000E+000
 0.000000E+000
 0.000000E+000
 0.000000E+000
 0.000000E+000
 0.000000E+000
 0.000000E+000
 0.000000E+000
 0.000000E+000
 0.000000E+000
 0.000000E+000
 0.000000E+000
 0.000000E+000
 0.000000E+000
 0.000000E+000
 0.000000E+000
 0.000000E+000
 0.000000E+000
 0.000000E+000
 0.000000E+000
 0.000000E+000
 0.000000E+000
 0.000000E+000
 0.000000E+000
 0.000000E+000
 0.000000E+000
 0.000000E+000
 0.000000E+000
 0.000000E+000
 0.000000E+000
 0.000000E+000
 0.000000E+000
 0.000000E+000
 0.000000E+000
 0.000000E+000
 0.000000E+000
 0.000000E+000
 0.000000E+000
 0.000000E+000
 0.000000E+000
 0.000000E+000
 0.000000E+000
 0.000000E+000
 0.000000E+000
 0.000000E+000
 0.000000E+000
 0.000000E+000
 0.000000E+000
 0.000000E+000
 0.000000E+000
 0.000000E+000
 0.000000E+000
 0.000000E+000
 0.000000E+000
 0.000000E+000
 0.000000E+000
 0.000000E+000
 0.000000E+000
 0.000000E+000
 0.000000E+000
 0.000000E+000
 0.000000E+000
 0.000000E+000
 0.000000E+000
 0.000000E+000
 0.000000E+000
 0.000000E+000
 0.000000E+000
 0.000000E+000
 0.000000E+000
 0.000000E+000
 0.000000E+000
 0.000000E+000
 0.000000E+000
 0.000000E+000
 0.000000E+000
 0.000000E+000
 0.000000E+000
 0.000000E+000
 0.000000E+000
 0.000000E+000
 0.000000E+000
 0.000000E+000
 0.000000E+000
 0.000000E+000
 0.000000E+000
 0.000000E+000
 0.000000E+000
 0.000000E+000
 0.000000E+000
 0.000000E+000
 0.000000E+000
 0.000000E+000
 0.000000E+000
 0.000000E+000
 0.000000E+000
 0.000000E+000
 0.000000E+000
 0.000000E+000
 0.000000E+000
 0.000000E+000
 0.000000E+000
 0.000000E+000
 0.000000E+000
 0.000000E+000
 0.000000E+000
 0.000000E+000
 0.000000E+000
 0.000000E+000
 0.000000E+000
 0.000000E+000
 0.000000E+000
 0.000000E+000
 0.000000E+000
 0.000000E+000
 0.000000E+000
 0.000000E+000
 0.000000E+000
 0.000000E+000
 0.000000E+000
 0.000000E+000
 0.000000E+000
 0.000000E+000
 0.000000E+000
 0.000000E+000
 0.000000E+000
 0.000000E+000
 0.000000E+000
 0.000000E+000
 0.000000E+000
 0.000000E+000
 0.000000E+000
 0.000000E+000
 0.000000E+000
 0.000000E+000
 0.000000E+000
 0.000000E+000
 0.000000E+000
 0.000000E+000
 0.000000E+000
 0.000000E+000
 0.000000E+000
 0.000000E+000
 0.000000E+000
 0.000000E+000
 0.000000E+000
 0.000000E+000
 0.000000E+000
 0.000000E+000
 0.000000E+000
 0.000000E+000
 0.000000E+000
 0.000000E+000
 0.000000E+000
 0.000000E+000
 0.000000E+000
 0.000000E+000
 0.000000E+000
 0.000000E+000
 0.000000E+000
 0.000000E+000
 0.000000E+000
 0.000000E+000
 0.000000E+000
 0.000000E+000
 0.000000E+000
 0.000000E+000
 0.000000E+000
 0.000000E+000
 0.000000E+000
 0.000000E+000
 0.000000E+000
 0.000000E+000
 0.000000E+000
 0.000000E+000
 0.000000E+000
 0.000000E+000
 0.000000E+000
 0.000000E+000
 0.000000E+000
 0.000000E+000
 0.000000E+000
 0.000000E+000
 0.000000E+000
 0.000000E+000
 0.000000E+000
 0.000000E+000
 0.000000E+000
 0.000000E+000
 0.000000E+000
 0.000000E+000
 0.000000E+000
 0.000000E+000
 0.000000E+000
 0.000000E+000
 0.000000E+000
 0.000000E+000
 0.000000E+000
 0.000000E+000
 0.000000E+000
 0.000000E+000
 0.000000E+000
 0.000000E+000
 0.000000E+000
 0.000000E+000
 0.000000E+000
 0.000000E+000
 0.000000E+000
 0.000000E+000
 0.000000E+000
 0.000000E+000
 0.000000E+000
 0.000000E+000
 0.000000E+000
 0.000000E+000
 0.000000E+000
 0.000000E+000
 0.000000E+000
 0.000000E+000
 0.000000E+000
 0.000000E+000
 0.000000E+000
 0.000000E+000
 0.000000E+000
 0.000000E+000
 0.000000E+000
 0.000000E+000
 0.000000E+000
 0.000000E+000
 0.000000E+000
 0.000000E+000
 0.000000E+000
 0.000000E+000
 0.000000E+000
 0.000000E+000
 0.000000E+000
 0.000000E+000
 0.000000E+000
 0.000000E+000
 0.000000E+000
 0.000000E+000
 0.000000E+000
 0.000000E+000
 0.000000E+000
 0.000000E+000
 0.000000E+000
 0.000000E+000
 0.000000E+000
 0.000000E+000
 0.000000E+000
 0.000000E+000
 0.000000E+000
 0.000000E+000
 0.000000E+000
 0.000000E+000
 0.000000E+000
 0.000000E+000
 0.000000E+000
 0.000000E+000
 0.000000E+000
 0.000000E+000
 0.000000E+000
 0.000000E+000
 0.000000E+000
 0.000000E+000
 0.000000E+000
 0.000000E+000
 0.000000E+000
 0.000000E+000
 0.000000E+000
 0.000000E+000
 0.000000E+000
 0.000000E+000
 0.000000E+000
 0.000000E+000
 0.000000E+000
 0.000000E+000
 0.000000E+000
 0.000000E+000
 0.000000E+000
 0.000000E+000
 0.000000E+000
 0.000000E+000
 0.000000E+000
 0.000000E+000
 0.000000E+000
 0.000000E+000
 0.000000E+000
 0.000000E+000
 0.000000E+000
 0.000000E+000
 0.000000E+000
 0.000000E+000
 0.000000E+000
 0.000000E+000
 0.000000E+000
 0.000000E+000
 0.000000E+000
 0.000000E+000
 0.000000E+000
 0.000000E+000
 0.000000E+000
 0.000000E+000
 0.000000E+000
 0.000000E+000
 0.000000E+000
 0.000000E+000
 0.000000E+000
 0.000000E+000
 0.000000E+000
 0.000000E+000
 0.000000E+000
 0.000000E+000
 0.000000E+000
 0.000000E+000
 0.000000E+000
 0.000000E+000
 0.000000E+000
 0.000000E+000
 0.000000E+000
 0.000000E+000
 0.000000E+000
 0.000000E+000
 0.000000E+000
 0.000000E+000
 0.000000E+000
 0.000000E+000
 0.000000E+000
 0.000000E+000
 0.000000E+000
 0.000000E+000
 0.000000E+000
 0.000000E+000
 0.000000E+000
 0.000000E+000
 0.000000E+000
 0.000000E+000
 0.000000E+000
 0.000000E+000
 0.000000E+000
 0.000000E+000
 0.000000E+000
 0.000000E+000
 0.000000E+000
 0.000000E+000
 0.000000E+000
 0.000000E+000
 0.000000E+000
 0.000000E+000
 0.000000E+000
 0.000000E+000
 0.000000E+000
 0.000000E+000
 0.000000E+000
 0.000000E+000
 0.000000E+000
 0.000000E+000
 0.000000E+000
 0.000000E+000
 0.000000E+000
 0.000000E+000
 0.000000E+000
 0.000000E+000
 0.000000E+000
 0.000000E+000
 0.000000E+000
 0.000000E+000
 0.000000E+000
 0.000000E+000
 0.000000E+000
 0.000000E+000
 0.000000E+000
 0.000000E+000
 0.000000E+000
 0.000000E+000
 0.000000E+000
 0.000000E+000
 0.000000E+000
 0.000000E+000
 0.000000E+000
 0.000000E+000
 0.000000E+000
 0.000000E+000
 0.000000E+000
 0.000000E+000
 0.000000E+000
 0.000000E+000
 0.000000E+000
 0.000000E+000
 0.000000E+000
 0.000000E+000
 0.000000E+000
 0.000000E+000
 0.000000E+000
 0.000000E+000
 0.000000E+000
 0.000000E+000
 0.000000E+000
 0.000000E+000
 0.000000E+000
 0.000000E+000
 0.000000E+000
 0.000000E+000
 0.000000E+000
 0.000000E+000
 0.000000E+000
 0.000000E+000
 0.000000E+000
 0.000000E+000
 0.000000E+000
 0.000000E+000
 0.000000E+000
 0.000000E+000
 0.000000E+000
 0.000000E+000
 0.000000E+000
 0.000000E+000
 0.000000E+000
 0.000000E+000
 0.000000E+000
 0.000000E+000
 0.000000E+000
 0.000000E+000
 0.000000E+000
 0.000000E+000
 0.000000E+000
 0.000000E+000
 0.000000E+000
 0.000000E+000
 0.000000E+000
 0.000000E+000
 0.000000E+000
 0.000000E+000
 0.000000E+000
 0.000000E+000
 0.000000E+000
 0.000000E+000
 0.000000E+000
 0.000000E+000
 0.000000E+000
 0.000000E+000
 0.000000E+000
 0.000000E+000
 0.000000E+000
 0.000000E+000
 0.000000E+000
 0.000000E+000
 0.000000E+000
 0.000000E+000
 0.000000E+000
 0.000000E+000
 0.000000E+000
 0.000000E+000
 0.000000E+000
 0.000000E+000
 0.000000E+000
 0.000000E+000
 0.000000E+000
 0.000000E+000
 0.000000E+000
 0.000000E+000
 0.000000E+000
 0.000000E+000
 0.000000E+000
 0.000000E+000
 0.000000E+000
 0.000000E+000
 0.000000E+000
 0.000000E+000
 0.000000E+000
 0.000000E+000
 0.000000E+000
 0.000000E+000
 0.000000E+000
 0.000000E+000
 0.000000E+000
 0.000000E+000
 0.000000E+000
 0.000000E+000
 0.000000E+000
 0.000000E+000
 0.000000E+000
 0.000000E+000
 0.000000E+000
 0.000000E+000
 0.000000E+000
 0.000000E+000
 0.000000E+000
 0.000000E+000
 0.000000E+000
 0.000000E+000
 0.000000E+000
 0.000000E+000
 0.000000E+000
 0.000000E+000
 0.000000E+000
 0.000000E+000
 0.000000E+000
 0.000000E+000
 0.000000E+000
 0.000000E+000
 0.000000E+000
 0.000000E+000
 0.000000E+000
 0.000000E+000
 0.000000E+000
 0.000000E+000
 0.000000E+000
 0.000000E+000
 0.000000E+000
 0.000000E+000
 0.000000E+000
 0.000000E+000
 0.000000E+000
 0.000000E+000
 0.000000E+000
 0.000000E+000
 0.000000E+000
 0.000000E+000
 0.000000E+000
 0.000000E+000
 0.000000E+000
 0.000000E+000
 0.000000E+000
 0.000000E+000
 0.000000E+000
 0.000000E+000
 0.000000E+000
 0.000000E+000
 0.000000E+000
 0.000000E+000
 0.000000E+000
 0.000000E+000
 0.000000E+000
 0.000000E+000
 0.000000E+000
 0.000000E+000
 0.000000E+000
 0.000000E+000
 0.000000E+000
 0.000000E+000
 0.000000E+000
 0.000000E+000
 0.000000E+000
 0.000000E+000
 0.000000E+000
 0.000000E+000
 0.000000E+000
 0.000000E+000
 0.000000E+000
 0.000000E+000
 0.000000E+000
 0.000000E+000
 0.000000E+000
 0.000000E+000
 0.000000E+000
 0.000000E+000
 0.000000E+000
 0.000000E+000
 0.000000E+000
 0.000000E+000
 0.000000E+000
 0.000000E+000
 0.000000E+000
 0.000000E+000
 0.000000E+000
 0.000000E+000
 0.000000E+000
 0.000000E+000
 0.000000E+000
 0.000000E+000
 0.000000E+000
 0.000000E+000
 0.000000E+000
 0.000000E+000
 0.000000E+000
 0.000000E+000
 0.000000E+000
 0.000000E+000
 0.000000E+000
 0.000000E+000
 0.000000E+000
 0.000000E+000
 0.000000E+000
 0.000000E+000
 0.000000E+000
 0.000000E+000
 0.000000E+000
 0.000000E+000
 0.000000E+000
 0.000000E+000
 0.000000E+000
 0.000000E+000
 0.000000E+000
 0.000000E+000
 0.000000E+000
 0.000000E+000
 0.000000E+000
 0.000000E+000
 0.000000E+000
 0.000000E+000
 0.000000E+000
 0.000000E+000
 0.000000E+000
 0.000000E+000
 0.000000E+000
 0.000000E+000
 0.000000E+000
 0.000000E+000
 0.000000E+000
 0.000000E+000
 0.000000E+000
 0.000000E+000
 0.000000E+000
 0.000000E+000
 0.000000E+000
 0.000000E+000
 0.000000E+000
 0.000000E+000
 0.000000E+000
 0.000000E+000
 0.000000E+000
 0.000000E+000
 0.000000E+000
 0.000000E+000
 0.000000E+000
 0.000000E+000
 0.000000E+000
 0.000000E+000
 0.000000E+000
 0.000000E+000
 0.000000E+000
 0.000000E+000
 0.000000E+000
 0.000000E+000
 0.000000E+000
 0.000000E+000
 0.000000E+000
 0.000000E+000
 0.000000E+000
 0.000000E+000
 0.000000E+000
 0.000000E+000
 0.000000E+000
 0.000000E+000
 0.000000E+000
 0.000000E+000
 0.000000E+000
 0.000000E+000
 0.000000E+000
 0.000000E+000
 0.000000E+000
 0.000000E+000
 0.000000E+000
 0.000000E+000
 0.000000E+000
 0.000000E+000
 0.000000E+000
 0.000000E+000
 0.000000E+000
 0.000000E+000
 0.000000E+000
 0.000000E+000
 0.000000E+000
 0.000000E+000
 0.000000E+000
 0.000000E+000
 0.000000E+000
 0.000000E+000
 0.000000E+000
 0.000000E+000
 0.000000E+000
 0.000000E+000
 0.000000E+000
 0.000000E+000
 0.000000E+000
 0.000000E+000
 0.000000E+000
 0.000000E+000
 0.000000E+000
 0.000000E+000
 0.000000E+000
 0.000000E+000
 0.000000E+000
 0.000000E+000
 0.000000E+000
 0.000000E+000
 0.000000E+000
 0.000000E+000
 0.000000E+000
 0.000000E+000
 0.000000E+000
 0.000000E+000
 0.000000E+000
 0.000000E+000
 0.000000E+000
 0.000000E+000
 0.000000E+000
 0.000000E+000
 0.000000E+000
 0.000000E+000
 0.000000E+000
 0.000000E+000
 0.000000E+000
 0.000000E+000
 0.000000E+000
 0.000000E+000
 0.000000E+000
 0.000000E+000
 0.000000E+000
 0.000000E+000
 0.000000E+000
 0.000000E+000
 0.000000E+000
 0.000000E+000
 0.000000E+000
 0.000000E+000
 0.000000E+000
 0.000000E+000
 0.000000E+000
 0.000000E+000
 0.000000E+000
 0.000000E+000
 0.000000E+000
 0.000000E+000
 0.000000E+000
 0.000000E+000
 0.000000E+000
 0.000000E+000
 0.000000E+000
 0.000000E+000
 0.000000E+000
 0.000000E+000
 0.000000E+000
 0.000000E+000
 0.000000E+000
 0.000000E+000
 0.000000E+000
 0.000000E+000
 0.000000E+000
 0.000000E+000
 0.000000E+000
 0.000000E+000
 0.000000E+000
 0.000000E+000
 0.000000E+000
 0.000000E+000
 0.000000E+000
 0.000000E+000
 0.000000E+000
 0.000000E+000
 0.000000E+000
 0.000000E+000
 0.000000E+000
 0.000000E+000
 0.000000E+000
 0.000000E+000
 0.000000E+000
 0.000000E+000
 0.000000E+000
 0.000000E+000
 0.000000E+000
 0.000000E+000
 0.000000E+000
 0.000000E+000
 0.000000E+000
 0.000000E+000
SCALARS stress_13 FLOAT     1
LOOKUP_TABLE default
 0.000000E+000
 0.000000E+000
 0.000000E+000
 0.000000E+000
 0.000000E+000
 0.000000E+000
 0.000000E+000
 0.000000E+000
 0.000000E+000
 0.000000E+000
 0.000000E+000
 0.000000E+000
 0.000000E+000
 0.000000E+000
 0.000000E+000
 0.000000E+000
 0.000000E+000
 0.000000E+000
 0.000000E+000
 0.000000E+000
 0.000000E+000
 0.000000E+000
 0.000000E+000
 0.000000E+000
 0.000000E+000
 0.000000E+000
 0.000000E+000
 0.000000E+000
 0.000000E+000
 0.000000E+000
 0.000000E+000
 0.000000E+000
 0.000000E+000
 0.000000E+000
 0.000000E+000
 0.000000E+000
 0.000000E+000
 0.000000E+000
 0.000000E+000
 0.000000E+000
 0.000000E+000
 0.000000E+000
 0.000000E+000
 0.000000E+000
 0.000000E+000
 0.000000E+000
 0.000000E+000
 0.000000E+000
 0.000000E+000
 0.000000E+000
 0.000000E+000
 0.000000E+000
 0.000000E+000
 0.000000E+000
 0.000000E+000
 0.000000E+000
 0.000000E+000
 0.000000E+000
 0.000000E+000
 0.000000E+000
 0.000000E+000
 0.000000E+000
 0.000000E+000
 0.000000E+000
 0.000000E+000
 0.000000E+000
 0.000000E+000
 0.000000E+000
 0.000000E+000
 0.000000E+000
 0.000000E+000
 0.000000E+000
 0.000000E+000
 0.000000E+000
 0.000000E+000
 0.000000E+000
 0.000000E+000
 0.000000E+000
 0.000000E+000
 0.000000E+000
 0.000000E+000
 0.000000E+000
 0.000000E+000
 0.000000E+000
 0.000000E+000
 0.000000E+000
 0.000000E+000
 0.000000E+000
 0.000000E+000
 0.000000E+000
 0.000000E+000
 0.000000E+000
 0.000000E+000
 0.000000E+000
 0.000000E+000
 0.000000E+000
 0.000000E+000
 0.000000E+000
 0.000000E+000
 0.000000E+000
 0.000000E+000
 0.000000E+000
 0.000000E+000
 0.000000E+000
 0.000000E+000
 0.000000E+000
 0.000000E+000
 0.000000E+000
 0.000000E+000
 0.000000E+000
 0.000000E+000
 0.000000E+000
 0.000000E+000
 0.000000E+000
 0.000000E+000
 0.000000E+000
 0.000000E+000
 0.000000E+000
 0.000000E+000
 0.000000E+000
 0.000000E+000
 0.000000E+000
 0.000000E+000
 0.000000E+000
 0.000000E+000
 0.000000E+000
 0.000000E+000
 0.000000E+000
 0.000000E+000
 0.000000E+000
 0.000000E+000
 0.000000E+000
 0.000000E+000
 0.000000E+000
 0.000000E+000
 0.000000E+000
 0.000000E+000
 0.000000E+000
 0.000000E+000
 0.000000E+000
 0.000000E+000
 0.000000E+000
 0.000000E+000
 0.000000E+000
 0.000000E+000
 0.000000E+000
 0.000000E+000
 0.000000E+000
 0.000000E+000
 0.000000E+000
 0.000000E+000
 0.000000E+000
 0.000000E+000
 0.000000E+000
 0.000000E+000
 0.000000E+000
 0.000000E+000
 0.000000E+000
 0.000000E+000
 0.000000E+000
 0.000000E+000
 0.000000E+000
 0.000000E+000
 0.000000E+000
 0.000000E+000
 0.000000E+000
 0.000000E+000
 0.000000E+000
 0.000000E+000
 0.000000E+000
 0.000000E+000
 0.000000E+000
 0.000000E+000
 0.000000E+000
 0.000000E+000
 0.000000E+000
 0.000000E+000
 0.000000E+000
 0.000000E+000
 0.000000E+000
 0.000000E+000
 0.000000E+000
 0.000000E+000
 0.000000E+000
 0.000000E+000
 0.000000E+000
 0.000000E+000
 0.000000E+000
 0.000000E+000
 0.000000E+000
 0.000000E+000
 0.000000E+000
 0.000000E+000
 0.000000E+000
 0.000000E+000
 0.000000E+000
 0.000000E+000
 0.000000E+000
 0.000000E+000
 0.000000E+000
 0.000000E+000
 0.000000E+000
 0.000000E+000
 0.000000E+000
 0.000000E+000
 0.000000E+000
 0.000000E+000
 0.000000E+000
 0.000000E+000
 0.000000E+000
 0.000000E+000
 0.000000E+000
 0.000000E+000
 0.000000E+000
 0.000000E+000
 0.000000E+000
 0.000000E+000
 0.000000E+000
 0.000000E+000
 0.000000E+000
 0.000000E+000
 0.000000E+000
 0.000000E+000
 0.000000E+000
 0.000000E+000
 0.000000E+000
 0.000000E+000
 0.000000E+000
 0.000000E+000
 0.000000E+000
 0.000000E+000
 0.000000E+000
 0.000000E+000
 0.000000E+000
 0.000000E+000
 0.000000E+000
 0.000000E+000
 0.000000E+000
 0.000000E+000
 0.000000E+000
 0.000000E+000
 0.000000E+000
 0.000000E+000
 0.000000E+000
 0.000000E+000
 0.000000E+000
 0.000000E+000
 0.000000E+000
 0.000000E+000
 0.000000E+000
 0.000000E+000
 0.000000E+000
 0.000000E+000
 0.000000E+000
 0.000000E+000
 0.000000E+000
 0.000000E+000
 0.000000E+000
 0.000000E+000
 0.000000E+000
 0.000000E+000
 0.000000E+000
 0.000000E+000
 0.000000E+000
 0.000000E+000
 0.000000E+000
 0.000000E+000
 0.000000E+000
 0.000000E+000
 0.000000E+000
 0.000000E+000
 0.000000E+000
 0.000000E+000
 0.000000E+000
 0.000000E+000
 0.000000E+000
 0.000000E+000
 0.000000E+000
 0.000000E+000
 0.000000E+000
 0.000000E+000
 0.000000E+000
 0.000000E+000
 0.000000E+000
 0.000000E+000
 0.000000E+000
 0.000000E+000
 0.000000E+000
 0.000000E+000
 0.000000E+000
 0.000000E+000
 0.000000E+000
 0.000000E+000
 0.000000E+000
 0.000000E+000
 0.000000E+000
 0.000000E+000
 0.000000E+000
 0.000000E+000
 0.000000E+000
 0.000000E+000
 0.000000E+000
 0.000000E+000
 0.000000E+000
 0.000000E+000
 0.000000E+000
 0.000000E+000
 0.000000E+000
 0.000000E+000
 0.000000E+000
 0.000000E+000
 0.000000E+000
 0.000000E+000
 0.000000E+000
 0.000000E+000
 0.000000E+000
 0.000000E+000
 0.000000E+000
 0.000000E+000
 0.000000E+000
 0.000000E+000
 0.000000E+000
 0.000000E+000
 0.000000E+000
 0.000000E+000
 0.000000E+000
 0.000000E+000
 0.000000E+000
 0.000000E+000
 0.000000E+000
 0.000000E+000
 0.000000E+000
 0.000000E+000
 0.000000E+000
 0.000000E+000
 0.000000E+000
 0.000000E+000
 0.000000E+000
 0.000000E+000
 0.000000E+000
 0.000000E+000
 0.000000E+000
 0.000000E+000
 0.000000E+000
 0.000000E+000
 0.000000E+000
 0.000000E+000
 0.000000E+000
 0.000000E+000
 0.000000E+000
 0.000000E+000
 0.000000E+000
 0.000000E+000
 0.000000E+000
 0.000000E+000
 0.000000E+000
 0.000000E+000
 0.000000E+000
 0.000000E+000
 0.000000E+000
 0.000000E+000
 0.000000E+000
 0.000000E+000
 0.000000E+000
 0.000000E+000
 0.000000E+000
 0.000000E+000
 0.000000E+000
 0.000000E+000
 0.000000E+000
 0.000000E+000
 0.000000E+000
 0.000000E+000
 0.000000E+000
 0.000000E+000
 0.000000E+000
 0.000000E+000
 0.000000E+000
 0.000000E+000
 0.000000E+000
 0.000000E+000
 0.000000E+000
 0.000000E+000
 0.000000E+000
 0.000000E+000
 0.000000E+000
 0.000000E+000
 0.000000E+000
 0.000000E+000
 0.000000E+000
 0.000000E+000
 0.000000E+000
 0.000000E+000
 0.000000E+000
 0.000000E+000
 0.000000E+000
 0.000000E+000
 0.000000E+000
 0.000000E+000
 0.000000E+000
 0.000000E+000
 0.000000E+000
 0.000000E+000
 0.000000E+000
 0.000000E+000
 0.000000E+000
 0.000000E+000
 0.000000E+000
 0.000000E+000
 0.000000E+000
 0.000000E+000
 0.000000E+000
 0.000000E+000
 0.000000E+000
 0.000000E+000
 0.000000E+000
 0.000000E+000
 0.000000E+000
 0.000000E+000
 0.000000E+000
 0.000000E+000
 0.000000E+000
 0.000000E+000
 0.000000E+000
 0.000000E+000
 0.000000E+000
 0.000000E+000
 0.000000E+000
 0.000000E+000
 0.000000E+000
 0.000000E+000
 0.000000E+000
 0.000000E+000
 0.000000E+000
 0.000000E+000
 0.000000E+000
 0.000000E+000
 0.000000E+000
 0.000000E+000
 0.000000E+000
 0.000000E+000
 0.000000E+000
 0.000000E+000
 0.000000E+000
 0.000000E+000
 0.000000E+000
 0.000000E+000
 0.000000E+000
 0.000000E+000
 0.000000E+000
 0.000000E+000
 0.000000E+000
 0.000000E+000
 0.000000E+000
 0.000000E+000
 0.000000E+000
 0.000000E+000
 0.000000E+000
 0.000000E+000
 0.000000E+000
 0.000000E+000
 0.000000E+000
 0.000000E+000
 0.000000E+000
 0.000000E+000
 0.000000E+000
 0.000000E+000
 0.000000E+000
 0.000000E+000
 0.000000E+000
 0.000000E+000
 0.000000E+000
 0.000000E+000
 0.000000E+000
 0.000000E+000
 0.000000E+000
 0.000000E+000
 0.000000E+000
 0.000000E+000
 0.000000E+000
 0.000000E+000
 0.000000E+000
 0.000000E+000
 0.000000E+000
 0.000000E+000
 0.000000E+000
 0.000000E+000
 0.000000E+000
 0.000000E+000
 0.000000E+000
 0.000000E+000
 0.000000E+000
 0.000000E+000
 0.000000E+000
 0.000000E+000
 0.000000E+000
 0.000000E+000
 0.000000E+000
 0.000000E+000
 0.000000E+000
 0.000000E+000
 0.000000E+000
 0.000000E+000
 0.000000E+000
 0.000000E+000
 0.000000E+000
 0.000000E+000
 0.000000E+000
 0.000000E+000
 0.000000E+000
 0.000000E+000
 0.000000E+000
 0.000000E+000
 0.000000E+000
 0.000000E+000
 0.000000E+000
 0.000000E+000
 0.000000E+000
 0.000000E+000
 0.000000E+000
 0.000000E+000
 0.000000E+000
 0.000000E+000
 0.000000E+000
 0.000000E+000
 0.000000E+000
 0.000000E+000
 0.000000E+000
 0.000000E+000
 0.000000E+000
 0.000000E+000
 0.000000E+000
 0.000000E+000
 0.000000E+000
 0.000000E+000
 0.000000E+000
 0.000000E+000
 0.000000E+000
 0.000000E+000
 0.000000E+000
 0.000000E+000
 0.000000E+000
 0.000000E+000
 0.000000E+000
 0.000000E+000
 0.000000E+000
 0.000000E+000
 0.000000E+000
 0.000000E+000
 0.000000E+000
 0.000000E+000
 0.000000E+000
 0.000000E+000
 0.000000E+000
 0.000000E+000
 0.000000E+000
 0.000000E+000
 0.000000E+000
 0.000000E+000
 0.000000E+000
 0.000000E+000
 0.000000E+000
 0.000000E+000
 0.000000E+000
 0.000000E+000
 0.000000E+000
 0.000000E+000
 0.000000E+000
 0.000000E+000
 0.000000E+000
 0.000000E+000
 0.000000E+000
 0.000000E+000
 0.000000E+000
 0.000000E+000
 0.000000E+000
 0.000000E+000
 0.000000E+000
 0.000000E+000
 0.000000E+000
 0.000000E+000
 0.000000E+000
 0.000000E+000
 0.000000E+000
 0.000000E+000
 0.000000E+000
 0.000000E+000
 0.000000E+000
 0.000000E+000
 0.000000E+000
 0.000000E+000
 0.000000E+000
 0.000000E+000
 0.000000E+000
 0.000000E+000
 0.000000E+000
 0.000000E+000
 0.000000E+000
 0.000000E+000
 0.000000E+000
 0.000000E+000
 0.000000E+000
 0.000000E+000
 0.000000E+000
 0.000000E+000
 0.000000E+000
 0.000000E+000
 0.000000E+000
 0.000000E+000
 0.000000E+000
 0.000000E+000
 0.000000E+000
 0.000000E+000
 0.000000E+000
 0.000000E+000
 0.000000E+000
 0.000000E+000
 0.000000E+000
 0.000000E+000
 0.000000E+000
 0.000000E+000
 0.000000E+000
 0.000000E+000
 0.000000E+000
 0.000000E+000
 0.000000E+000
 0.000000E+000
 0.000000E+000
 0.000000E+000
 0.000000E+000
 0.000000E+000
 0.000000E+000
 0.000000E+000
 0.000000E+000
 0.000000E+000
 0.000000E+000
 0.000000E+000
 0.000000E+000
 0.000000E+000
 0.000000E+000
 0.000000E+000
 0.000000E+000
 0.000000E+000
 0.000000E+000
 0.000000E+000
 0.000000E+000
 0.000000E+000
 0.000000E+000
 0.000000E+000
 0.000000E+000
 0.000000E+000
 0.000000E+000
 0.000000E+000
 0.000000E+000
 0.000000E+000
 0.000000E+000
 0.000000E+000
 0.000000E+000
 0.000000E+000
 0.000000E+000
 0.000000E+000
 0.000000E+000
 0.000000E+000
 0.000000E+000
 0.000000E+000
 0.000000E+000
 0.000000E+000
 0.000000E+000
 0.000000E+000
 0.000000E+000
 0.000000E+000
 0.000000E+000
 0.000000E+000
 0.000000E+000
 0.000000E+000
 0.000000E+000
 0.000000E+000
 0.000000E+000
 0.000000E+000
 0.000000E+000
 0.000000E+000
 0.000000E+000
 0.000000E+000
 0.000000E+000
 0.000000E+000
 0.000000E+000
 0.000000E+000
 0.000000E+000
 0.000000E+000
 0.000000E+000
 0.000000E+000
 0.000000E+000
 0.000000E+000
 0.000000E+000
 0.000000E+000
 0.000000E+000
 0.000000E+000
 0.000000E+000
 0.000000E+000
 0.000000E+000
 0.000000E+000
 0.000000E+000
 0.000000E+000
 0.000000E+000
 0.000000E+000
 0.000000E+000
 0.000000E+000
 0.000000E+000
 0.000000E+000
 0.000000E+000
 0.000000E+000
 0.000000E+000
 0.000000E+000
 0.000000E+000
 0.000000E+000
 0.000000E+000
 0.000000E+000
 0.000000E+000
 0.000000E+000
 0.000000E+000
 0.000000E+000
 0.000000E+000
 0.000000E+000
 0.000000E+000
 0.000000E+000
 0.000000E+000
 0.000000E+000
 0.000000E+000
 0.000000E+000
 0.000000E+000
 0.000000E+000
 0.000000E+000
 0.000000E+000
 0.000000E+000
 0.000000E+000
 0.000000E+000
 0.000000E+000
 0.000000E+000
 0.000000E+000
 0.000000E+000
 0.000000E+000
 0.000000E+000
 0.000000E+000
 0.000000E+000
 0.000000E+000
 0.000000E+000
 0.000000E+000
 0.000000E+000
 0.000000E+000
 0.000000E+000
 0.000000E+000
 0.000000E+000
 0.000000E+000
 0.000000E+000
 0.000000E+000
 0.000000E+000
 0.000000E+000
 0.000000E+000
 0.000000E+000
 0.000000E+000
 0.000000E+000
 0.000000E+000
 0.000000E+000
 0.000000E+000
 0.000000E+000
 0.000000E+000
 0.000000E+000
 0.000000E+000
 0.000000E+000
 0.000000E+000
 0.000000E+000
 0.000000E+000
 0.000000E+000
 0.000000E+000
 0.000000E+000
 0.000000E+000
 0.000000E+000
 0.000000E+000
 0.000000E+000
 0.000000E+000
 0.000000E+000
 0.000000E+000
 0.000000E+000
 0.000000E+000
 0.000000E+000
 0.000000E+000
 0.000000E+000
 0.000000E+000
 0.000000E+000
 0.000000E+000
 0.000000E+000
 0.000000E+000
 0.000000E+000
 0.000000E+000
 0.000000E+000
 0.000000E+000
 0.000000E+000
 0.000000E+000
 0.000000E+000
 0.000000E+000
 0.000000E+000
 0.000000E+000
 0.000000E+000
 0.000000E+000
 0.000000E+000
 0.000000E+000
 0.000000E+000
 0.000000E+000
 0.000000E+000
 0.000000E+000
 0.000000E+000
 0.000000E+000
 0.000000E+000
 0.000000E+000
 0.000000E+000
 0.000000E+000
 0.000000E+000
 0.000000E+000
 0.000000E+000
 0.000000E+000
 0.000000E+000
 0.000000E+000
 0.000000E+000
 0.000000E+000
 0.000000E+000
 0.000000E+000
 0.000000E+000
 0.000000E+000
 0.000000E+000
 0.000000E+000
 0.000000E+000
 0.000000E+000
 0.000000E+000
 0.000000E+000
 0.000000E+000
 0.000000E+000
 0.000000E+000
 0.000000E+000
 0.000000E+000
 0.000000E+000
 0.000000E+000
 0.000000E+000
 0.000000E+000
 0.000000E+000
 0.000000E+000
 0.000000E+000
 0.000000E+000
 0.000000E+000
 0.000000E+000
 0.000000E+000
 0.000000E+000
 0.000000E+000
 0.000000E+000
 0.000000E+000
 0.000000E+000
 0.000000E+000
 0.000000E+000
 0.000000E+000
 0.000000E+000
 0.000000E+000
 0.000000E+000
 0.000000E+000
 0.000000E+000
 0.000000E+000
 0.000000E+000
 0.000000E+000
 0.000000E+000
 0.000000E+000
 0.000000E+000
 0.000000E+000
 0.000000E+000
 0.000000E+000
 0.000000E+000
 0.000000E+000
 0.000000E+000
 0.000000E+000
 0.000000E+000
 0.000000E+000
 0.000000E+000
 0.000000E+000
 0.000000E+000
 0.000000E+000
 0.000000E+000
 0.000000E+000
 0.000000E+000
 0.000000E+000
 0.000000E+000
 0.000000E+000
 0.000000E+000
 0.000000E+000
 0.000000E+000
 0.000000E+000
 0.000000E+000
 0.000000E+000
 0.000000E+000
 0.000000E+000
 0.000000E+000
 0.000000E+000
 0.000000E+000
 0.000000E+000
 0.000000E+000
 0.000000E+000
 0.000000E+000
 0.000000E+000
 0.000000E+000
 0.000000E+000
 0.000000E+000
 0.000000E+000
 0.000000E+000
 0.000000E+000
 0.000000E+000
 0.000000E+000
 0.000000E+000
 0.000000E+000
 0.000000E+000
 0.000000E+000
 0.000000E+000
 0.000000E+000
 0.000000E+000
 0.000000E+000
 0.000000E+000
 0.000000E+000
 0.000000E+000
 0.000000E+000
 0.000000E+000
 0.000000E+000
 0.000000E+000
 0.000000E+000
 0.000000E+000
 0.000000E+000
 0.000000E+000
 0.000000E+000
 0.000000E+000
 0.000000E+000
 0.000000E+000
 0.000000E+000
 0.000000E+000
 0.000000E+000
 0.000000E+000
 0.000000E+000
 0.000000E+000
 0.000000E+000
 0.000000E+000
 0.000000E+000
 0.000000E+000
 0.000000E+000
 0.000000E+000
 0.000000E+000
 0.000000E+000
 0.000000E+000
 0.000000E+000
 0.000000E+000
 0.000000E+000
 0.000000E+000
 0.000000E+000
 0.000000E+000
 0.000000E+000
 0.000000E+000
 0.000000E+000
 0.000000E+000
 0.000000E+000
 0.000000E+000
 0.000000E+000
 0.000000E+000
 0.000000E+000
 0.000000E+000
 0.000000E+000
 0.000000E+000
 0.000000E+000
 0.000000E+000
 0.000000E+000
 0.000000E+000
 0.000000E+000
 0.000000E+000
 0.000000E+000
 0.000000E+000
 0.000000E+000
 0.000000E+000
 0.000000E+000
 0.000000E+000
 0.000000E+000
 0.000000E+000
 0.000000E+000
 0.000000E+000
 0.000000E+000
 0.000000E+000
 0.000000E+000
 0.000000E+000
 0.000000E+000
 0.000000E+000
 0.000000E+000
 0.000000E+000
 0.000000E+000
 0.000000E+000
 0.000000E+000
 0.000000E+000
 0.000000E+000
 0.000000E+000
 0.000000E+000
 0.000000E+000
 0.000000E+000
 0.000000E+000
 0.000000E+000
 0.000000E+000
 0.000000E+000
 0.000000E+000
 0.000000E+000
 0.000000E+000
 0.000000E+000
 0.000000E+000
 0.000000E+000
 0.000000E+000
 0.000000E+000
 0.000000E+000
 0.000000E+000
 0.000000E+000
 0.000000E+000
 0.000000E+000
 0.000000E+000
 0.000000E+000
 0.000000E+000
 0.000000E+000
 0.000000E+000
 0.000000E+000
 0.000000E+000
 0.000000E+000
 0.000000E+000
 0.000000E+000
 0.000000E+000
 0.000000E+000
 0.000000E+000
 0.000000E+000
 0.000000E+000
 0.000000E+000
 0.000000E+000
 0.000000E+000
 0.000000E+000
 0.000000E+000
 0.000000E+000
 0.000000E+000
 0.000000E+000
 0.000000E+000
 0.000000E+000
 0.000000E+000
 0.000000E+000
 0.000000E+000
 0.000000E+000
 0.000000E+000
 0.000000E+000
 0.000000E+000
 0.000000E+000
 0.000000E+000
 0.000000E+000
 0.000000E+000
 0.000000E+000
 0.000000E+000
 0.000000E+000
 0.000000E+000
 0.000000E+000
 0.000000E+000
 0.000000E+000
 0.000000E+000
 0.000000E+000
 0.000000E+000
 0.000000E+000
 0.000000E+000
 0.000000E+000
 0.000000E+000
 0.000000E+000
 0.000000E+000
 0.000000E+000
 0.000000E+000
 0.000000E+000
 0.000000E+000
 0.000000E+000
 0.000000E+000
 0.000000E+000
 0.000000E+000
 0.000000E+000
 0.000000E+000
 0.000000E+000
 0.000000E+000
 0.000000E+000
 0.000000E+000
 0.000000E+000
 0.000000E+000
 0.000000E+000
 0.000000E+000
 0.000000E+000
 0.000000E+000
 0.000000E+000
 0.000000E+000
 0.000000E+000
 0.000000E+000
 0.000000E+000
 0.000000E+000
 0.000000E+000
 0.000000E+000
 0.000000E+000
 0.000000E+000
 0.000000E+000
 0.000000E+000
 0.000000E+000
 0.000000E+000
 0.000000E+000
 0.000000E+000
 0.000000E+000
 0.000000E+000
 0.000000E+000
 0.000000E+000
 0.000000E+000
 0.000000E+000
 0.000000E+000
 0.000000E+000
 0.000000E+000
 0.000000E+000
 0.000000E+000
 0.000000E+000
 0.000000E+000
 0.000000E+000
 0.000000E+000
 0.000000E+000
 0.000000E+000
 0.000000E+000
 0.000000E+000
 0.000000E+000
 0.000000E+000
 0.000000E+000
 0.000000E+000
 0.000000E+000
 0.000000E+000
 0.000000E+000
 0.000000E+000
 0.000000E+000
 0.000000E+000
 0.000000E+000
 0.000000E+000
 0.000000E+000
 0.000000E+000
 0.000000E+000
 0.000000E+000
 0.000000E+000
 0.000000E+000
 0.000000E+000
 0.000000E+000
 0.000000E+000
 0.000000E+000
 0.000000E+000
 0.000000E+000
 0.000000E+000
 0.000000E+000
 0.000000E+000
 0.000000E+000
 0.000000E+000
 0.000000E+000
 0.000000E+000
 0.000000E+000
 0.000000E+000
 0.000000E+000
 0.000000E+000
 0.000000E+000
 0.000000E+000
 0.000000E+000
 0.000000E+000
 0.000000E+000
 0.000000E+000
 0.000000E+000
 0.000000E+000
 0.000000E+000
 0.000000E+000
 0.000000E+000
 0.000000E+000
 0.000000E+000
 0.000000E+000
 0.000000E+000
 0.000000E+000
 0.000000E+000
 0.000000E+000
 0.000000E+000
 0.000000E+000
 0.000000E+000
 0.000000E+000
 0.000000E+000
 0.000000E+000
 0.000000E+000
 0.000000E+000
 0.000000E+000
 0.000000E+000
 0.000000E+000
 0.000000E+000
 0.000000E+000
 0.000000E+000
 0.000000E+000
 0.000000E+000
 0.000000E+000
 0.000000E+000
 0.000000E+000
 0.000000E+000
 0.000000E+000
 0.000000E+000
 0.000000E+000
 0.000000E+000
 0.000000E+000
 0.000000E+000
 0.000000E+000
 0.000000E+000
 0.000000E+000
 0.000000E+000
 0.000000E+000
 0.000000E+000
 0.000000E+000
 0.000000E+000
 0.000000E+000
 0.000000E+000
 0.000000E+000
 0.000000E+000
 0.000000E+000
 0.000000E+000
 0.000000E+000
 0.000000E+000
 0.000000E+000
 0.000000E+000
 0.000000E+000
 0.000000E+000
 0.000000E+000
 0.000000E+000
 0.000000E+000
 0.000000E+000
 0.000000E+000
 0.000000E+000
 0.000000E+000
 0.000000E+000
 0.000000E+000
 0.000000E+000
 0.000000E+000
 0.000000E+000
 0.000000E+000
 0.000000E+000
 0.000000E+000
 0.000000E+000
 0.000000E+000
 0.000000E+000
 0.000000E+000
 0.000000E+000
 0.000000E+000
 0.000000E+000
 0.000000E+000
 0.000000E+000
 0.000000E+000
 0.000000E+000
 0.000000E+000
 0.000000E+000
 0.000000E+000
 0.000000E+000
 0.000000E+000
 0.000000E+000
 0.000000E+000
 0.000000E+000
 0.000000E+000
 0.000000E+000
 0.000000E+000
 0.000000E+000
 0.000000E+000
 0.000000E+000
 0.000000E+000
 0.000000E+000
 0.000000E+000
 0.000000E+000
 0.000000E+000
 0.000000E+000
 0.000000E+000
 0.000000E+000
 0.000000E+000
 0.000000E+000
 0.000000E+000
 0.000000E+000
 0.000000E+000
 0.000000E+000
 0.000000E+000
 0.000000E+000
 0.000000E+000
 0.000000E+000
 0.000000E+000
 0.000000E+000
 0.000000E+000
 0.000000E+000
 0.000000E+000
 0.000000E+000
 0.000000E+000
 0.000000E+000
 0.000000E+000
 0.000000E+000
 0.000000E+000
 0.000000E+000
 0.000000E+000
 0.000000E+000
 0.000000E+000
 0.000000E+000
 0.000000E+000
 0.000000E+000
 0.000000E+000
 0.000000E+000
 0.000000E+000
 0.000000E+000
 0.000000E+000
 0.000000E+000
 0.000000E+000
 0.000000E+000
 0.000000E+000
 0.000000E+000
 0.000000E+000
 0.000000E+000
 0.000000E+000
 0.000000E+000
 0.000000E+000
 0.000000E+000
 0.000000E+000
 0.000000E+000
 0.000000E+000
 0.000000E+000
 0.000000E+000
 0.000000E+000
 0.000000E+000
 0.000000E+000
 0.000000E+000
 0.000000E+000
 0.000000E+000
 0.000000E+000
 0.000000E+000
 0.000000E+000
 0.000000E+000
 0.000000E+000
 0.000000E+000
 0.000000E+000
 0.000000E+000
 0.000000E+000
 0.000000E+000
 0.000000E+000
 0.000000E+000
 0.000000E+000
 0.000000E+000
 0.000000E+000
 0.000000E+000
 0.000000E+000
 0.000000E+000
 0.000000E+000
 0.000000E+000
 0.000000E+000
 0.000000E+000
 0.000000E+000
 0.000000E+000
 0.000000E+000
 0.000000E+000
 0.000000E+000
 0.000000E+000
 0.000000E+000
 0.000000E+000
 0.000000E+000
 0.000000E+000
 0.000000E+000
 0.000000E+000
 0.000000E+000
 0.000000E+000
 0.000000E+000
 0.000000E+000
 0.000000E+000
 0.000000E+000
 0.000000E+000
 0.000000E+000
 0.000000E+000
 0.000000E+000
 0.000000E+000
 0.000000E+000
 0.000000E+000
 0.000000E+000
 0.000000E+000
 0.000000E+000
 0.000000E+000
 0.000000E+000
 0.000000E+000
 0.000000E+000
 0.000000E+000
 0.000000E+000
 0.000000E+000
 0.000000E+000
 0.000000E+000
 0.000000E+000
 0.000000E+000
 0.000000E+000
 0.000000E+000
 0.000000E+000
 0.000000E+000
 0.000000E+000
 0.000000E+000
 0.000000E+000
 0.000000E+000
 0.000000E+000
 0.000000E+000
 0.000000E+000
 0.000000E+000
 0.000000E+000
 0.000000E+000
 0.000000E+000
 0.000000E+000
 0.000000E+000
 0.000000E+000
 0.000000E+000
 0.000000E+000
 0.000000E+000
 0.000000E+000
 0.000000E+000
 0.000000E+000
 0.000000E+000
 0.000000E+000
 0.000000E+000
 0.000000E+000
 0.000000E+000
 0.000000E+000
 0.000000E+000
 0.000000E+000
 0.000000E+000
 0.000000E+000
 0.000000E+000
 0.000000E+000
 0.000000E+000
 0.000000E+000
 0.000000E+000
 0.000000E+000
 0.000000E+000
 0.000000E+000
 0.000000E+000
 0.000000E+000
 0.000000E+000
 0.000000E+000
 0.000000E+000
 0.000000E+000
 0.000000E+000
 0.000000E+000
 0.000000E+000
 0.000000E+000
 0.000000E+000
 0.000000E+000
 0.000000E+000
 0.000000E+000
 0.000000E+000
 0.000000E+000
 0.000000E+000
 0.000000E+000
 0.000000E+000
 0.000000E+000
 0.000000E+000
 0.000000E+000
 0.000000E+000
 0.000000E+000
 0.000000E+000
 0.000000E+000
 0.000000E+000
 0.000000E+000
 0.000000E+000
 0.000000E+000
 0.000000E+000
 0.000000E+000
 0.000000E+000
 0.000000E+000
 0.000000E+000
 0.000000E+000
 0.000000E+000
 0.000000E+000
 0.000000E+000
 0.000000E+000
 0.000000E+000
 0.000000E+000
 0.000000E+000
 0.000000E+000
 0.000000E+000
 0.000000E+000
 0.000000E+000
 0.000000E+000
 0.000000E+000
 0.000000E+000
 0.000000E+000
 0.000000E+000
 0.000000E+000
 0.000000E+000
 0.000000E+000
 0.000000E+000
 0.000000E+000
 0.000000E+000
 0.000000E+000
 0.000000E+000
 0.000000E+000
 0.000000E+000
 0.000000E+000
 0.000000E+000
 0.000000E+000
 0.000000E+000
 0.000000E+000
 0.000000E+000
 0.000000E+000
 0.000000E+000
 0.000000E+000
 0.000000E+000
 0.000000E+000
 0.000000E+000
 0.000000E+000
 0.000000E+000
 0.000000E+000
 0.000000E+000
 0.000000E+000
 0.000000E+000
 0.000000E+000
 0.000000E+000
 0.000000E+000
 0.000000E+000
 0.000000E+000
 0.000000E+000
 0.000000E+000
 0.000000E+000
 0.000000E+000
 0.000000E+000
 0.000000E+000
 0.000000E+000
 0.000000E+000
 0.000000E+000
 0.000000E+000
 0.000000E+000
 0.000000E+000
 0.000000E+000
 0.000000E+000
 0.000000E+000
 0.000000E+000
 0.000000E+000
 0.000000E+000
 0.000000E+000
 0.000000E+000
 0.000000E+000
 0.000000E+000
 0.000000E+000
 0.000000E+000
 0.000000E+000
 0.000000E+000
 0.000000E+000
 0.000000E+000
 0.000000E+000
 0.000000E+000
 0.000000E+000
 0.000000E+000
 0.000000E+000
 0.000000E+000
 0.000000E+000
 0.000000E+000
 0.000000E+000
 0.000000E+000
 0.000000E+000
 0.000000E+000
 0.000000E+000
 0.000000E+000
 0.000000E+000
 0.000000E+000
 0.000000E+000
 0.000000E+000
 0.000000E+000
 0.000000E+000
 0.000000E+000
 0.000000E+000
 0.000000E+000
 0.000000E+000
 0.000000E+000
 0.000000E+000
 0.000000E+000
 0.000000E+000
 0.000000E+000
 0.000000E+000
 0.000000E+000
 0.000000E+000
 0.000000E+000
 0.000000E+000
 0.000000E+000
 0.000000E+000
 0.000000E+000
 0.000000E+000
 0.000000E+000
 0.000000E+000
 0.000000E+000
 0.000000E+000
 0.000000E+000
 0.000000E+000
 0.000000E+000
 0.000000E+000
 0.000000E+000
 0.000000E+000
 0.000000E+000
 0.000000E+000
 0.000000E+000
 0.000000E+000
 0.000000E+000
 0.000000E+000
 0.000000E+000
 0.000000E+000
 0.000000E+000
 0.000000E+000
 0.000000E+000
 0.000000E+000
 0.000000E+000
 0.000000E+000
 0.000000E+000
 0.000000E+000
 0.000000E+000
 0.000000E+000
 0.000000E+000
 0.000000E+000
 0.000000E+000
 0.000000E+000
 0.000000E+000
 0.000000E+000
 0.000000E+000
 0.000000E+000
 0.000000E+000
 0.000000E+000
 0.000000E+000
 0.000000E+000
 0.000000E+000
 0.000000E+000
 0.000000E+000
 0.000000E+000
 0.000000E+000
 0.000000E+000
 0.000000E+000
 0.000000E+000
 0.000000E+000
 0.000000E+000
 0.000000E+000
 0.000000E+000
 0.000000E+000
 0.000000E+000
 0.000000E+000
 0.000000E+000
 0.000000E+000
 0.000000E+000
 0.000000E+000
 0.000000E+000
 0.000000E+000
 0.000000E+000
 0.000000E+000
 0.000000E+000
 0.000000E+000
 0.000000E+000
 0.000000E+000
 0.000000E+000
 0.000000E+000
 0.000000E+000
 0.000000E+000
 0.000000E+000
 0.000000E+000
 0.000000E+000
 0.000000E+000
 0.000000E+000
 0.000000E+000
 0.000000E+000
 0.000000E+000
 0.000000E+000
 0.000000E+000
 0.000000E+000
 0.000000E+000
 0.000000E+000
 0.000000E+000
 0.000000E+000
 0.000000E+000
 0.000000E+000
 0.000000E+000
 0.000000E+000
 0.000000E+000
 0.000000E+000
 0.000000E+000
 0.000000E+000
 0.000000E+000
 0.000000E+000
 0.000000E+000
 0.000000E+000
 0.000000E+000
 0.000000E+000
 0.000000E+000
 0.000000E+000
 0.000000E+000
 0.000000E+000
 0.000000E+000
 0.000000E+000
 0.000000E+000
 0.000000E+000
 0.000000E+000
 0.000000E+000
 0.000000E+000
 0.000000E+000
 0.000000E+000
 0.000000E+000
 0.000000E+000
 0.000000E+000
 0.000000E+000
 0.000000E+000
 0.000000E+000
 0.000000E+000
 0.000000E+000
 0.000000E+000
 0.000000E+000
 0.000000E+000
 0.000000E+000
 0.000000E+000
 0.000000E+000
 0.000000E+000
 0.000000E+000
 0.000000E+000
 0.000000E+000
 0.000000E+000
 0.000000E+000
 0.000000E+000
 0.000000E+000
 0.000000E+000
 0.000000E+000
 0.000000E+000
 0.000000E+000
 0.000000E+000
 0.000000E+000
 0.000000E+000
 0.000000E+000
 0.000000E+000
 0.000000E+000
 0.000000E+000
 0.000000E+000
 0.000000E+000
 0.000000E+000
 0.000000E+000
 0.000000E+000
 0.000000E+000
 0.000000E+000
 0.000000E+000
 0.000000E+000
 0.000000E+000
 0.000000E+000
 0.000000E+000
 0.000000E+000
 0.000000E+000
 0.000000E+000
 0.000000E+000
 0.000000E+000
 0.000000E+000
 0.000000E+000
 0.000000E+000
 0.000000E+000
 0.000000E+000
 0.000000E+000
 0.000000E+000
 0.000000E+000
 0.000000E+000
 0.000000E+000
 0.000000E+000
 0.000000E+000
 0.000000E+000
 0.000000E+000
 0.000000E+000
 0.000000E+000
 0.000000E+000
 0.000000E+000
 0.000000E+000
 0.000000E+000
 0.000000E+000
 0.000000E+000
 0.000000E+000
 0.000000E+000
 0.000000E+000
 0.000000E+000
 0.000000E+000
 0.000000E+000
 0.000000E+000
 0.000000E+000
 0.000000E+000
 0.000000E+000
 0.000000E+000
 0.000000E+000
 0.000000E+000
 0.000000E+000
 0.000000E+000
 0.000000E+000
 0.000000E+000
 0.000000E+000
 0.000000E+000
 0.000000E+000
 0.000000E+000
 0.000000E+000
 0.000000E+000
 0.000000E+000
 0.000000E+000
 0.000000E+000
 0.000000E+000
 0.000000E+000
 0.000000E+000
 0.000000E+000
 0.000000E+000
 0.000000E+000
 0.000000E+000
 0.000000E+000
 0.000000E+000
 0.000000E+000
 0.000000E+000
 0.000000E+000
 0.000000E+000
 0.000000E+000
 0.000000E+000
 0.000000E+000
 0.000000E+000
 0.000000E+000
 0.000000E+000
 0.000000E+000
 0.000000E+000
 0.000000E+000
 0.000000E+000
 0.000000E+000
 0.000000E+000
 0.000000E+000
 0.000000E+000
 0.000000E+000
 0.000000E+000
 0.000000E+000
 0.000000E+000
 0.000000E+000
 0.000000E+000
 0.000000E+000
 0.000000E+000
 0.000000E+000
 0.000000E+000
 0.000000E+000
 0.000000E+000
 0.000000E+000
 0.000000E+000
 0.000000E+000
 0.000000E+000
 0.000000E+000
 0.000000E+000
 0.000000E+000
 0.000000E+000
 0.000000E+000
 0.000000E+000
 0.000000E+000
 0.000000E+000
 0.000000E+000
 0.000000E+000
 0.000000E+000
 0.000000E+000
 0.000000E+000
 0.000000E+000
 0.000000E+000
 0.000000E+000
 0.000000E+000
 0.000000E+000
 0.000000E+000
 0.000000E+000
 0.000000E+000
 0.000000E+000
 0.000000E+000
 0.000000E+000
 0.000000E+000
 0.000000E+000
 0.000000E+000
 0.000000E+000
 0.000000E+000
 0.000000E+000
 0.000000E+000
 0.000000E+000
 0.000000E+000
 0.000000E+000
 0.000000E+000
 0.000000E+000
 0.000000E+000
 0.000000E+000
 0.000000E+000
 0.000000E+000
 0.000000E+000
 0.000000E+000
 0.000000E+000
 0.000000E+000
 0.000000E+000
 0.000000E+000
 0.000000E+000
 0.000000E+000
 0.000000E+000
 0.000000E+000
 0.000000E+000
 0.000000E+000
 0.000000E+000
 0.000000E+000
 0.000000E+000
 0.000000E+000
 0.000000E+000
 0.000000E+000
 0.000000E+000
 0.000000E+000
 0.000000E+000
 0.000000E+000
 0.000000E+000
 0.000000E+000
 0.000000E+000
 0.000000E+000
 0.000000E+000
 0.000000E+000
 0.000000E+000
 0.000000E+000
 0.000000E+000
 0.000000E+000
 0.000000E+000
 0.000000E+000
 0.000000E+000
 0.000000E+000
 0.000000E+000
 0.000000E+000
 0.000000E+000
 0.000000E+000
 0.000000E+000
 0.000000E+000
 0.000000E+000
 0.000000E+000
 0.000000E+000
 0.000000E+000
 0.000000E+000
 0.000000E+000
 0.000000E+000
 0.000000E+000
 0.000000E+000
 0.000000E+000
 0.000000E+000
 0.000000E+000
 0.000000E+000
 0.000000E+000
 0.000000E+000
 0.000000E+000
 0.000000E+000
 0.000000E+000
 0.000000E+000
 0.000000E+000
 0.000000E+000
 0.000000E+000
 0.000000E+000
 0.000000E+000
 0.000000E+000
 0.000000E+000
 0.000000E+000
 0.000000E+000
 0.000000E+000
 0.000000E+000
 0.000000E+000
 0.000000E+000
 0.000000E+000
 0.000000E+000
 0.000000E+000
 0.000000E+000
 0.000000E+000
 0.000000E+000
 0.000000E+000
 0.000000E+000
 0.000000E+000
 0.000000E+000
 0.000000E+000
 0.000000E+000
 0.000000E+000
 0.000000E+000
 0.000000E+000
 0.000000E+000
 0.000000E+000
 0.000000E+000
 0.000000E+000
 0.000000E+000
 0.000000E+000
 0.000000E+000
 0.000000E+000
 0.000000E+000
 0.000000E+000
 0.000000E+000
 0.000000E+000
 0.000000E+000
 0.000000E+000
 0.000000E+000
 0.000000E+000
 0.000000E+000
 0.000000E+000
 0.000000E+000
 0.000000E+000
 0.000000E+000
 0.000000E+000
 0.000000E+000
 0.000000E+000
 0.000000E+000
 0.000000E+000
 0.000000E+000
 0.000000E+000
 0.000000E+000
 0.000000E+000
 0.000000E+000
 0.000000E+000
 0.000000E+000
 0.000000E+000
 0.000000E+000
 0.000000E+000
 0.000000E+000
 0.000000E+000
 0.000000E+000
 0.000000E+000
 0.000000E+000
 0.000000E+000
 0.000000E+000
 0.000000E+000
 0.000000E+000
 0.000000E+000
 0.000000E+000
 0.000000E+000
 0.000000E+000
 0.000000E+000
 0.000000E+000
 0.000000E+000
 0.000000E+000
 0.000000E+000
 0.000000E+000
 0.000000E+000
 0.000000E+000
 0.000000E+000
 0.000000E+000
 0.000000E+000
 0.000000E+000
 0.000000E+000
 0.000000E+000
 0.000000E+000
 0.000000E+000
 0.000000E+000
 0.000000E+000
 0.000000E+000
 0.000000E+000
 0.000000E+000
 0.000000E+000
 0.000000E+000
 0.000000E+000
 0.000000E+000
 0.000000E+000
 0.000000E+000
 0.000000E+000
 0.000000E+000
 0.000000E+000
 0.000000E+000
 0.000000E+000
 0.000000E+000
 0.000000E+000
 0.000000E+000
SCALARS stress_12 FLOAT     1
LOOKUP_TABLE default
-0.149532E-001
-0.166704E-001
-0.186963E-001
-0.211115E-001
-0.240276E-001
-0.275956E-001
-0.320308E-001
-0.376358E-001
-0.448758E-001
-0.544462E-001
-0.674540E-001
-0.860479E-001
-0.112872E+000
-0.158171E+000
-0.228803E+000
-0.409747E+000
-0.113429E-001
-0.126131E-001
-0.141298E-001
-0.159499E-001
-0.181583E-001
-0.208737E-001
-0.242714E-001
-0.285919E-001
-0.342699E-001
-0.418011E-001
-0.525730E-001
-0.677783E-001
-0.924407E-001
-0.134233E+000
-0.210291E+000
-0.449471E+000
-0.695477E-002
-0.772235E-002
-0.865677E-002
-0.979712E-002
-0.111991E-001
-0.129570E-001
-0.151792E-001
-0.181266E-001
-0.219985E-001
-0.276154E-001
-0.355555E-001
-0.482803E-001
-0.698876E-001
-0.109393E+000
-0.195868E+000
-0.479997E+000
-0.181897E-002
-0.202991E-002
-0.232085E-002
-0.270798E-002
-0.323116E-002
-0.392646E-002
-0.492916E-002
-0.631365E-002
-0.850236E-002
-0.118209E-001
-0.174213E-001
-0.274193E-001
-0.463028E-001
-0.855830E-001
-0.182813E+000
-0.505026E+000
 0.396691E-002
 0.435155E-002
 0.475009E-002
 0.515826E-002
 0.557940E-002
 0.596234E-002
 0.629053E-002
 0.637903E-002
 0.604742E-002
 0.478044E-002
 0.148257E-002
-0.599184E-002
-0.230416E-001
-0.630754E-001
-0.171750E+000
-0.522901E+000
 0.102130E-001
 0.112108E-001
 0.123107E-001
 0.135382E-001
 0.148930E-001
 0.163914E-001
 0.179745E-001
 0.195631E-001
 0.209380E-001
 0.215634E-001
 0.203817E-001
 0.148618E-001
-0.969157E-003
-0.429064E-001
-0.162261E+000
-0.532326E+000
 0.166205E-001
 0.182122E-001
 0.199970E-001
 0.220034E-001
 0.242676E-001
 0.267937E-001
 0.295681E-001
 0.325131E-001
 0.353904E-001
 0.376830E-001
 0.381902E-001
 0.341055E-001
 0.187725E-001
-0.257585E-001
-0.153742E+000
-0.531987E+000
 0.227680E-001
 0.248986E-001
 0.272953E-001
 0.300063E-001
 0.330656E-001
 0.364966E-001
 0.402916E-001
 0.443635E-001
 0.484772E-001
 0.520625E-001
 0.537860E-001
 0.505872E-001
 0.351233E-001
-0.120215E-001
-0.145403E+000
-0.520817E+000
 0.281275E-001
 0.306908E-001
 0.335844E-001
 0.368553E-001
 0.405444E-001
 0.446770E-001
 0.492403E-001
 0.541442E-001
 0.591303E-001
 0.635687E-001
 0.660159E-001
 0.631857E-001
 0.472325E-001
-0.178122E-002
-0.136398E+000
-0.498050E+000
 0.320933E-001
 0.349423E-001
 0.381613E-001
 0.417966E-001
 0.458861E-001
 0.504494E-001
 0.554684E-001
 0.608401E-001
 0.662790E-001
 0.711087E-001
 0.738098E-001
 0.709585E-001
 0.545518E-001
 0.513018E-002
-0.125914E+000
-0.463318E+000
 0.340596E-001
 0.370048E-001
 0.403367E-001
 0.440926E-001
 0.483025E-001
 0.529789E-001
 0.580940E-001
 0.635317E-001
 0.689880E-001
 0.737661E-001
 0.763296E-001
 0.732751E-001
 0.568715E-001
 0.907255E-002
-0.113276E+000
-0.416713E+000
 0.335139E-001
 0.363419E-001
 0.395444E-001
 0.431468E-001
 0.471694E-001
 0.516160E-001
 0.564506E-001
 0.615500E-001
 0.666101E-001
 0.709530E-001
 0.731123E-001
 0.699081E-001
 0.543216E-001
 0.105273E-001
-0.980292E-001
-0.358833E+000
 0.301589E-001
 0.326490E-001
 0.354719E-001
 0.386408E-001
 0.421666E-001
 0.460461E-001
 0.502395E-001
 0.546286E-001
 0.589337E-001
 0.625463E-001
 0.641749E-001
 0.610760E-001
 0.473445E-001
 0.100276E-001
-0.800045E-001
-0.290801E+000
 0.240163E-001
 0.259645E-001
 0.281753E-001
 0.306524E-001
 0.334001E-001
 0.364116E-001
 0.396507E-001
 0.430180E-001
 0.462866E-001
 0.489716E-001
 0.500604E-001
 0.474398E-001
 0.366484E-001
 0.809814E-002
-0.593571E-001
-0.214242E+000
 0.154902E-001
 0.167312E-001
 0.181404E-001
 0.197173E-001
 0.214626E-001
 0.233701E-001
 0.254141E-001
 0.275285E-001
 0.295647E-001
 0.312096E-001
 0.318173E-001
 0.300558E-001
 0.231501E-001
 0.521606E-002
-0.365590E-001
-0.131232E+000
 0.535333E-002
 0.577941E-002
 0.626349E-002
 0.680478E-002
 0.740317E-002
 0.805615E-002
 0.875457E-002
 0.947509E-002
 0.101660E-001
 0.107191E-001
 0.109123E-001
 0.102907E-001
 0.791305E-002
 0.179631E-002
-0.123501E-001
-0.441996E-001
-0.535333E-002
-0.577941E-002
-0.626349E-002
-0.680478E-002
-0.740317E-002
-0.805615E-002
-0.875457E-002
-0.947509E-002
-0.101660E-001
-0.107191E-001
-0.109123E-001
-0.102907E-001
-0.791305E-002
-0.179631E-002
 0.123501E-001
 0.441996E-001
-0.154902E-001
-0.167312E-001
-0.181404E-001
-0.197173E-001
-0.214626E-001
-0.233701E-001
-0.254141E-001
-0.275285E-001
-0.295647E-001
-0.312096E-001
-0.318173E-001
-0.300558E-001
-0.231501E-001
-0.521606E-002
 0.365590E-001
 0.131232E+000
-0.240163E-001
-0.259645E-001
-0.281753E-001
-0.306524E-001
-0.334001E-001
-0.364116E-001
-0.396507E-001
-0.430180E-001
-0.462866E-001
-0.489716E-001
-0.500604E-001
-0.474398E-001
-0.366484E-001
-0.809814E-002
 0.593571E-001
 0.214242E+000
-0.301589E-001
-0.326490E-001
-0.354719E-001
-0.386408E-001
-0.421666E-001
-0.460461E-001
-0.502395E-001
-0.546286E-001
-0.589337E-001
-0.625463E-001
-0.641749E-001
-0.610760E-001
-0.473445E-001
-0.100276E-001
 0.800045E-001
 0.290801E+000
-0.335139E-001
-0.363419E-001
-0.395444E-001
-0.431468E-001
-0.471694E-001
-0.516160E-001
-0.564506E-001
-0.615500E-001
-0.666101E-001
-0.709530E-001
-0.731123E-001
-0.699081E-001
-0.543216E-001
-0.105273E-001
 0.980292E-001
 0.358833E+000
-0.340596E-001
-0.370048E-001
-0.403367E-001
-0.440926E-001
-0.483025E-001
-0.529789E-001
-0.580940E-001
-0.635317E-001
-0.689880E-001
-0.737661E-001
-0.763296E-001
-0.732751E-001
-0.568715E-001
-0.907255E-002
 0.113276E+000
 0.416713E+000
-0.320933E-001
-0.349423E-001
-0.381613E-001
-0.417966E-001
-0.458861E-001
-0.504494E-001
-0.554684E-001
-0.608401E-001
-0.662790E-001
-0.711087E-001
-0.738098E-001
-0.709585E-001
-0.545518E-001
-0.513018E-002
 0.125914E+000
 0.463318E+000
-0.281275E-001
-0.306908E-001
-0.335844E-001
-0.368553E-001
-0.405444E-001
-0.446770E-001
-0.492403E-001
-0.541442E-001
-0.591303E-001
-0.635687E-001
-0.660159E-001
-0.631857E-001
-0.472325E-001
 0.178122E-002
 0.136398E+000
 0.498050E+000
-0.227680E-001
-0.248986E-001
-0.272953E-001
-0.300063E-001
-0.330656E-001
-0.364966E-001
-0.402916E-001
-0.443635E-001
-0.484772E-001
-0.520625E-001
-0.537860E-001
-0.505872E-001
-0.351233E-001
 0.120215E-001
 0.145403E+000
 0.520817E+000
-0.166205E-001
-0.182122E-001
-0.199970E-001
-0.220034E-001
-0.242676E-001
-0.267937E-001
-0.295681E-001
-0.325131E-001
-0.353904E-001
-0.376830E-001
-0.381902E-001
-0.341055E-001
-0.187725E-001
 0.257585E-001
 0.153742E+000
 0.531987E+000
-0.102130E-001
-0.112108E-001
-0.123107E-001
-0.135382E-001
-0.148930E-001
-0.163914E-001
-0.179745E-001
-0.195631E-001
-0.209380E-001
-0.215634E-001
-0.203817E-001
-0.148618E-001
 0.969157E-003
 0.429064E-001
 0.162261E+000
 0.532326E+000
-0.396691E-002
-0.435155E-002
-0.475009E-002
-0.515826E-002
-0.557940E-002
-0.596234E-002
-0.629053E-002
-0.637903E-002
-0.604742E-002
-0.478044E-002
-0.148257E-002
 0.599184E-002
 0.230416E-001
 0.630754E-001
 0.171750E+000
 0.522901E+000
 0.181897E-002
 0.202991E-002
 0.232085E-002
 0.270798E-002
 0.323116E-002
 0.392646E-002
 0.492916E-002
 0.631365E-002
 0.850236E-002
 0.118209E-001
 0.174213E-001
 0.274193E-001
 0.463028E-001
 0.855830E-001
 0.182813E+000
 0.505026E+000
 0.695477E-002
 0.772235E-002
 0.865677E-002
 0.979712E-002
 0.111991E-001
 0.129570E-001
 0.151792E-001
 0.181266E-001
 0.219985E-001
 0.276154E-001
 0.355555E-001
 0.482803E-001
 0.698876E-001
 0.109393E+000
 0.195868E+000
 0.479997E+000
 0.113429E-001
 0.126131E-001
 0.141298E-001
 0.159499E-001
 0.181583E-001
 0.208737E-001
 0.242714E-001
 0.285919E-001
 0.342699E-001
 0.418011E-001
 0.525730E-001
 0.677783E-001
 0.924407E-001
 0.134233E+000
 0.210291E+000
 0.449471E+000
 0.149532E-001
 0.166704E-001
 0.186963E-001
 0.211115E-001
 0.240276E-001
 0.275956E-001
 0.320308E-001
 0.376358E-001
 0.448758E-001
 0.544462E-001
 0.674540E-001
 0.860479E-001
 0.112872E+000
 0.158171E+000
 0.228803E+000
 0.409747E+000
 0.191066E-001
 0.213064E-001
 0.238918E-001
 0.269636E-001
 0.306601E-001
 0.351678E-001
 0.407451E-001
 0.477583E-001
 0.567326E-001
 0.684768E-001
 0.841862E-001
 0.105893E+000
 0.136952E+000
 0.182740E+000
 0.256605E+000
 0.365735E+000
 0.247932E-001
 0.276063E-001
 0.309126E-001
 0.348333E-001
 0.395385E-001
 0.452510E-001
 0.522932E-001
 0.610617E-001
 0.722502E-001
 0.865548E-001
 0.105699E+000
 0.130836E+000
 0.166689E+000
 0.213547E+000
 0.286394E+000
 0.325069E+000
 0.311441E-001
 0.346284E-001
 0.387095E-001
 0.435391E-001
 0.493118E-001
 0.563065E-001
 0.648477E-001
 0.754922E-001
 0.887796E-001
 0.105891E+000
 0.127847E+000
 0.156892E+000
 0.195348E+000
 0.244409E+000
 0.307015E+000
 0.285314E+000
 0.380562E-001
 0.422431E-001
 0.471341E-001
 0.529013E-001
 0.597831E-001
 0.680583E-001
 0.781621E-001
 0.905639E-001
 0.106052E+000
 0.125586E+000
 0.150335E+000
 0.182471E+000
 0.222682E+000
 0.272146E+000
 0.320070E+000
 0.243222E+000
 0.453308E-001
 0.502251E-001
 0.559239E-001
 0.626315E-001
 0.705904E-001
 0.801446E-001
 0.916975E-001
 0.105816E+000
 0.123275E+000
 0.144921E+000
 0.172168E+000
 0.206250E+000
 0.247503E+000
 0.294874E+000
 0.324791E+000
 0.200793E+000
 0.526559E-001
 0.582218E-001
 0.646909E-001
 0.722743E-001
 0.812506E-001
 0.919565E-001
 0.104828E+000
 0.120457E+000
 0.139522E+000
 0.162969E+000
 0.191910E+000
 0.227021E+000
 0.268204E+000
 0.310670E+000
 0.321495E+000
 0.159427E+000
 0.595865E-001
 0.657459E-001
 0.728851E-001
 0.812343E-001
 0.910714E-001
 0.102741E+000
 0.116695E+000
 0.133470E+000
 0.153752E+000
 0.178387E+000
 0.208145E+000
 0.243359E+000
 0.282905E+000
 0.318287E+000
 0.310690E+000
 0.120561E+000
 0.655473E-001
 0.721624E-001
 0.798177E-001
 0.887417E-001
 0.992099E-001
 0.111568E+000
 0.126233E+000
 0.143721E+000
 0.164661E+000
 0.189721E+000
 0.219407E+000
 0.253621E+000
 0.289950E+000
 0.316977E+000
 0.293122E+000
 0.854657E-001
 0.698453E-001
 0.767243E-001
 0.846719E-001
 0.939081E-001
 0.104698E+000
 0.117362E+000
 0.132286E+000
 0.149941E+000
 0.170852E+000
 0.195515E+000
 0.224182E+000
 0.256236E+000
 0.288077E+000
 0.306463E+000
 0.269691E+000
 0.552063E-001
 0.717298E-001
 0.786226E-001
 0.865771E-001
 0.957953E-001
 0.106516E+000
 0.119029E+000
 0.133678E+000
 0.150862E+000
 0.170995E+000
 0.194410E+000
 0.221098E+000
 0.249945E+000
 0.276515E+000
 0.286889E+000
 0.241388E+000
 0.305607E-001
 0.704760E-001
 0.770883E-001
 0.847143E-001
 0.935266E-001
 0.103732E+000
 0.115580E+000
 0.129360E+000
 0.145393E+000
 0.163986E+000
 0.185316E+000
 0.209140E+000
 0.233985E+000
 0.255047E+000
 0.258777E+000
 0.209229E+000
 0.119634E-001
 0.655126E-001
 0.715237E-001
 0.784544E-001
 0.864426E-001
 0.956576E-001
 0.106302E+000
 0.118607E+000
 0.132817E+000
 0.149138E+000
 0.167620E+000
 0.187853E+000
 0.208214E+000
 0.224009E+000
 0.222967E+000
 0.174180E+000
-0.540032E-003
 0.565592E-001
 0.616477E-001
 0.675152E-001
 0.742626E-001
 0.820191E-001
 0.909395E-001
 0.101197E+000
 0.112964E+000
 0.126365E+000
 0.141361E+000
 0.157479E+000
 0.173166E+000
 0.184283E+000
 0.180560E+000
 0.137097E+000
-0.731390E-002
 0.437504E-001
 0.476242E-001
 0.520922E-001
 0.572208E-001
 0.630997E-001
 0.698368E-001
 0.775506E-001
 0.863523E-001
 0.963060E-001
 0.107335E+000
 0.119007E+000
 0.130049E+000
 0.137236E+000
 0.132854E+000
 0.986841E-001
-0.912397E-002
 0.277021E-001
 0.301275E-001
 0.329257E-001
 0.361334E-001
 0.398030E-001
 0.439978E-001
 0.487861E-001
 0.542291E-001
 0.603536E-001
 0.670914E-001
 0.741432E-001
 0.806763E-001
 0.846482E-001
 0.812797E-001
 0.594785E-001
-0.709603E-002
 0.948809E-002
 0.103139E-001
 0.112669E-001
 0.123587E-001
 0.136063E-001
 0.150306E-001
 0.166539E-001
 0.184955E-001
 0.205623E-001
 0.228275E-001
 0.251845E-001
 0.273439E-001
 0.286069E-001
 0.273558E-001
 0.198671E-001
-0.264198E-002
-0.948809E-002
-0.103139E-001
-0.112669E-001
-0.123587E-001
-0.136063E-001
-0.150306E-001
-0.166539E-001
-0.184955E-001
-0.205623E-001
-0.228275E-001
-0.251845E-001
-0.273439E-001
-0.286069E-001
-0.273558E-001
-0.198671E-001
 0.264198E-002
-0.277021E-001
-0.301275E-001
-0.329257E-001
-0.361334E-001
-0.398030E-001
-0.439978E-001
-0.487861E-001
-0.542291E-001
-0.603536E-001
-0.670914E-001
-0.741432E-001
-0.806763E-001
-0.846482E-001
-0.812797E-001
-0.594785E-001
 0.709603E-002
-0.437504E-001
-0.476242E-001
-0.520922E-001
-0.572208E-001
-0.630997E-001
-0.698368E-001
-0.775506E-001
-0.863523E-001
-0.963060E-001
-0.107335E+000
-0.119007E+000
-0.130049E+000
-0.137236E+000
-0.132854E+000
-0.986841E-001
 0.912397E-002
-0.565592E-001
-0.616477E-001
-0.675152E-001
-0.742626E-001
-0.820191E-001
-0.909395E-001
-0.101197E+000
-0.112964E+000
-0.126365E+000
-0.141361E+000
-0.157479E+000
-0.173166E+000
-0.184283E+000
-0.180560E+000
-0.137097E+000
 0.731390E-002
-0.655126E-001
-0.715237E-001
-0.784544E-001
-0.864426E-001
-0.956576E-001
-0.106302E+000
-0.118607E+000
-0.132817E+000
-0.149138E+000
-0.167620E+000
-0.187853E+000
-0.208214E+000
-0.224009E+000
-0.222967E+000
-0.174180E+000
 0.540032E-003
-0.704760E-001
-0.770883E-001
-0.847143E-001
-0.935266E-001
-0.103732E+000
-0.115580E+000
-0.129360E+000
-0.145393E+000
-0.163986E+000
-0.185316E+000
-0.209140E+000
-0.233985E+000
-0.255047E+000
-0.258777E+000
-0.209229E+000
-0.119634E-001
-0.717298E-001
-0.786226E-001
-0.865771E-001
-0.957953E-001
-0.106516E+000
-0.119029E+000
-0.133678E+000
-0.150862E+000
-0.170995E+000
-0.194410E+000
-0.221098E+000
-0.249945E+000
-0.276515E+000
-0.286889E+000
-0.241388E+000
-0.305607E-001
-0.698453E-001
-0.767243E-001
-0.846719E-001
-0.939081E-001
-0.104698E+000
-0.117362E+000
-0.132286E+000
-0.149941E+000
-0.170852E+000
-0.195515E+000
-0.224182E+000
-0.256236E+000
-0.288077E+000
-0.306463E+000
-0.269691E+000
-0.552063E-001
-0.655473E-001
-0.721624E-001
-0.798177E-001
-0.887417E-001
-0.992099E-001
-0.111568E+000
-0.126233E+000
-0.143721E+000
-0.164661E+000
-0.189721E+000
-0.219407E+000
-0.253621E+000
-0.289950E+000
-0.316977E+000
-0.293122E+000
-0.854657E-001
-0.595865E-001
-0.657459E-001
-0.728851E-001
-0.812343E-001
-0.910714E-001
-0.102741E+000
-0.116695E+000
-0.133470E+000
-0.153752E+000
-0.178387E+000
-0.208145E+000
-0.243359E+000
-0.282905E+000
-0.318287E+000
-0.310690E+000
-0.120561E+000
-0.526559E-001
-0.582218E-001
-0.646909E-001
-0.722743E-001
-0.812506E-001
-0.919565E-001
-0.104828E+000
-0.120457E+000
-0.139522E+000
-0.162969E+000
-0.191910E+000
-0.227021E+000
-0.268204E+000
-0.310670E+000
-0.321495E+000
-0.159427E+000
-0.453308E-001
-0.502251E-001
-0.559239E-001
-0.626315E-001
-0.705904E-001
-0.801446E-001
-0.916975E-001
-0.105816E+000
-0.123275E+000
-0.144921E+000
-0.172168E+000
-0.206250E+000
-0.247503E+000
-0.294874E+000
-0.324791E+000
-0.200793E+000
-0.380562E-001
-0.422431E-001
-0.471341E-001
-0.529013E-001
-0.597831E-001
-0.680583E-001
-0.781621E-001
-0.905639E-001
-0.106052E+000
-0.125586E+000
-0.150335E+000
-0.182471E+000
-0.222682E+000
-0.272146E+000
-0.320070E+000
-0.243222E+000
-0.311441E-001
-0.346284E-001
-0.387095E-001
-0.435391E-001
-0.493118E-001
-0.563065E-001
-0.648477E-001
-0.754922E-001
-0.887796E-001
-0.105891E+000
-0.127847E+000
-0.156892E+000
-0.195348E+000
-0.244409E+000
-0.307015E+000
-0.285314E+000
-0.247932E-001
-0.276063E-001
-0.309126E-001
-0.348333E-001
-0.395385E-001
-0.452510E-001
-0.522932E-001
-0.610617E-001
-0.722502E-001
-0.865548E-001
-0.105699E+000
-0.130836E+000
-0.166689E+000
-0.213547E+000
-0.286394E+000
-0.325069E+000
-0.191066E-001
-0.213064E-001
-0.238918E-001
-0.269636E-001
-0.306601E-001
-0.351678E-001
-0.407451E-001
-0.477583E-001
-0.567326E-001
-0.684768E-001
-0.841862E-001
-0.105893E+000
-0.136952E+000
-0.182740E+000
-0.256605E+000
-0.365735E+000
-0.149532E-001
-0.166704E-001
-0.186963E-001
-0.211115E-001
-0.240276E-001
-0.275956E-001
-0.320308E-001
-0.376358E-001
-0.448758E-001
-0.544462E-001
-0.674540E-001
-0.860479E-001
-0.112872E+000
-0.158171E+000
-0.228803E+000
-0.409747E+000
-0.113429E-001
-0.126131E-001
-0.141298E-001
-0.159499E-001
-0.181583E-001
-0.208737E-001
-0.242714E-001
-0.285919E-001
-0.342699E-001
-0.418011E-001
-0.525730E-001
-0.677783E-001
-0.924407E-001
-0.134233E+000
-0.210291E+000
-0.449471E+000
-0.695477E-002
-0.772235E-002
-0.865677E-002
-0.979712E-002
-0.111991E-001
-0.129570E-001
-0.151792E-001
-0.181266E-001
-0.219985E-001
-0.276154E-001
-0.355555E-001
-0.482803E-001
-0.698876E-001
-0.109393E+000
-0.195868E+000
-0.479997E+000
-0.181897E-002
-0.202991E-002
-0.232085E-002
-0.270798E-002
-0.323116E-002
-0.392646E-002
-0.492916E-002
-0.631365E-002
-0.850236E-002
-0.118209E-001
-0.174213E-001
-0.274193E-001
-0.463028E-001
-0.855830E-001
-0.182813E+000
-0.505026E+000
 0.396691E-002
 0.435155E-002
 0.475009E-002
 0.515826E-002
 0.557940E-002
 0.596234E-002
 0.629053E-002
 0.637903E-002
 0.604742E-002
 0.478044E-002
 0.148257E-002
-0.599184E-002
-0.230416E-001
-0.630754E-001
-0.171750E+000
-0.522901E+000
 0.102130E-001
 0.112108E-001
 0.123107E-001
 0.135382E-001
 0.148930E-001
 0.163914E-001
 0.179745E-001
 0.195631E-001
 0.209380E-001
 0.215634E-001
 0.203817E-001
 0.148618E-001
-0.969157E-003
-0.429064E-001
-0.162261E+000
-0.532326E+000
 0.166205E-001
 0.182122E-001
 0.199970E-001
 0.220034E-001
 0.242676E-001
 0.267937E-001
 0.295681E-001
 0.325131E-001
 0.353904E-001
 0.376830E-001
 0.381902E-001
 0.341055E-001
 0.187725E-001
-0.257585E-001
-0.153742E+000
-0.531987E+000
 0.227680E-001
 0.248986E-001
 0.272953E-001
 0.300063E-001
 0.330656E-001
 0.364966E-001
 0.402916E-001
 0.443635E-001
 0.484772E-001
 0.520625E-001
 0.537860E-001
 0.505872E-001
 0.351233E-001
-0.120215E-001
-0.145403E+000
-0.520817E+000
 0.281275E-001
 0.306908E-001
 0.335844E-001
 0.368553E-001
 0.405444E-001
 0.446770E-001
 0.492403E-001
 0.541442E-001
 0.591303E-001
 0.635687E-001
 0.660159E-001
 0.631857E-001
 0.472325E-001
-0.178122E-002
-0.136398E+000
-0.498050E+000
 0.320933E-001
 0.349423E-001
 0.381613E-001
 0.417966E-001
 0.458861E-001
 0.504494E-001
 0.554684E-001
 0.608401E-001
 0.662790E-001
 0.711087E-001
 0.738098E-001
 0.709585E-001
 0.545518E-001
 0.513018E-002
-0.125914E+000
-0.463318E+000
 0.340596E-001
 0.370048E-001
 0.403367E-001
 0.440926E-001
 0.483025E-001
 0.529789E-001
 0.580940E-001
 0.635317E-001
 0.689880E-001
 0.737661E-001
 0.763296E-001
 0.732751E-001
 0.568715E-001
 0.907255E-002
-0.113276E+000
-0.416713E+000
 0.335139E-001
 0.363419E-001
 0.395444E-001
 0.431468E-001
 0.471694E-001
 0.516160E-001
 0.564506E-001
 0.615500E-001
 0.666101E-001
 0.709530E-001
 0.731123E-001
 0.699081E-001
 0.543216E-001
 0.105273E-001
-0.980292E-001
-0.358833E+000
 0.301589E-001
 0.326490E-001
 0.354719E-001
 0.386408E-001
 0.421666E-001
 0.460461E-001
 0.502395E-001
 0.546286E-001
 0.589337E-001
 0.625463E-001
 0.641749E-001
 0.610760E-001
 0.473445E-001
 0.100276E-001
-0.800045E-001
-0.290801E+000
 0.240163E-001
 0.259645E-001
 0.281753E-001
 0.306524E-001
 0.334001E-001
 0.364116E-001
 0.396507E-001
 0.430180E-001
 0.462866E-001
 0.489716E-001
 0.500604E-001
 0.474398E-001
 0.366484E-001
 0.809814E-002
-0.593571E-001
-0.214242E+000
 0.154902E-001
 0.167312E-001
 0.181404E-001
 0.197173E-001
 0.214626E-001
 0.233701E-001
 0.254141E-001
 0.275285E-001
 0.295647E-001
 0.312096E-001
 0.318173E-001
 0.300558E-001
 0.231501E-001
 0.521606E-002
-0.365590E-001
-0.131232E+000
 0.535333E-002
 0.577941E-002
 0.626349E-002
 0.680478E-002
 0.740317E-002
 0.805615E-002
 0.875457E-002
 0.947509E-002
 0.101660E-001
 0.107191E-001
 0.109123E-001
 0.102907E-001
 0.791305E-002
 0.179631E-002
-0.123501E-001
-0.441996E-001
-0.535333E-002
-0.577941E-002
-0.626349E-002
-0.680478E-002
-0.740317E-002
-0.805615E-002
-0.875457E-002
-0.947509E-002
-0.101660E-001
-0.107191E-001
-0.109123E-001
-0.102907E-001
-0.791305E-002
-0.179631E-002
 0.123501E-001
 0.441996E-001
-0.154902E-001
-0.167312E-001
-0.181404E-001
-0.197173E-001
-0.214626E-001
-0.233701E-001
-0.254141E-001
-0.275285E-001
-0.295647E-001
-0.312096E-001
-0.318173E-001
-0.300558E-001
-0.231501E-001
-0.521606E-002
 0.365590E-001
 0.131232E+000
-0.240163E-001
-0.259645E-001
-0.281753E-001
-0.306524E-001
-0.334001E-001
-0.364116E-001
-0.396507E-001
-0.430180E-001
-0.462866E-001
-0.489716E-001
-0.500604E-001
-0.474398E-001
-0.366484E-001
-0.809814E-002
 0.593571E-001
 0.214242E+000
-0.301589E-001
-0.326490E-001
-0.354719E-001
-0.386408E-001
-0.421666E-001
-0.460461E-001
-0.502395E-001
-0.546286E-001
-0.589337E-001
-0.625463E-001
-0.641749E-001
-0.610760E-001
-0.473445E-001
-0.100276E-001
 0.800045E-001
 0.290801E+000
-0.335139E-001
-0.363419E-001
-0.395444E-001
-0.431468E-001
-0.471694E-001
-0.516160E-001
-0.564506E-001
-0.615500E-001
-0.666101E-001
-0.709530E-001
-0.731123E-001
-0.699081E-001
-0.543216E-001
-0.105273E-001
 0.980292E-001
 0.358833E+000
-0.340596E-001
-0.370048E-001
-0.403367E-001
-0.440926E-001
-0.483025E-001
-0.529789E-001
-0.580940E-001
-0.635317E-001
-0.689880E-001
-0.737661E-001
-0.763296E-001
-0.732751E-001
-0.568715E-001
-0.907255E-002
 0.113276E+000
 0.416713E+000
-0.320933E-001
-0.349423E-001
-0.381613E-001
-0.417966E-001
-0.458861E-001
-0.504494E-001
-0.554684E-001
-0.608401E-001
-0.662790E-001
-0.711087E-001
-0.738098E-001
-0.709585E-001
-0.545518E-001
-0.513018E-002
 0.125914E+000
 0.463318E+000
-0.281275E-001
-0.306908E-001
-0.335844E-001
-0.368553E-001
-0.405444E-001
-0.446770E-001
-0.492403E-001
-0.541442E-001
-0.591303E-001
-0.635687E-001
-0.660159E-001
-0.631857E-001
-0.472325E-001
 0.178122E-002
 0.136398E+000
 0.498050E+000
-0.227680E-001
-0.248986E-001
-0.272953E-001
-0.300063E-001
-0.330656E-001
-0.364966E-001
-0.402916E-001
-0.443635E-001
-0.484772E-001
-0.520625E-001
-0.537860E-001
-0.505872E-001
-0.351233E-001
 0.120215E-001
 0.145403E+000
 0.520817E+000
-0.166205E-001
-0.182122E-001
-0.199970E-001
-0.220034E-001
-0.242676E-001
-0.267937E-001
-0.295681E-001
-0.325131E-001
-0.353904E-001
-0.376830E-001
-0.381902E-001
-0.341055E-001
-0.187725E-001
 0.257585E-001
 0.153742E+000
 0.531987E+000
-0.102130E-001
-0.112108E-001
-0.123107E-001
-0.135382E-001
-0.148930E-001
-0.163914E-001
-0.179745E-001
-0.195631E-001
-0.209380E-001
-0.215634E-001
-0.203817E-001
-0.148618E-001
 0.969157E-003
 0.429064E-001
 0.162261E+000
 0.532326E+000
-0.396691E-002
-0.435155E-002
-0.475009E-002
-0.515826E-002
-0.557940E-002
-0.596234E-002
-0.629053E-002
-0.637903E-002
-0.604742E-002
-0.478044E-002
-0.148257E-002
 0.599184E-002
 0.230416E-001
 0.630754E-001
 0.171750E+000
 0.522901E+000
 0.181897E-002
 0.202991E-002
 0.232085E-002
 0.270798E-002
 0.323116E-002
 0.392646E-002
 0.492916E-002
 0.631365E-002
 0.850236E-002
 0.118209E-001
 0.174213E-001
 0.274193E-001
 0.463028E-001
 0.855830E-001
 0.182813E+000
 0.505026E+000
 0.695477E-002
 0.772235E-002
 0.865677E-002
 0.979712E-002
 0.111991E-001
 0.129570E-001
 0.151792E-001
 0.181266E-001
 0.219985E-001
 0.276154E-001
 0.355555E-001
 0.482803E-001
 0.698876E-001
 0.109393E+000
 0.195868E+000
 0.479997E+000
 0.113429E-001
 0.126131E-001
 0.141298E-001
 0.159499E-001
 0.181583E-001
 0.208737E-001
 0.242714E-001
 0.285919E-001
 0.342699E-001
 0.418011E-001
 0.525730E-001
 0.677783E-001
 0.924407E-001
 0.134233E+000
 0.210291E+000
 0.449471E+000
 0.149532E-001
 0.166704E-001
 0.186963E-001
 0.211115E-001
 0.240276E-001
 0.275956E-001
 0.320308E-001
 0.376358E-001
 0.448758E-001
 0.544462E-001
 0.674540E-001
 0.860479E-001
 0.112872E+000
 0.158171E+000
 0.228803E+000
 0.409747E+000
 0.191066E-001
 0.213064E-001
 0.238918E-001
 0.269636E-001
 0.306601E-001
 0.351678E-001
 0.407451E-001
 0.477583E-001
 0.567326E-001
 0.684768E-001
 0.841862E-001
 0.105893E+000
 0.136952E+000
 0.182740E+000
 0.256605E+000
 0.365735E+000
 0.247932E-001
 0.276063E-001
 0.309126E-001
 0.348333E-001
 0.395385E-001
 0.452510E-001
 0.522932E-001
 0.610617E-001
 0.722502E-001
 0.865548E-001
 0.105699E+000
 0.130836E+000
 0.166689E+000
 0.213547E+000
 0.286394E+000
 0.325069E+000
 0.311441E-001
 0.346284E-001
 0.387095E-001
 0.435391E-001
 0.493118E-001
 0.563065E-001
 0.648477E-001
 0.754922E-001
 0.887796E-001
 0.105891E+000
 0.127847E+000
 0.156892E+000
 0.195348E+000
 0.244409E+000
 0.307015E+000
 0.285314E+000
 0.380562E-001
 0.422431E-001
 0.471341E-001
 0.529013E-001
 0.597831E-001
 0.680583E-001
 0.781621E-001
 0.905639E-001
 0.106052E+000
 0.125586E+000
 0.150335E+000
 0.182471E+000
 0.222682E+000
 0.272146E+000
 0.320070E+000
 0.243222E+000
 0.453308E-001
 0.502251E-001
 0.559239E-001
 0.626315E-001
 0.705904E-001
 0.801446E-001
 0.916975E-001
 0.105816E+000
 0.123275E+000
 0.144921E+000
 0.172168E+000
 0.206250E+000
 0.247503E+000
 0.294874E+000
 0.324791E+000
 0.200793E+000
 0.526559E-001
 0.582218E-001
 0.646909E-001
 0.722743E-001
 0.812506E-001
 0.919565E-001
 0.104828E+000
 0.120457E+000
 0.139522E+000
 0.162969E+000
 0.191910E+000
 0.227021E+000
 0.268204E+000
 0.310670E+000
 0.321495E+000
 0.159427E+000
 0.595865E-001
 0.657459E-001
 0.728851E-001
 0.812343E-001
 0.910714E-001
 0.102741E+000
 0.116695E+000
 0.133470E+000
 0.153752E+000
 0.178387E+000
 0.208145E+000
 0.243359E+000
 0.282905E+000
 0.318287E+000
 0.310690E+000
 0.120561E+000
 0.655473E-001
 0.721624E-001
 0.798177E-001
 0.887417E-001
 0.992099E-001
 0.111568E+000
 0.126233E+000
 0.143721E+000
 0.164661E+000
 0.189721E+000
 0.219407E+000
 0.253621E+000
 0.289950E+000
 0.316977E+000
 0.293122E+000
 0.854657E-001
 0.698453E-001
 0.767243E-001
 0.846719E-001
 0.939081E-001
 0.104698E+000
 0.117362E+000
 0.132286E+000
 0.149941E+000
 0.170852E+000
 0.195515E+000
 0.224182E+000
 0.256236E+000
 0.288077E+000
 0.306463E+000
 0.269691E+000
 0.552063E-001
 0.717298E-001
 0.786226E-001
 0.865771E-001
 0.957953E-001
 0.106516E+000
 0.119029E+000
 0.133678E+000
 0.150862E+000
 0.170995E+000
 0.194410E+000
 0.221098E+000
 0.249945E+000
 0.276515E+000
 0.286889E+000
 0.241388E+000
 0.305607E-001
 0.704760E-001
 0.770883E-001
 0.847143E-001
 0.935266E-001
 0.103732E+000
 0.115580E+000
 0.129360E+000
 0.145393E+000
 0.163986E+000
 0.185316E+000
 0.209140E+000
 0.233985E+000
 0.255047E+000
 0.258777E+000
 0.209229E+000
 0.119634E-001
 0.655126E-001
 0.715237E-001
 0.784544E-001
 0.864426E-001
 0.956576E-001
 0.106302E+000
 0.118607E+000
 0.132817E+000
 0.149138E+000
 0.167620E+000
 0.187853E+000
 0.208214E+000
 0.224009E+000
 0.222967E+000
 0.174180E+000
-0.540032E-003
 0.565592E-001
 0.616477E-001
 0.675152E-001
 0.742626E-001
 0.820191E-001
 0.909395E-001
 0.101197E+000
 0.112964E+000
 0.126365E+000
 0.141361E+000
 0.157479E+000
 0.173166E+000
 0.184283E+000
 0.180560E+000
 0.137097E+000
-0.731390E-002
 0.437504E-001
 0.476242E-001
 0.520922E-001
 0.572208E-001
 0.630997E-001
 0.698368E-001
 0.775506E-001
 0.863523E-001
 0.963060E-001
 0.107335E+000
 0.119007E+000
 0.130049E+000
 0.137236E+000
 0.132854E+000
 0.986841E-001
-0.912397E-002
 0.277021E-001
 0.301275E-001
 0.329257E-001
 0.361334E-001
 0.398030E-001
 0.439978E-001
 0.487861E-001
 0.542291E-001
 0.603536E-001
 0.670914E-001
 0.741432E-001
 0.806763E-001
 0.846482E-001
 0.812797E-001
 0.594785E-001
-0.709603E-002
 0.948809E-002
 0.103139E-001
 0.112669E-001
 0.123587E-001
 0.136063E-001
 0.150306E-001
 0.166539E-001
 0.184955E-001
 0.205623E-001
 0.228275E-001
 0.251845E-001
 0.273439E-001
 0.286069E-001
 0.273558E-001
 0.198671E-001
-0.264198E-002
-0.948809E-002
-0.103139E-001
-0.112669E-001
-0.123587E-001
-0.136063E-001
-0.150306E-001
-0.166539E-001
-0.184955E-001
-0.205623E-001
-0.228275E-001
-0.251845E-001
-0.273439E-001
-0.286069E-001
-0.273558E-001
-0.198671E-001
 0.264198E-002
-0.277021E-001
-0.301275E-001
-0.329257E-001
-0.361334E-001
-0.398030E-001
-0.439978E-001
-0.487861E-001
-0.542291E-001
-0.603536E-001
-0.670914E-001
-0.741432E-001
-0.806763E-001
-0.846482E-001
-0.812797E-001
-0.594785E-001
 0.709603E-002
-0.437504E-001
-0.476242E-001
-0.520922E-001
-0.572208E-001
-0.630997E-001
-0.698368E-001
-0.775506E-001
-0.863523E-001
-0.963060E-001
-0.107335E+000
-0.119007E+000
-0.130049E+000
-0.137236E+000
-0.132854E+000
-0.986841E-001
 0.912397E-002
-0.565592E-001
-0.616477E-001
-0.675152E-001
-0.742626E-001
-0.820191E-001
-0.909395E-001
-0.101197E+000
-0.112964E+000
-0.126365E+000
-0.141361E+000
-0.157479E+000
-0.173166E+000
-0.184283E+000
-0.180560E+000
-0.137097E+000
 0.731390E-002
-0.655126E-001
-0.715237E-001
-0.784544E-001
-0.864426E-001
-0.956576E-001
-0.106302E+000
-0.118607E+000
-0.132817E+000
-0.149138E+000
-0.167620E+000
-0.187853E+000
-0.208214E+000
-0.224009E+000
-0.222967E+000
-0.174180E+000
 0.540032E-003
-0.704760E-001
-0.770883E-001
-0.847143E-001
-0.935266E-001
-0.103732E+000
-0.115580E+000
-0.129360E+000
-0.145393E+000
-0.163986E+000
-0.185316E+000
-0.209140E+000
-0.233985E+000
-0.255047E+000
-0.258777E+000
-0.209229E+000
-0.119634E-001
-0.717298E-001
-0.786226E-001
-0.865771E-001
-0.957953E-001
-0.106516E+000
-0.119029E+000
-0.133678E+000
-0.150862E+000
-0.170995E+000
-0.194410E+000
-0.221098E+000
-0.249945E+000
-0.276515E+000
-0.286889E+000
-0.241388E+000
-0.305607E-001
-0.698453E-001
-0.767243E-001
-0.846719E-001
-0.939081E-001
-0.104698E+000
-0.117362E+000
-0.132286E+000
-0.149941E+000
-0.170852E+000
-0.195515E+000
-0.224182E+000
-0.256236E+000
-0.288077E+000
-0.306463E+000
-0.269691E+000
-0.552063E-001
-0.655473E-001
-0.721624E-001
-0.798177E-001
-0.887417E-001
-0.992099E-001
-0.111568E+000
-0.126233E+000
-0.143721E+000
-0.164661E+000
-0.189721E+000
-0.219407E+000
-0.253621E+000
-0.289950E+000
-0.316977E+000
-0.293122E+000
-0.854657E-001
-0.595865E-001
-0.657459E-001
-0.728851E-001
-0.812343E-001
-0.910714E-001
-0.102741E+000
-0.116695E+000
-0.133470E+000
-0.153752E+000
-0.178387E+000
-0.208145E+000
-0.243359E+000
-0.282905E+000
-0.318287E+000
-0.310690E+000
-0.120561E+000
-0.526559E-001
-0.582218E-001
-0.646909E-001
-0.722743E-001
-0.812506E-001
-0.919565E-001
-0.104828E+000
-0.120457E+000
-0.139522E+000
-0.162969E+000
-0.191910E+000
-0.227021E+000
-0.268204E+000
-0.310670E+000
-0.321495E+000
-0.159427E+000
-0.453308E-001
-0.502251E-001
-0.559239E-001
-0.626315E-001
-0.705904E-001
-0.801446E-001
-0.916975E-001
-0.105816E+000
-0.123275E+000
-0.144921E+000
-0.172168E+000
-0.206250E+000
-0.247503E+000
-0.294874E+000
-0.324791E+000
-0.200793E+000
-0.380562E-001
-0.422431E-001
-0.471341E-001
-0.529013E-001
-0.597831E-001
-0.680583E-001
-0.781621E-001
-0.905639E-001
-0.106052E+000
-0.125586E+000
-0.150335E+000
-0.182471E+000
-0.222682E+000
-0.272146E+000
-0.320070E+000
-0.243222E+000
-0.311441E-001
-0.346284E-001
-0.387095E-001
-0.435391E-001
-0.493118E-001
-0.563065E-001
-0.648477E-001
-0.754922E-001
-0.887796E-001
-0.105891E+000
-0.127847E+000
-0.156892E+000
-0.195348E+000
-0.244409E+000
-0.307015E+000
-0.285314E+000
-0.247932E-001
-0.276063E-001
-0.309126E-001
-0.348333E-001
-0.395385E-001
-0.452510E-001
-0.522932E-001
-0.610617E-001
-0.722502E-001
-0.865548E-001
-0.105699E+000
-0.130836E+000
-0.166689E+000
-0.213547E+000
-0.286394E+000
-0.325069E+000
-0.191066E-001
-0.213064E-001
-0.238918E-001
-0.269636E-001
-0.306601E-001
-0.351678E-001
-0.407451E-001
-0.477583E-001
-0.567326E-001
-0.684768E-001
-0.841862E-001
-0.105893E+000
-0.136952E+000
-0.182740E+000
-0.256605E+000
-0.365735E+000
SCALARS pressure FLOAT     1
LOOKUP_TABLE default
 0.434153E+000
 0.434196E+000
 0.434288E+000
 0.434416E+000
 0.434587E+000
 0.434809E+000
 0.435095E+000
 0.435473E+000
 0.435963E+000
 0.436650E+000
 0.437550E+000
 0.438925E+000
 0.440891E+000
 0.444094E+000
 0.449868E+000
 0.463132E+000
 0.436231E+000
 0.436556E+000
 0.436966E+000
 0.437473E+000
 0.438102E+000
 0.438882E+000
 0.439876E+000
 0.441118E+000
 0.442812E+000
 0.444927E+000
 0.448125E+000
 0.452190E+000
 0.459158E+000
 0.468707E+000
 0.488458E+000
 0.523331E+000
 0.438715E+000
 0.439356E+000
 0.440132E+000
 0.441075E+000
 0.442221E+000
 0.443649E+000
 0.445403E+000
 0.447707E+000
 0.450557E+000
 0.454597E+000
 0.459732E+000
 0.467616E+000
 0.478523E+000
 0.496801E+000
 0.527242E+000
 0.588433E+000
 0.441636E+000
 0.442634E+000
 0.443827E+000
 0.445256E+000
 0.447000E+000
 0.449117E+000
 0.451804E+000
 0.455116E+000
 0.459543E+000
 0.465197E+000
 0.473146E+000
 0.484116E+000
 0.500448E+000
 0.526056E+000
 0.568975E+000
 0.653079E+000
 0.445020E+000
 0.446418E+000
 0.448072E+000
 0.450055E+000
 0.452435E+000
 0.455373E+000
 0.458970E+000
 0.463579E+000
 0.469427E+000
 0.477208E+000
 0.487698E+000
 0.502384E+000
 0.523920E+000
 0.557118E+000
 0.612375E+000
 0.716675E+000
 0.448875E+000
 0.450712E+000
 0.452881E+000
 0.455454E+000
 0.458563E+000
 0.462329E+000
 0.467016E+000
 0.472878E+000
 0.480412E+000
 0.490283E+000
 0.503560E+000
 0.522036E+000
 0.548819E+000
 0.589618E+000
 0.656660E+000
 0.778397E+000
 0.453184E+000
 0.455500E+000
 0.458215E+000
 0.461441E+000
 0.465300E+000
 0.470001E+000
 0.475784E+000
 0.483034E+000
 0.492289E+000
 0.504356E+000
 0.520503E+000
 0.542809E+000
 0.574807E+000
 0.623049E+000
 0.700952E+000
 0.837555E+000
 0.457901E+000
 0.460718E+000
 0.464019E+000
 0.467917E+000
 0.472586E+000
 0.478239E+000
 0.485187E+000
 0.493861E+000
 0.504886E+000
 0.519193E+000
 0.538231E+000
 0.564326E+000
 0.601424E+000
 0.656729E+000
 0.744383E+000
 0.893441E+000
 0.462933E+000
 0.466271E+000
 0.470166E+000
 0.474765E+000
 0.480252E+000
 0.486886E+000
 0.495013E+000
 0.505126E+000
 0.517927E+000
 0.534464E+000
 0.556338E+000
 0.586105E+000
 0.628058E+000
 0.689868E+000
 0.786063E+000
 0.945357E+000
 0.468145E+000
 0.471998E+000
 0.476490E+000
 0.481781E+000
 0.488087E+000
 0.495692E+000
 0.504985E+000
 0.516510E+000
 0.531044E+000
 0.549733E+000
 0.574315E+000
 0.607544E+000
 0.653981E+000
 0.721605E+000
 0.825095E+000
 0.992616E+000
 0.473347E+000
 0.477694E+000
 0.482756E+000
 0.488716E+000
 0.495806E+000
 0.504341E+000
 0.514746E+000
 0.527612E+000
 0.543778E+000
 0.564476E+000
 0.591561E+000
 0.627943E+000
 0.678382E+000
 0.751041E+000
 0.860592E+000
 0.103456E+001
 0.478305E+000
 0.483100E+000
 0.488686E+000
 0.495259E+000
 0.503071E+000
 0.512460E+000
 0.523881E+000
 0.537964E+000
 0.555604E+000
 0.578102E+000
 0.607407E+000
 0.646547E+000
 0.700417E+000
 0.777276E+000
 0.891705E+000
 0.107057E+001
 0.482748E+000
 0.487927E+000
 0.493966E+000
 0.501072E+000
 0.509510E+000
 0.519638E+000
 0.531935E+000
 0.547065E+000
 0.565965E+000
 0.589989E+000
 0.621159E+000
 0.662587E+000
 0.719255E+000
 0.799460E+000
 0.917653E+000
 0.110010E+001
 0.486398E+000
 0.491879E+000
 0.498279E+000
 0.505810E+000
 0.514750E+000
 0.525468E+000
 0.538463E+000
 0.554423E+000
 0.574315E+000
 0.599537E+000
 0.632158E+000
 0.675349E+000
 0.734139E+000
 0.816836E+000
 0.937760E+000
 0.112268E+001
 0.488999E+000
 0.494688E+000
 0.501339E+000
 0.509167E+000
 0.518457E+000
 0.529586E+000
 0.543066E+000
 0.559602E+000
 0.580182E+000
 0.606227E+000
 0.639841E+000
 0.684226E+000
 0.744441E+000
 0.828787E+000
 0.951482E+000
 0.113795E+001
 0.490353E+000
 0.496148E+000
 0.502928E+000
 0.510908E+000
 0.520378E+000
 0.531718E+000
 0.545448E+000
 0.562279E+000
 0.583209E+000
 0.609674E+000
 0.643791E+000
 0.688780E+000
 0.749710E+000
 0.834876E+000
 0.958441E+000
 0.114564E+001
 0.490353E+000
 0.496148E+000
 0.502928E+000
 0.510908E+000
 0.520378E+000
 0.531718E+000
 0.545448E+000
 0.562279E+000
 0.583209E+000
 0.609674E+000
 0.643791E+000
 0.688780E+000
 0.749710E+000
 0.834876E+000
 0.958441E+000
 0.114564E+001
 0.488999E+000
 0.494688E+000
 0.501339E+000
 0.509167E+000
 0.518457E+000
 0.529586E+000
 0.543066E+000
 0.559602E+000
 0.580182E+000
 0.606227E+000
 0.639841E+000
 0.684226E+000
 0.744441E+000
 0.828787E+000
 0.951482E+000
 0.113795E+001
 0.486398E+000
 0.491879E+000
 0.498279E+000
 0.505810E+000
 0.514750E+000
 0.525468E+000
 0.538463E+000
 0.554423E+000
 0.574315E+000
 0.599537E+000
 0.632158E+000
 0.675349E+000
 0.734139E+000
 0.816836E+000
 0.937760E+000
 0.112268E+001
 0.482748E+000
 0.487927E+000
 0.493966E+000
 0.501072E+000
 0.509510E+000
 0.519638E+000
 0.531935E+000
 0.547065E+000
 0.565965E+000
 0.589989E+000
 0.621159E+000
 0.662587E+000
 0.719255E+000
 0.799460E+000
 0.917653E+000
 0.110010E+001
 0.478305E+000
 0.483100E+000
 0.488686E+000
 0.495259E+000
 0.503071E+000
 0.512460E+000
 0.523881E+000
 0.537964E+000
 0.555604E+000
 0.578102E+000
 0.607407E+000
 0.646547E+000
 0.700417E+000
 0.777276E+000
 0.891705E+000
 0.107057E+001
 0.473347E+000
 0.477694E+000
 0.482756E+000
 0.488716E+000
 0.495806E+000
 0.504341E+000
 0.514746E+000
 0.527612E+000
 0.543778E+000
 0.564476E+000
 0.591561E+000
 0.627943E+000
 0.678382E+000
 0.751041E+000
 0.860592E+000
 0.103456E+001
 0.468145E+000
 0.471998E+000
 0.476490E+000
 0.481781E+000
 0.488087E+000
 0.495692E+000
 0.504985E+000
 0.516510E+000
 0.531044E+000
 0.549733E+000
 0.574315E+000
 0.607544E+000
 0.653981E+000
 0.721605E+000
 0.825095E+000
 0.992616E+000
 0.462933E+000
 0.466271E+000
 0.470166E+000
 0.474765E+000
 0.480252E+000
 0.486886E+000
 0.495013E+000
 0.505126E+000
 0.517927E+000
 0.534464E+000
 0.556338E+000
 0.586105E+000
 0.628058E+000
 0.689868E+000
 0.786063E+000
 0.945357E+000
 0.457901E+000
 0.460718E+000
 0.464019E+000
 0.467917E+000
 0.472586E+000
 0.478239E+000
 0.485187E+000
 0.493861E+000
 0.504886E+000
 0.519193E+000
 0.538231E+000
 0.564326E+000
 0.601424E+000
 0.656729E+000
 0.744383E+000
 0.893441E+000
 0.453184E+000
 0.455500E+000
 0.458215E+000
 0.461441E+000
 0.465300E+000
 0.470001E+000
 0.475784E+000
 0.483034E+000
 0.492289E+000
 0.504356E+000
 0.520503E+000
 0.542809E+000
 0.574807E+000
 0.623049E+000
 0.700952E+000
 0.837555E+000
 0.448875E+000
 0.450712E+000
 0.452881E+000
 0.455454E+000
 0.458563E+000
 0.462329E+000
 0.467016E+000
 0.472878E+000
 0.480412E+000
 0.490283E+000
 0.503560E+000
 0.522036E+000
 0.548819E+000
 0.589618E+000
 0.656660E+000
 0.778397E+000
 0.445020E+000
 0.446418E+000
 0.448072E+000
 0.450055E+000
 0.452435E+000
 0.455373E+000
 0.458970E+000
 0.463579E+000
 0.469427E+000
 0.477208E+000
 0.487698E+000
 0.502384E+000
 0.523920E+000
 0.557118E+000
 0.612375E+000
 0.716675E+000
 0.441636E+000
 0.442634E+000
 0.443827E+000
 0.445256E+000
 0.447000E+000
 0.449117E+000
 0.451804E+000
 0.455116E+000
 0.459543E+000
 0.465197E+000
 0.473146E+000
 0.484116E+000
 0.500448E+000
 0.526056E+000
 0.568975E+000
 0.653079E+000
 0.438715E+000
 0.439356E+000
 0.440132E+000
 0.441075E+000
 0.442221E+000
 0.443649E+000
 0.445403E+000
 0.447707E+000
 0.450557E+000
 0.454597E+000
 0.459732E+000
 0.467616E+000
 0.478523E+000
 0.496801E+000
 0.527242E+000
 0.588433E+000
 0.436231E+000
 0.436556E+000
 0.436966E+000
 0.437473E+000
 0.438102E+000
 0.438882E+000
 0.439876E+000
 0.441118E+000
 0.442812E+000
 0.444927E+000
 0.448125E+000
 0.452190E+000
 0.459158E+000
 0.468707E+000
 0.488458E+000
 0.523331E+000
 0.434153E+000
 0.434196E+000
 0.434288E+000
 0.434416E+000
 0.434587E+000
 0.434809E+000
 0.435095E+000
 0.435473E+000
 0.435963E+000
 0.436650E+000
 0.437550E+000
 0.438925E+000
 0.440891E+000
 0.444094E+000
 0.449868E+000
 0.463132E+000
 0.432277E+000
 0.432096E+000
 0.431914E+000
 0.431710E+000
 0.431476E+000
 0.431202E+000
 0.430866E+000
 0.430465E+000
 0.429913E+000
 0.429263E+000
 0.428188E+000
 0.426986E+000
 0.424413E+000
 0.421735E+000
 0.413498E+000
 0.405705E+000
 0.430092E+000
 0.429676E+000
 0.429191E+000
 0.428617E+000
 0.427935E+000
 0.427098E+000
 0.426085E+000
 0.424756E+000
 0.423138E+000
 0.420786E+000
 0.417890E+000
 0.413168E+000
 0.406885E+000
 0.395774E+000
 0.376925E+000
 0.341486E+000
 0.427532E+000
 0.426820E+000
 0.425980E+000
 0.424983E+000
 0.423777E+000
 0.422326E+000
 0.420488E+000
 0.418238E+000
 0.415203E+000
 0.411354E+000
 0.405859E+000
 0.398189E+000
 0.386894E+000
 0.368051E+000
 0.338068E+000
 0.274040E+000
 0.424546E+000
 0.423488E+000
 0.422242E+000
 0.420756E+000
 0.418981E+000
 0.416795E+000
 0.414126E+000
 0.410698E+000
 0.406342E+000
 0.400539E+000
 0.392573E+000
 0.381539E+000
 0.364821E+000
 0.338970E+000
 0.295787E+000
 0.208059E+000
 0.421103E+000
 0.419654E+000
 0.417947E+000
 0.415927E+000
 0.413490E+000
 0.410543E+000
 0.406876E+000
 0.402273E+000
 0.396363E+000
 0.388521E+000
 0.377993E+000
 0.363140E+000
 0.341310E+000
 0.307868E+000
 0.251779E+000
 0.143608E+000
 0.417193E+000
 0.415306E+000
 0.413096E+000
 0.410475E+000
 0.407342E+000
 0.403527E+000
 0.398822E+000
 0.392924E+000
 0.385339E+000
 0.375422E+000
 0.362060E+000
 0.343398E+000
 0.316363E+000
 0.275195E+000
 0.206936E+000
 0.813184E-001
 0.412824E+000
 0.410467E+000
 0.407707E+000
 0.404451E+000
 0.400553E+000
 0.395827E+000
 0.390014E+000
 0.382726E+000
 0.373428E+000
 0.361301E+000
 0.345042E+000
 0.322551E+000
 0.290286E+000
 0.241523E+000
 0.162166E+000
 0.217776E-001
 0.408048E+000
 0.405188E+000
 0.401855E+000
 0.397922E+000
 0.393227E+000
 0.387548E+000
 0.380570E+000
 0.371860E+000
 0.360787E+000
 0.346405E+000
 0.327243E+000
 0.300955E+000
 0.263542E+000
 0.207583E+000
 0.118341E+000
-0.343729E-001
 0.402947E+000
 0.399576E+000
 0.395650E+000
 0.391027E+000
 0.385516E+000
 0.378858E+000
 0.370701E+000
 0.360551E+000
 0.347696E+000
 0.331074E+000
 0.309065E+000
 0.279084E+000
 0.236759E+000
 0.174192E+000
 0.763431E-001
-0.864744E-001
 0.397663E+000
 0.393783E+000
 0.389271E+000
 0.383960E+000
 0.377636E+000
 0.370009E+000
 0.360687E+000
 0.349121E+000
 0.334526E+000
 0.315743E+000
 0.291012E+000
 0.257544E+000
 0.210681E+000
 0.142228E+000
 0.370600E-001
-0.133865E+000
 0.392384E+000
 0.388022E+000
 0.382947E+000
 0.376977E+000
 0.369872E+000
 0.361317E+000
 0.350883E+000
 0.337974E+000
 0.321740E+000
 0.300938E+000
 0.273689E+000
 0.237038E+000
 0.186130E+000
 0.112598E+000
 0.136744E-002
-0.175903E+000
 0.387348E+000
 0.382551E+000
 0.376963E+000
 0.370387E+000
 0.362565E+000
 0.353159E+000
 0.341709E+000
 0.327578E+000
 0.309864E+000
 0.287253E+000
 0.257768E+000
 0.218334E+000
 0.163962E+000
 0.862021E-001
-0.298949E-001
-0.211983E+000
 0.382831E+000
 0.377665E+000
 0.371635E+000
 0.364533E+000
 0.356089E+000
 0.345945E+000
 0.333618E+000
 0.318438E+000
 0.299459E+000
 0.275312E+000
 0.243948E+000
 0.202206E+000
 0.145012E+000
 0.638919E-001
-0.559544E-001
-0.241564E+000
 0.379117E+000
 0.373663E+000
 0.367282E+000
 0.359760E+000
 0.350819E+000
 0.340087E+000
 0.327061E+000
 0.311048E+000
 0.291072E+000
 0.265719E+000
 0.232893E+000
 0.189374E+000
 0.130042E+000
 0.464232E-001
-0.761394E-001
-0.264182E+000
 0.376469E+000
 0.370818E+000
 0.364193E+000
 0.356379E+000
 0.347091E+000
 0.335948E+000
 0.322437E+000
 0.305846E+000
 0.285179E+000
 0.258997E+000
 0.225171E+000
 0.180447E+000
 0.119683E+000
 0.344116E-001
-0.899117E-001
-0.279471E+000
 0.375089E+000
 0.369339E+000
 0.362590E+000
 0.354625E+000
 0.345158E+000
 0.333805E+000
 0.320044E+000
 0.303158E+000
 0.282138E+000
 0.255534E+000
 0.221200E+000
 0.175868E+000
 0.114385E+000
 0.282929E-001
-0.968947E-001
-0.287180E+000
 0.375089E+000
 0.369339E+000
 0.362590E+000
 0.354625E+000
 0.345158E+000
 0.333805E+000
 0.320044E+000
 0.303158E+000
 0.282138E+000
 0.255534E+000
 0.221200E+000
 0.175868E+000
 0.114385E+000
 0.282929E-001
-0.968947E-001
-0.287180E+000
 0.376469E+000
 0.370818E+000
 0.364193E+000
 0.356379E+000
 0.347091E+000
 0.335948E+000
 0.322437E+000
 0.305846E+000
 0.285179E+000
 0.258997E+000
 0.225171E+000
 0.180447E+000
 0.119683E+000
 0.344116E-001
-0.899117E-001
-0.279471E+000
 0.379117E+000
 0.373663E+000
 0.367282E+000
 0.359760E+000
 0.350819E+000
 0.340087E+000
 0.327061E+000
 0.311048E+000
 0.291072E+000
 0.265719E+000
 0.232893E+000
 0.189374E+000
 0.130042E+000
 0.464232E-001
-0.761394E-001
-0.264182E+000
 0.382831E+000
 0.377665E+000
 0.371635E+000
 0.364533E+000
 0.356089E+000
 0.345945E+000
 0.333618E+000
 0.318438E+000
 0.299459E+000
 0.275312E+000
 0.243948E+000
 0.202206E+000
 0.145012E+000
 0.638919E-001
-0.559544E-001
-0.241564E+000
 0.387348E+000
 0.382551E+000
 0.376963E+000
 0.370387E+000
 0.362565E+000
 0.353159E+000
 0.341709E+000
 0.327578E+000
 0.309864E+000
 0.287253E+000
 0.257768E+000
 0.218334E+000
 0.163962E+000
 0.862021E-001
-0.298949E-001
-0.211983E+000
 0.392384E+000
 0.388022E+000
 0.382947E+000
 0.376977E+000
 0.369872E+000
 0.361317E+000
 0.350883E+000
 0.337974E+000
 0.321740E+000
 0.300938E+000
 0.273689E+000
 0.237038E+000
 0.186130E+000
 0.112598E+000
 0.136744E-002
-0.175903E+000
 0.397663E+000
 0.393783E+000
 0.389271E+000
 0.383960E+000
 0.377636E+000
 0.370009E+000
 0.360687E+000
 0.349121E+000
 0.334526E+000
 0.315743E+000
 0.291012E+000
 0.257544E+000
 0.210681E+000
 0.142228E+000
 0.370600E-001
-0.133865E+000
 0.402947E+000
 0.399576E+000
 0.395650E+000
 0.391027E+000
 0.385516E+000
 0.378858E+000
 0.370701E+000
 0.360551E+000
 0.347696E+000
 0.331074E+000
 0.309065E+000
 0.279084E+000
 0.236759E+000
 0.174192E+000
 0.763431E-001
-0.864744E-001
 0.408048E+000
 0.405188E+000
 0.401855E+000
 0.397922E+000
 0.393227E+000
 0.387548E+000
 0.380570E+000
 0.371860E+000
 0.360787E+000
 0.346405E+000
 0.327243E+000
 0.300955E+000
 0.263542E+000
 0.207583E+000
 0.118341E+000
-0.343729E-001
 0.412824E+000
 0.410467E+000
 0.407707E+000
 0.404451E+000
 0.400553E+000
 0.395827E+000
 0.390014E+000
 0.382726E+000
 0.373428E+000
 0.361301E+000
 0.345042E+000
 0.322551E+000
 0.290286E+000
 0.241523E+000
 0.162166E+000
 0.217776E-001
 0.417193E+000
 0.415306E+000
 0.413096E+000
 0.410475E+000
 0.407342E+000
 0.403527E+000
 0.398822E+000
 0.392924E+000
 0.385339E+000
 0.375422E+000
 0.362060E+000
 0.343398E+000
 0.316363E+000
 0.275195E+000
 0.206936E+000
 0.813184E-001
 0.421103E+000
 0.419654E+000
 0.417947E+000
 0.415927E+000
 0.413490E+000
 0.410543E+000
 0.406876E+000
 0.402273E+000
 0.396363E+000
 0.388521E+000
 0.377993E+000
 0.363140E+000
 0.341310E+000
 0.307868E+000
 0.251779E+000
 0.143608E+000
 0.424546E+000
 0.423488E+000
 0.422242E+000
 0.420756E+000
 0.418981E+000
 0.416795E+000
 0.414126E+000
 0.410698E+000
 0.406342E+000
 0.400539E+000
 0.392573E+000
 0.381539E+000
 0.364821E+000
 0.338970E+000
 0.295787E+000
 0.208059E+000
 0.427532E+000
 0.426820E+000
 0.425980E+000
 0.424983E+000
 0.423777E+000
 0.422326E+000
 0.420488E+000
 0.418238E+000
 0.415203E+000
 0.411354E+000
 0.405859E+000
 0.398189E+000
 0.386894E+000
 0.368051E+000
 0.338068E+000
 0.274040E+000
 0.430092E+000
 0.429676E+000
 0.429191E+000
 0.428617E+000
 0.427935E+000
 0.427098E+000
 0.426085E+000
 0.424756E+000
 0.423138E+000
 0.420786E+000
 0.417890E+000
 0.413168E+000
 0.406885E+000
 0.395774E+000
 0.376925E+000
 0.341486E+000
 0.432277E+000
 0.432096E+000
 0.431914E+000
 0.431710E+000
 0.431476E+000
 0.431202E+000
 0.430866E+000
 0.430465E+000
 0.429913E+000
 0.429263E+000
 0.428188E+000
 0.426986E+000
 0.424413E+000
 0.421735E+000
 0.413498E+000
 0.405705E+000
 0.434153E+000
 0.434196E+000
 0.434288E+000
 0.434416E+000
 0.434587E+000
 0.434809E+000
 0.435095E+000
 0.435473E+000
 0.435963E+000
 0.436650E+000
 0.437550E+000
 0.438925E+000
 0.440891E+000
 0.444094E+000
 0.449868E+000
 0.463132E+000
 0.436231E+000
 0.436556E+000
 0.436966E+000
 0.437473E+000
 0.438102E+000
 0.438882E+000
 0.439876E+000
 0.441118E+000
 0.442812E+000
 0.444927E+000
 0.448125E+000
 0.452190E+000
 0.459158E+000
 0.468707E+000
 0.488458E+000
 0.523331E+000
 0.438715E+000
 0.439356E+000
 0.440132E+000
 0.441075E+000
 0.442221E+000
 0.443649E+000
 0.445403E+000
 0.447707E+000
 0.450557E+000
 0.454597E+000
 0.459732E+000
 0.467616E+000
 0.478523E+000
 0.496801E+000
 0.527242E+000
 0.588433E+000
 0.441636E+000
 0.442634E+000
 0.443827E+000
 0.445256E+000
 0.447000E+000
 0.449117E+000
 0.451804E+000
 0.455116E+000
 0.459543E+000
 0.465197E+000
 0.473146E+000
 0.484116E+000
 0.500448E+000
 0.526056E+000
 0.568975E+000
 0.653079E+000
 0.445020E+000
 0.446418E+000
 0.448072E+000
 0.450055E+000
 0.452435E+000
 0.455373E+000
 0.458970E+000
 0.463579E+000
 0.469427E+000
 0.477208E+000
 0.487698E+000
 0.502384E+000
 0.523920E+000
 0.557118E+000
 0.612375E+000
 0.716675E+000
 0.448875E+000
 0.450712E+000
 0.452881E+000
 0.455454E+000
 0.458563E+000
 0.462329E+000
 0.467016E+000
 0.472878E+000
 0.480412E+000
 0.490283E+000
 0.503560E+000
 0.522036E+000
 0.548819E+000
 0.589618E+000
 0.656660E+000
 0.778397E+000
 0.453184E+000
 0.455500E+000
 0.458215E+000
 0.461441E+000
 0.465300E+000
 0.470001E+000
 0.475784E+000
 0.483034E+000
 0.492289E+000
 0.504356E+000
 0.520503E+000
 0.542809E+000
 0.574807E+000
 0.623049E+000
 0.700952E+000
 0.837555E+000
 0.457901E+000
 0.460718E+000
 0.464019E+000
 0.467917E+000
 0.472586E+000
 0.478239E+000
 0.485187E+000
 0.493861E+000
 0.504886E+000
 0.519193E+000
 0.538231E+000
 0.564326E+000
 0.601424E+000
 0.656729E+000
 0.744383E+000
 0.893441E+000
 0.462933E+000
 0.466271E+000
 0.470166E+000
 0.474765E+000
 0.480252E+000
 0.486886E+000
 0.495013E+000
 0.505126E+000
 0.517927E+000
 0.534464E+000
 0.556338E+000
 0.586105E+000
 0.628058E+000
 0.689868E+000
 0.786063E+000
 0.945357E+000
 0.468145E+000
 0.471998E+000
 0.476490E+000
 0.481781E+000
 0.488087E+000
 0.495692E+000
 0.504985E+000
 0.516510E+000
 0.531044E+000
 0.549733E+000
 0.574315E+000
 0.607544E+000
 0.653981E+000
 0.721605E+000
 0.825095E+000
 0.992616E+000
 0.473347E+000
 0.477694E+000
 0.482756E+000
 0.488716E+000
 0.495806E+000
 0.504341E+000
 0.514746E+000
 0.527612E+000
 0.543778E+000
 0.564476E+000
 0.591561E+000
 0.627943E+000
 0.678382E+000
 0.751041E+000
 0.860592E+000
 0.103456E+001
 0.478305E+000
 0.483100E+000
 0.488686E+000
 0.495259E+000
 0.503071E+000
 0.512460E+000
 0.523881E+000
 0.537964E+000
 0.555604E+000
 0.578102E+000
 0.607407E+000
 0.646547E+000
 0.700417E+000
 0.777276E+000
 0.891705E+000
 0.107057E+001
 0.482748E+000
 0.487927E+000
 0.493966E+000
 0.501072E+000
 0.509510E+000
 0.519638E+000
 0.531935E+000
 0.547065E+000
 0.565965E+000
 0.589989E+000
 0.621159E+000
 0.662587E+000
 0.719255E+000
 0.799460E+000
 0.917653E+000
 0.110010E+001
 0.486398E+000
 0.491879E+000
 0.498279E+000
 0.505810E+000
 0.514750E+000
 0.525468E+000
 0.538463E+000
 0.554423E+000
 0.574315E+000
 0.599537E+000
 0.632158E+000
 0.675349E+000
 0.734139E+000
 0.816836E+000
 0.937760E+000
 0.112268E+001
 0.488999E+000
 0.494688E+000
 0.501339E+000
 0.509167E+000
 0.518457E+000
 0.529586E+000
 0.543066E+000
 0.559602E+000
 0.580182E+000
 0.606227E+000
 0.639841E+000
 0.684226E+000
 0.744441E+000
 0.828787E+000
 0.951482E+000
 0.113795E+001
 0.490353E+000
 0.496148E+000
 0.502928E+000
 0.510908E+000
 0.520378E+000
 0.531718E+000
 0.545448E+000
 0.562279E+000
 0.583209E+000
 0.609674E+000
 0.643791E+000
 0.688780E+000
 0.749710E+000
 0.834876E+000
 0.958441E+000
 0.114564E+001
 0.490353E+000
 0.496148E+000
 0.502928E+000
 0.510908E+000
 0.520378E+000
 0.531718E+000
 0.545448E+000
 0.562279E+000
 0.583209E+000
 0.609674E+000
 0.643791E+000
 0.688780E+000
 0.749710E+000
 0.834876E+000
 0.958441E+000
 0.114564E+001
 0.488999E+000
 0.494688E+000
 0.501339E+000
 0.509167E+000
 0.518457E+000
 0.529586E+000
 0.543066E+000
 0.559602E+000
 0.580182E+000
 0.606227E+000
 0.639841E+000
 0.684226E+000
 0.744441E+000
 0.828787E+000
 0.951482E+000
 0.113795E+001
 0.486398E+000
 0.491879E+000
 0.498279E+000
 0.505810E+000
 0.514750E+000
 0.525468E+000
 0.538463E+000
 0.554423E+000
 0.574315E+000
 0.599537E+000
 0.632158E+000
 0.675349E+000
 0.734139E+000
 0.816836E+000
 0.937760E+000
 0.112268E+001
 0.482748E+000
 0.487927E+000
 0.493966E+000
 0.501072E+000
 0.509510E+000
 0.519638E+000
 0.531935E+000
 0.547065E+000
 0.565965E+000
 0.589989E+000
 0.621159E+000
 0.662587E+000
 0.719255E+000
 0.799460E+000
 0.917653E+000
 0.110010E+001
 0.478305E+000
 0.483100E+000
 0.488686E+000
 0.495259E+000
 0.503071E+000
 0.512460E+000
 0.523881E+000
 0.537964E+000
 0.555604E+000
 0.578102E+000
 0.607407E+000
 0.646547E+000
 0.700417E+000
 0.777276E+000
 0.891705E+000
 0.107057E+001
 0.473347E+000
 0.477694E+000
 0.482756E+000
 0.488716E+000
 0.495806E+000
 0.504341E+000
 0.514746E+000
 0.527612E+000
 0.543778E+000
 0.564476E+000
 0.591561E+000
 0.627943E+000
 0.678382E+000
 0.751041E+000
 0.860592E+000
 0.103456E+001
 0.468145E+000
 0.471998E+000
 0.476490E+000
 0.481781E+000
 0.488087E+000
 0.495692E+000
 0.504985E+000
 0.516510E+000
 0.531044E+000
 0.549733E+000
 0.574315E+000
 0.607544E+000
 0.653981E+000
 0.721605E+000
 0.825095E+000
 0.992616E+000
 0.462933E+000
 0.466271E+000
 0.470166E+000
 0.474765E+000
 0.480252E+000
 0.486886E+000
 0.495013E+000
 0.505126E+000
 0.517927E+000
 0.534464E+000
 0.556338E+000
 0.586105E+000
 0.628058E+000
 0.689868E+000
 0.786063E+000
 0.945357E+000
 0.457901E+000
 0.460718E+000
 0.464019E+000
 0.467917E+000
 0.472586E+000
 0.478239E+000
 0.485187E+000
 0.493861E+000
 0.504886E+000
 0.519193E+000
 0.538231E+000
 0.564326E+000
 0.601424E+000
 0.656729E+000
 0.744383E+000
 0.893441E+000
 0.453184E+000
 0.455500E+000
 0.458215E+000
 0.461441E+000
 0.465300E+000
 0.470001E+000
 0.475784E+000
 0.483034E+000
 0.492289E+000
 0.504356E+000
 0.520503E+000
 0.542809E+000
 0.574807E+000
 0.623049E+000
 0.700952E+000
 0.837555E+000
 0.448875E+000
 0.450712E+000
 0.452881E+000
 0.455454E+000
 0.458563E+000
 0.462329E+000
 0.467016E+000
 0.472878E+000
 0.480412E+000
 0.490283E+000
 0.503560E+000
 0.522036E+000
 0.548819E+000
 0.589618E+000
 0.656660E+000
 0.778397E+000
 0.445020E+000
 0.446418E+000
 0.448072E+000
 0.450055E+000
 0.452435E+000
 0.455373E+000
 0.458970E+000
 0.463579E+000
 0.469427E+000
 0.477208E+000
 0.487698E+000
 0.502384E+000
 0.523920E+000
 0.557118E+000
 0.612375E+000
 0.716675E+000
 0.441636E+000
 0.442634E+000
 0.443827E+000
 0.445256E+000
 0.447000E+000
 0.449117E+000
 0.451804E+000
 0.455116E+000
 0.459543E+000
 0.465197E+000
 0.473146E+000
 0.484116E+000
 0.500448E+000
 0.526056E+000
 0.568975E+000
 0.653079E+000
 0.438715E+000
 0.439356E+000
 0.440132E+000
 0.441075E+000
 0.442221E+000
 0.443649E+000
 0.445403E+000
 0.447707E+000
 0.450557E+000
 0.454597E+000
 0.459732E+000
 0.467616E+000
 0.478523E+000
 0.496801E+000
 0.527242E+000
 0.588433E+000
 0.436231E+000
 0.436556E+000
 0.436966E+000
 0.437473E+000
 0.438102E+000
 0.438882E+000
 0.439876E+000
 0.441118E+000
 0.442812E+000
 0.444927E+000
 0.448125E+000
 0.452190E+000
 0.459158E+000
 0.468707E+000
 0.488458E+000
 0.523331E+000
 0.434153E+000
 0.434196E+000
 0.434288E+000
 0.434416E+000
 0.434587E+000
 0.434809E+000
 0.435095E+000
 0.435473E+000
 0.435963E+000
 0.436650E+000
 0.437550E+000
 0.438925E+000
 0.440891E+000
 0.444094E+000
 0.449868E+000
 0.463132E+000
 0.432277E+000
 0.432096E+000
 0.431914E+000
 0.431710E+000
 0.431476E+000
 0.431202E+000
 0.430866E+000
 0.430465E+000
 0.429913E+000
 0.429263E+000
 0.428188E+000
 0.426986E+000
 0.424413E+000
 0.421735E+000
 0.413498E+000
 0.405705E+000
 0.430092E+000
 0.429676E+000
 0.429191E+000
 0.428617E+000
 0.427935E+000
 0.427098E+000
 0.426085E+000
 0.424756E+000
 0.423138E+000
 0.420786E+000
 0.417890E+000
 0.413168E+000
 0.406885E+000
 0.395774E+000
 0.376925E+000
 0.341486E+000
 0.427532E+000
 0.426820E+000
 0.425980E+000
 0.424983E+000
 0.423777E+000
 0.422326E+000
 0.420488E+000
 0.418238E+000
 0.415203E+000
 0.411354E+000
 0.405859E+000
 0.398189E+000
 0.386894E+000
 0.368051E+000
 0.338068E+000
 0.274040E+000
 0.424546E+000
 0.423488E+000
 0.422242E+000
 0.420756E+000
 0.418981E+000
 0.416795E+000
 0.414126E+000
 0.410698E+000
 0.406342E+000
 0.400539E+000
 0.392573E+000
 0.381539E+000
 0.364821E+000
 0.338970E+000
 0.295787E+000
 0.208059E+000
 0.421103E+000
 0.419654E+000
 0.417947E+000
 0.415927E+000
 0.413490E+000
 0.410543E+000
 0.406876E+000
 0.402273E+000
 0.396363E+000
 0.388521E+000
 0.377993E+000
 0.363140E+000
 0.341310E+000
 0.307868E+000
 0.251779E+000
 0.143608E+000
 0.417193E+000
 0.415306E+000
 0.413096E+000
 0.410475E+000
 0.407342E+000
 0.403527E+000
 0.398822E+000
 0.392924E+000
 0.385339E+000
 0.375422E+000
 0.362060E+000
 0.343398E+000
 0.316363E+000
 0.275195E+000
 0.206936E+000
 0.813184E-001
 0.412824E+000
 0.410467E+000
 0.407707E+000
 0.404451E+000
 0.400553E+000
 0.395827E+000
 0.390014E+000
 0.382726E+000
 0.373428E+000
 0.361301E+000
 0.345042E+000
 0.322551E+000
 0.290286E+000
 0.241523E+000
 0.162166E+000
 0.217776E-001
 0.408048E+000
 0.405188E+000
 0.401855E+000
 0.397922E+000
 0.393227E+000
 0.387548E+000
 0.380570E+000
 0.371860E+000
 0.360787E+000
 0.346405E+000
 0.327243E+000
 0.300955E+000
 0.263542E+000
 0.207583E+000
 0.118341E+000
-0.343729E-001
 0.402947E+000
 0.399576E+000
 0.395650E+000
 0.391027E+000
 0.385516E+000
 0.378858E+000
 0.370701E+000
 0.360551E+000
 0.347696E+000
 0.331074E+000
 0.309065E+000
 0.279084E+000
 0.236759E+000
 0.174192E+000
 0.763431E-001
-0.864744E-001
 0.397663E+000
 0.393783E+000
 0.389271E+000
 0.383960E+000
 0.377636E+000
 0.370009E+000
 0.360687E+000
 0.349121E+000
 0.334526E+000
 0.315743E+000
 0.291012E+000
 0.257544E+000
 0.210681E+000
 0.142228E+000
 0.370600E-001
-0.133865E+000
 0.392384E+000
 0.388022E+000
 0.382947E+000
 0.376977E+000
 0.369872E+000
 0.361317E+000
 0.350883E+000
 0.337974E+000
 0.321740E+000
 0.300938E+000
 0.273689E+000
 0.237038E+000
 0.186130E+000
 0.112598E+000
 0.136744E-002
-0.175903E+000
 0.387348E+000
 0.382551E+000
 0.376963E+000
 0.370387E+000
 0.362565E+000
 0.353159E+000
 0.341709E+000
 0.327578E+000
 0.309864E+000
 0.287253E+000
 0.257768E+000
 0.218334E+000
 0.163962E+000
 0.862021E-001
-0.298949E-001
-0.211983E+000
 0.382831E+000
 0.377665E+000
 0.371635E+000
 0.364533E+000
 0.356089E+000
 0.345945E+000
 0.333618E+000
 0.318438E+000
 0.299459E+000
 0.275312E+000
 0.243948E+000
 0.202206E+000
 0.145012E+000
 0.638919E-001
-0.559544E-001
-0.241564E+000
 0.379117E+000
 0.373663E+000
 0.367282E+000
 0.359760E+000
 0.350819E+000
 0.340087E+000
 0.327061E+000
 0.311048E+000
 0.291072E+000
 0.265719E+000
 0.232893E+000
 0.189374E+000
 0.130042E+000
 0.464232E-001
-0.761394E-001
-0.264182E+000
 0.376469E+000
 0.370818E+000
 0.364193E+000
 0.356379E+000
 0.347091E+000
 0.335948E+000
 0.322437E+000
 0.305846E+000
 0.285179E+000
 0.258997E+000
 0.225171E+000
 0.180447E+000
 0.119683E+000
 0.344116E-001
-0.899117E-001
-0.279471E+000
 0.375089E+000
 0.369339E+000
 0.362590E+000
 0.354625E+000
 0.345158E+000
 0.333805E+000
 0.320044E+000
 0.303158E+000
 0.282138E+000
 0.255534E+000
 0.221200E+000
 0.175868E+000
 0.114385E+000
 0.282929E-001
-0.968947E-001
-0.287180E+000
 0.375089E+000
 0.369339E+000
 0.362590E+000
 0.354625E+000
 0.345158E+000
 0.333805E+000
 0.320044E+000
 0.303158E+000
 0.282138E+000
 0.255534E+000
 0.221200E+000
 0.175868E+000
 0.114385E+000
 0.282929E-001
-0.968947E-001
-0.287180E+000
 0.376469E+000
 0.370818E+000
 0.364193E+000
 0.356379E+000
 0.347091E+000
 0.335948E+000
 0.322437E+000
 0.305846E+000
 0.285179E+000
 0.258997E+000
 0.225171E+000
 0.180447E+000
 0.119683E+000
 0.344116E-001
-0.899117E-001
-0.279471E+000
 0.379117E+000
 0.373663E+000
 0.367282E+000
 0.359760E+000
 0.350819E+000
 0.340087E+000
 0.327061E+000
 0.311048E+000
 0.291072E+000
 0.265719E+000
 0.232893E+000
 0.189374E+000
 0.130042E+000
 0.464232E-001
-0.761394E-001
-0.264182E+000
 0.382831E+000
 0.377665E+000
 0.371635E+000
 0.364533E+000
 0.356089E+000
 0.345945E+000
 0.333618E+000
 0.318438E+000
 0.299459E+000
 0.275312E+000
 0.243948E+000
 0.202206E+000
 0.145012E+000
 0.638919E-001
-0.559544E-001
-0.241564E+000
 0.387348E+000
 0.382551E+000
 0.376963E+000
 0.370387E+000
 0.362565E+000
 0.353159E+000
 0.341709E+000
 0.327578E+000
 0.309864E+000
 0.287253E+000
 0.257768E+000
 0.218334E+000
 0.163962E+000
 0.862021E-001
-0.298949E-001
-0.211983E+000
 0.392384E+000
 0.388022E+000
 0.382947E+000
 0.376977E+000
 0.369872E+000
 0.361317E+000
 0.350883E+000
 0.337974E+000
 0.321740E+000
 0.300938E+000
 0.273689E+000
 0.237038E+000
 0.186130E+000
 0.112598E+000
 0.136744E-002
-0.175903E+000
 0.397663E+000
 0.393783E+000
 0.389271E+000
 0.383960E+000
 0.377636E+000
 0.370009E+000
 0.360687E+000
 0.349121E+000
 0.334526E+000
 0.315743E+000
 0.291012E+000
 0.257544E+000
 0.210681E+000
 0.142228E+000
 0.370600E-001
-0.133865E+000
 0.402947E+000
 0.399576E+000
 0.395650E+000
 0.391027E+000
 0.385516E+000
 0.378858E+000
 0.370701E+000
 0.360551E+000
 0.347696E+000
 0.331074E+000
 0.309065E+000
 0.279084E+000
 0.236759E+000
 0.174192E+000
 0.763431E-001
-0.864744E-001
 0.408048E+000
 0.405188E+000
 0.401855E+000
 0.397922E+000
 0.393227E+000
 0.387548E+000
 0.380570E+000
 0.371860E+000
 0.360787E+000
 0.346405E+000
 0.327243E+000
 0.300955E+000
 0.263542E+000
 0.207583E+000
 0.118341E+000
-0.343729E-001
 0.412824E+000
 0.410467E+000
 0.407707E+000
 0.404451E+000
 0.400553E+000
 0.395827E+000
 0.390014E+000
 0.382726E+000
 0.373428E+000
 0.361301E+000
 0.345042E+000
 0.322551E+000
 0.290286E+000
 0.241523E+000
 0.162166E+000
 0.217776E-001
 0.417193E+000
 0.415306E+000
 0.413096E+000
 0.410475E+000
 0.407342E+000
 0.403527E+000
 0.398822E+000
 0.392924E+000
 0.385339E+000
 0.375422E+000
 0.362060E+000
 0.343398E+000
 0.316363E+000
 0.275195E+000
 0.206936E+000
 0.813184E-001
 0.421103E+000
 0.419654E+000
 0.417947E+000
 0.415927E+000
 0.413490E+000
 0.410543E+000
 0.406876E+000
 0.402273E+000
 0.396363E+000
 0.388521E+000
 0.377993E+000
 0.363140E+000
 0.341310E+000
 0.307868E+000
 0.251779E+000
 0.143608E+000
 0.424546E+000
 0.423488E+000
 0.422242E+000
 0.420756E+000
 0.418981E+000
 0.416795E+000
 0.414126E+000
 0.410698E+000
 0.406342E+000
 0.400539E+000
 0.392573E+000
 0.381539E+000
 0.364821E+000
 0.338970E+000
 0.295787E+000
 0.208059E+000
 0.427532E+000
 0.426820E+000
 0.425980E+000
 0.424983E+000
 0.423777E+000
 0.422326E+000
 0.420488E+000
 0.418238E+000
 0.415203E+000
 0.411354E+000
 0.405859E+000
 0.398189E+000
 0.386894E+000
 0.368051E+000
 0.338068E+000
 0.274040E+000
 0.430092E+000
 0.429676E+000
 0.429191E+000
 0.428617E+000
 0.427935E+000
 0.427098E+000
 0.426085E+000
 0.424756E+000
 0.423138E+000
 0.420786E+000
 0.417890E+000
 0.413168E+000
 0.406885E+000
 0.395774E+000
 0.376925E+000
 0.341486E+000
 0.432277E+000
 0.432096E+000
 0.431914E+000
 0.431710E+000
 0.431476E+000
 0.431202E+000
 0.430866E+000
 0.430465E+000
 0.429913E+000
 0.429263E+000
 0.428188E+000
 0.426986E+000
 0.424413E+000
 0.421735E+000
 0.413498E+000
 0.405705E+000
SCALARS von_Mises FLOAT     1
LOOKUP_TABLE default
 0.944596E+000
 0.950655E+000
 0.957786E+000
 0.966176E+000
 0.976100E+000
 0.987929E+000
 0.100215E+001
 0.101942E+001
 0.104051E+001
 0.106659E+001
 0.109826E+001
 0.113693E+001
 0.117909E+001
 0.121459E+001
 0.119912E+001
 0.953228E+000
 0.949093E+000
 0.955573E+000
 0.963149E+000
 0.972032E+000
 0.982510E+000
 0.994951E+000
 0.100988E+001
 0.102787E+001
 0.104987E+001
 0.107654E+001
 0.110923E+001
 0.114798E+001
 0.118940E+001
 0.122699E+001
 0.120149E+001
 0.105506E+001
 0.952814E+000
 0.959614E+000
 0.967522E+000
 0.976764E+000
 0.987620E+000
 0.100049E+001
 0.101582E+001
 0.103433E+001
 0.105664E+001
 0.108373E+001
 0.111657E+001
 0.115440E+001
 0.119647E+001
 0.122999E+001
 0.120861E+001
 0.115242E+001
 0.955403E+000
 0.962389E+000
 0.970481E+000
 0.979897E+000
 0.990937E+000
 0.100395E+001
 0.101945E+001
 0.103801E+001
 0.106030E+001
 0.108732E+001
 0.111926E+001
 0.115677E+001
 0.119677E+001
 0.122864E+001
 0.121557E+001
 0.125157E+001
 0.956453E+000
 0.963463E+000
 0.971546E+000
 0.980928E+000
 0.991882E+000
 0.100478E+001
 0.102007E+001
 0.103827E+001
 0.106018E+001
 0.108628E+001
 0.111738E+001
 0.115324E+001
 0.119145E+001
 0.122231E+001
 0.122394E+001
 0.135096E+001
 0.955538E+000
 0.962373E+000
 0.970231E+000
 0.979319E+000
 0.989909E+000
 0.100235E+001
 0.101704E+001
 0.103456E+001
 0.105543E+001
 0.108035E+001
 0.110986E+001
 0.114378E+001
 0.118025E+001
 0.121184E+001
 0.123457E+001
 0.144935E+001
 0.952249E+000
 0.958691E+000
 0.966071E+000
 0.974590E+000
 0.984509E+000
 0.996131E+000
 0.100988E+001
 0.102620E+001
 0.104566E+001
 0.106889E+001
 0.109640E+001
 0.112828E+001
 0.116340E+001
 0.119833E+001
 0.124803E+001
 0.154524E+001
 0.946263E+000
 0.952072E+000
 0.958712E+000
 0.966375E+000
 0.975291E+000
 0.985765E+000
 0.998151E+000
 0.101290E+001
 0.103054E+001
 0.105169E+001
 0.107697E+001
 0.110689E+001
 0.114158E+001
 0.118302E+001
 0.126439E+001
 0.163714E+001
 0.937420E+000
 0.942357E+000
 0.947998E+000
 0.954516E+000
 0.962134E+000
 0.971118E+000
 0.981805E+000
 0.994622E+000
 0.101011E+001
 0.102892E+001
 0.105193E+001
 0.108026E+001
 0.111590E+001
 0.116710E+001
 0.128329E+001
 0.172355E+001
 0.925828E+000
 0.929671E+000
 0.934074E+000
 0.939203E+000
 0.945252E+000
 0.952470E+000
 0.961175E+000
 0.971791E+000
 0.984890E+000
 0.100128E+001
 0.102215E+001
 0.104951E+001
 0.108777E+001
 0.115167E+001
 0.130393E+001
 0.180303E+001
 0.911953E+000
 0.914523E+000
 0.917512E+000
 0.921063E+000
 0.925352E+000
 0.930608E+000
 0.937143E+000
 0.945400E+000
 0.956029E+000
 0.970039E+000
 0.989097E+000
 0.101632E+001
 0.105885E+001
 0.113760E+001
 0.132523E+001
 0.187418E+001
 0.896688E+000
 0.897889E+000
 0.899370E+000
 0.901254E+000
 0.903696E+000
 0.906913E+000
 0.911221E+000
 0.917105E+000
 0.925330E+000
 0.937166E+000
 0.954864E+000
 0.982817E+000
 0.103093E+001
 0.112553E+001
 0.134587E+001
 0.193571E+001
 0.881361E+000
 0.881204E+000
 0.881205E+000
 0.881462E+000
 0.882111E+000
 0.883362E+000
 0.885549E+000
 0.889211E+000
 0.895254E+000
 0.905252E+000
 0.922087E+000
 0.951454E+000
 0.100582E+001
 0.111581E+001
 0.136449E+001
 0.198646E+001
 0.867618E+000
 0.866253E+000
 0.864948E+000
 0.863772E+000
 0.862849E+000
 0.862386E+000
 0.862738E+000
 0.864509E+000
 0.868748E+000
 0.877328E+000
 0.893737E+000
 0.924844E+000
 0.985219E+000
 0.110858E+001
 0.137978E+001
 0.202545E+001
 0.857193E+000
 0.854915E+000
 0.852627E+000
 0.850376E+000
 0.848275E+000
 0.846533E+000
 0.845525E+000
 0.845910E+000
 0.848856E+000
 0.856485E+000
 0.872762E+000
 0.905444E+000
 0.970588E+000
 0.110384E+001
 0.139065E+001
 0.205189E+001
 0.851554E+000
 0.848784E+000
 0.845966E+000
 0.843137E+000
 0.840403E+000
 0.837975E+000
 0.836241E+000
 0.835890E+000
 0.838162E+000
 0.845315E+000
 0.861583E+000
 0.895201E+000
 0.962991E+000
 0.110150E+001
 0.139629E+001
 0.206525E+001
 0.851554E+000
 0.848784E+000
 0.845966E+000
 0.843137E+000
 0.840403E+000
 0.837975E+000
 0.836241E+000
 0.835890E+000
 0.838162E+000
 0.845315E+000
 0.861583E+000
 0.895201E+000
 0.962991E+000
 0.110150E+001
 0.139629E+001
 0.206525E+001
 0.857193E+000
 0.854915E+000
 0.852627E+000
 0.850376E+000
 0.848275E+000
 0.846533E+000
 0.845525E+000
 0.845910E+000
 0.848856E+000
 0.856485E+000
 0.872762E+000
 0.905444E+000
 0.970588E+000
 0.110384E+001
 0.139065E+001
 0.205189E+001
 0.867618E+000
 0.866253E+000
 0.864948E+000
 0.863772E+000
 0.862849E+000
 0.862386E+000
 0.862738E+000
 0.864509E+000
 0.868748E+000
 0.877328E+000
 0.893737E+000
 0.924844E+000
 0.985219E+000
 0.110858E+001
 0.137978E+001
 0.202545E+001
 0.881361E+000
 0.881204E+000
 0.881205E+000
 0.881462E+000
 0.882111E+000
 0.883362E+000
 0.885549E+000
 0.889211E+000
 0.895254E+000
 0.905252E+000
 0.922087E+000
 0.951454E+000
 0.100582E+001
 0.111581E+001
 0.136449E+001
 0.198646E+001
 0.896688E+000
 0.897889E+000
 0.899370E+000
 0.901254E+000
 0.903696E+000
 0.906913E+000
 0.911221E+000
 0.917105E+000
 0.925330E+000
 0.937166E+000
 0.954864E+000
 0.982817E+000
 0.103093E+001
 0.112553E+001
 0.134587E+001
 0.193571E+001
 0.911953E+000
 0.914523E+000
 0.917512E+000
 0.921063E+000
 0.925352E+000
 0.930608E+000
 0.937143E+000
 0.945400E+000
 0.956029E+000
 0.970039E+000
 0.989097E+000
 0.101632E+001
 0.105885E+001
 0.113760E+001
 0.132523E+001
 0.187418E+001
 0.925828E+000
 0.929671E+000
 0.934074E+000
 0.939203E+000
 0.945252E+000
 0.952470E+000
 0.961175E+000
 0.971791E+000
 0.984890E+000
 0.100128E+001
 0.102215E+001
 0.104951E+001
 0.108777E+001
 0.115167E+001
 0.130393E+001
 0.180303E+001
 0.937420E+000
 0.942357E+000
 0.947998E+000
 0.954516E+000
 0.962134E+000
 0.971118E+000
 0.981805E+000
 0.994622E+000
 0.101011E+001
 0.102892E+001
 0.105193E+001
 0.108026E+001
 0.111590E+001
 0.116710E+001
 0.128329E+001
 0.172355E+001
 0.946263E+000
 0.952072E+000
 0.958712E+000
 0.966375E+000
 0.975291E+000
 0.985765E+000
 0.998151E+000
 0.101290E+001
 0.103054E+001
 0.105169E+001
 0.107697E+001
 0.110689E+001
 0.114158E+001
 0.118302E+001
 0.126439E+001
 0.163714E+001
 0.952249E+000
 0.958691E+000
 0.966071E+000
 0.974590E+000
 0.984509E+000
 0.996131E+000
 0.100988E+001
 0.102620E+001
 0.104566E+001
 0.106889E+001
 0.109640E+001
 0.112828E+001
 0.116340E+001
 0.119833E+001
 0.124803E+001
 0.154524E+001
 0.955538E+000
 0.962373E+000
 0.970231E+000
 0.979319E+000
 0.989909E+000
 0.100235E+001
 0.101704E+001
 0.103456E+001
 0.105543E+001
 0.108035E+001
 0.110986E+001
 0.114378E+001
 0.118025E+001
 0.121184E+001
 0.123457E+001
 0.144935E+001
 0.956453E+000
 0.963463E+000
 0.971546E+000
 0.980928E+000
 0.991882E+000
 0.100478E+001
 0.102007E+001
 0.103827E+001
 0.106018E+001
 0.108628E+001
 0.111738E+001
 0.115324E+001
 0.119145E+001
 0.122231E+001
 0.122394E+001
 0.135096E+001
 0.955403E+000
 0.962389E+000
 0.970481E+000
 0.979897E+000
 0.990937E+000
 0.100395E+001
 0.101945E+001
 0.103801E+001
 0.106030E+001
 0.108732E+001
 0.111926E+001
 0.115677E+001
 0.119677E+001
 0.122864E+001
 0.121557E+001
 0.125157E+001
 0.952814E+000
 0.959614E+000
 0.967522E+000
 0.976764E+000
 0.987620E+000
 0.100049E+001
 0.101582E+001
 0.103433E+001
 0.105664E+001
 0.108373E+001
 0.111657E+001
 0.115440E+001
 0.119647E+001
 0.122999E+001
 0.120861E+001
 0.115242E+001
 0.949093E+000
 0.955573E+000
 0.963149E+000
 0.972032E+000
 0.982510E+000
 0.994951E+000
 0.100988E+001
 0.102787E+001
 0.104987E+001
 0.107654E+001
 0.110923E+001
 0.114798E+001
 0.118940E+001
 0.122699E+001
 0.120149E+001
 0.105506E+001
 0.944596E+000
 0.950655E+000
 0.957786E+000
 0.966176E+000
 0.976100E+000
 0.987929E+000
 0.100215E+001
 0.101942E+001
 0.104051E+001
 0.106659E+001
 0.109826E+001
 0.113693E+001
 0.117909E+001
 0.121459E+001
 0.119912E+001
 0.953228E+000
 0.942688E+000
 0.948607E+000
 0.955528E+000
 0.963659E+000
 0.973273E+000
 0.984723E+000
 0.998506E+000
 0.101521E+001
 0.103573E+001
 0.106079E+001
 0.109193E+001
 0.112829E+001
 0.117056E+001
 0.119888E+001
 0.118401E+001
 0.848711E+000
 0.943008E+000
 0.948930E+000
 0.955829E+000
 0.963902E+000
 0.973406E+000
 0.984705E+000
 0.998228E+000
 0.101462E+001
 0.103451E+001
 0.105892E+001
 0.108835E+001
 0.112313E+001
 0.115984E+001
 0.118356E+001
 0.114613E+001
 0.750140E+000
 0.941899E+000
 0.947657E+000
 0.954341E+000
 0.962131E+000
 0.971284E+000
 0.982116E+000
 0.995069E+000
 0.101067E+001
 0.102953E+001
 0.105255E+001
 0.107971E+001
 0.111169E+001
 0.114251E+001
 0.115928E+001
 0.109832E+001
 0.660278E+000
 0.938903E+000
 0.944300E+000
 0.950538E+000
 0.957790E+000
 0.966280E+000
 0.976306E+000
 0.988275E+000
 0.100258E+001
 0.101996E+001
 0.104062E+001
 0.106525E+001
 0.109284E+001
 0.111757E+001
 0.112560E+001
 0.104158E+001
 0.577118E+000
 0.933537E+000
 0.938336E+000
 0.943860E+000
 0.950261E+000
 0.957736E+000
 0.966568E+000
 0.977037E+000
 0.989631E+000
 0.100468E+001
 0.102259E+001
 0.104364E+001
 0.106584E+001
 0.108444E+001
 0.108134E+001
 0.977726E+000
 0.504712E+000
 0.925305E+000
 0.929232E+000
 0.933730E+000
 0.938925E+000
 0.945000E+000
 0.952148E+000
 0.960674E+000
 0.970865E+000
 0.983006E+000
 0.997462E+000
 0.101385E+001
 0.103038E+001
 0.104176E+001
 0.102681E+001
 0.908366E+000
 0.447390E+000
 0.913754E+000
 0.916501E+000
 0.919623E+000
 0.923231E+000
 0.927447E+000
 0.932451E+000
 0.938439E+000
 0.945608E+000
 0.954215E+000
 0.964315E+000
 0.975385E+000
 0.985644E+000
 0.988922E+000
 0.962767E+000
 0.834992E+000
 0.409698E+000
 0.898548E+000
 0.899777E+000
 0.901155E+000
 0.902750E+000
 0.904657E+000
 0.906983E+000
 0.909843E+000
 0.913377E+000
 0.917689E+000
 0.922688E+000
 0.927813E+000
 0.931132E+000
 0.925924E+000
 0.890167E+000
 0.759057E+000
 0.394368E+000
 0.879568E+000
 0.878936E+000
 0.878185E+000
 0.877352E+000
 0.876475E+000
 0.875589E+000
 0.874741E+000
 0.873971E+000
 0.873269E+000
 0.872474E+000
 0.870996E+000
 0.866818E+000
 0.853280E+000
 0.810152E+000
 0.682014E+000
 0.400169E+000
 0.857045E+000
 0.854222E+000
 0.850985E+000
 0.847324E+000
 0.843210E+000
 0.838608E+000
 0.833476E+000
 0.827758E+000
 0.821361E+000
 0.814087E+000
 0.805360E+000
 0.793301E+000
 0.771969E+000
 0.724018E+000
 0.605358E+000
 0.421864E+000
 0.831693E+000
 0.826406E+000
 0.820386E+000
 0.813560E+000
 0.805826E+000
 0.797063E+000
 0.787131E+000
 0.775882E+000
 0.763151E+000
 0.748723E+000
 0.732126E+000
 0.711910E+000
 0.683458E+000
 0.633276E+000
 0.530680E+000
 0.452567E+000
 0.804836E+000
 0.796920E+000
 0.787935E+000
 0.777732E+000
 0.766121E+000
 0.752881E+000
 0.737767E+000
 0.720523E+000
 0.700906E+000
 0.678692E+000
 0.653609E+000
 0.624906E+000
 0.589857E+000
 0.539799E+000
 0.459782E+000
 0.486028E+000
 0.778444E+000
 0.767910E+000
 0.755968E+000
 0.742380E+000
 0.726857E+000
 0.709065E+000
 0.688633E+000
 0.665173E+000
 0.638323E+000
 0.607833E+000
 0.573653E+000
 0.535922E+000
 0.494322E+000
 0.446179E+000
 0.394915E+000
 0.517486E+000
 0.755037E+000
 0.742139E+000
 0.727517E+000
 0.710838E+000
 0.691712E+000
 0.669682E+000
 0.644230E+000
 0.614799E+000
 0.580852E+000
 0.542013E+000
 0.498357E+000
 0.450881E+000
 0.402045E+000
 0.356642E+000
 0.339169E+000
 0.543595E+000
 0.737355E+000
 0.722637E+000
 0.705942E+000
 0.686856E+000
 0.664894E+000
 0.639488E+000
 0.609975E+000
 0.575613E+000
 0.535636E+000
 0.489425E+000
 0.436925E+000
 0.379607E+000
 0.322518E+000
 0.279327E+000
 0.296931E+000
 0.562125E+000
 0.727801E+000
 0.712086E+000
 0.694251E+000
 0.673831E+000
 0.650288E+000
 0.622980E+000
 0.591150E+000
 0.553924E+000
 0.510354E+000
 0.459581E+000
 0.401285E+000
 0.336891E+000
 0.272850E+000
 0.230367E+000
 0.273649E+000
 0.571714E+000
 0.727801E+000
 0.712086E+000
 0.694251E+000
 0.673831E+000
 0.650288E+000
 0.622980E+000
 0.591150E+000
 0.553924E+000
 0.510354E+000
 0.459581E+000
 0.401285E+000
 0.336891E+000
 0.272850E+000
 0.230367E+000
 0.273649E+000
 0.571714E+000
 0.737355E+000
 0.722637E+000
 0.705942E+000
 0.686856E+000
 0.664894E+000
 0.639488E+000
 0.609975E+000
 0.575613E+000
 0.535636E+000
 0.489425E+000
 0.436925E+000
 0.379607E+000
 0.322518E+000
 0.279327E+000
 0.296931E+000
 0.562125E+000
 0.755037E+000
 0.742139E+000
 0.727517E+000
 0.710838E+000
 0.691712E+000
 0.669682E+000
 0.644230E+000
 0.614799E+000
 0.580852E+000
 0.542013E+000
 0.498357E+000
 0.450881E+000
 0.402045E+000
 0.356642E+000
 0.339169E+000
 0.543595E+000
 0.778444E+000
 0.767910E+000
 0.755968E+000
 0.742380E+000
 0.726857E+000
 0.709065E+000
 0.688633E+000
 0.665173E+000
 0.638323E+000
 0.607833E+000
 0.573653E+000
 0.535922E+000
 0.494322E+000
 0.446179E+000
 0.394915E+000
 0.517486E+000
 0.804836E+000
 0.796920E+000
 0.787935E+000
 0.777732E+000
 0.766121E+000
 0.752881E+000
 0.737767E+000
 0.720523E+000
 0.700906E+000
 0.678692E+000
 0.653609E+000
 0.624906E+000
 0.589857E+000
 0.539799E+000
 0.459782E+000
 0.486028E+000
 0.831693E+000
 0.826406E+000
 0.820386E+000
 0.813560E+000
 0.805826E+000
 0.797063E+000
 0.787131E+000
 0.775882E+000
 0.763151E+000
 0.748723E+000
 0.732126E+000
 0.711910E+000
 0.683458E+000
 0.633276E+000
 0.530680E+000
 0.452567E+000
 0.857045E+000
 0.854222E+000
 0.850985E+000
 0.847324E+000
 0.843210E+000
 0.838608E+000
 0.833476E+000
 0.827758E+000
 0.821361E+000
 0.814087E+000
 0.805360E+000
 0.793301E+000
 0.771969E+000
 0.724018E+000
 0.605358E+000
 0.421864E+000
 0.879568E+000
 0.878936E+000
 0.878185E+000
 0.877352E+000
 0.876475E+000
 0.875589E+000
 0.874741E+000
 0.873971E+000
 0.873269E+000
 0.872474E+000
 0.870996E+000
 0.866818E+000
 0.853280E+000
 0.810152E+000
 0.682014E+000
 0.400169E+000
 0.898548E+000
 0.899777E+000
 0.901155E+000
 0.902750E+000
 0.904657E+000
 0.906983E+000
 0.909843E+000
 0.913377E+000
 0.917689E+000
 0.922688E+000
 0.927813E+000
 0.931132E+000
 0.925924E+000
 0.890167E+000
 0.759057E+000
 0.394368E+000
 0.913754E+000
 0.916501E+000
 0.919623E+000
 0.923231E+000
 0.927447E+000
 0.932451E+000
 0.938439E+000
 0.945608E+000
 0.954215E+000
 0.964315E+000
 0.975385E+000
 0.985644E+000
 0.988922E+000
 0.962767E+000
 0.834992E+000
 0.409698E+000
 0.925305E+000
 0.929232E+000
 0.933730E+000
 0.938925E+000
 0.945000E+000
 0.952148E+000
 0.960674E+000
 0.970865E+000
 0.983006E+000
 0.997462E+000
 0.101385E+001
 0.103038E+001
 0.104176E+001
 0.102681E+001
 0.908366E+000
 0.447390E+000
 0.933537E+000
 0.938336E+000
 0.943860E+000
 0.950261E+000
 0.957736E+000
 0.966568E+000
 0.977037E+000
 0.989631E+000
 0.100468E+001
 0.102259E+001
 0.104364E+001
 0.106584E+001
 0.108444E+001
 0.108134E+001
 0.977726E+000
 0.504712E+000
 0.938903E+000
 0.944300E+000
 0.950538E+000
 0.957790E+000
 0.966280E+000
 0.976306E+000
 0.988275E+000
 0.100258E+001
 0.101996E+001
 0.104062E+001
 0.106525E+001
 0.109284E+001
 0.111757E+001
 0.112560E+001
 0.104158E+001
 0.577118E+000
 0.941899E+000
 0.947657E+000
 0.954341E+000
 0.962131E+000
 0.971284E+000
 0.982116E+000
 0.995069E+000
 0.101067E+001
 0.102953E+001
 0.105255E+001
 0.107971E+001
 0.111169E+001
 0.114251E+001
 0.115928E+001
 0.109832E+001
 0.660278E+000
 0.943008E+000
 0.948930E+000
 0.955829E+000
 0.963902E+000
 0.973406E+000
 0.984705E+000
 0.998228E+000
 0.101462E+001
 0.103451E+001
 0.105892E+001
 0.108835E+001
 0.112313E+001
 0.115984E+001
 0.118356E+001
 0.114613E+001
 0.750140E+000
 0.942688E+000
 0.948607E+000
 0.955528E+000
 0.963659E+000
 0.973273E+000
 0.984723E+000
 0.998506E+000
 0.101521E+001
 0.103573E+001
 0.106079E+001
 0.109193E+001
 0.112829E+001
 0.117056E+001
 0.119888E+001
 0.118401E+001
 0.848711E+000
 0.944596E+000
 0.950655E+000
 0.957786E+000
 0.966176E+000
 0.976100E+000
 0.987929E+000
 0.100215E+001
 0.101942E+001
 0.104051E+001
 0.106659E+001
 0.109826E+001
 0.113693E+001
 0.117909E+001
 0.121459E+001
 0.119912E+001
 0.953228E+000
 0.949093E+000
 0.955573E+000
 0.963149E+000
 0.972032E+000
 0.982510E+000
 0.994951E+000
 0.100988E+001
 0.102787E+001
 0.104987E+001
 0.107654E+001
 0.110923E+001
 0.114798E+001
 0.118940E+001
 0.122699E+001
 0.120149E+001
 0.105506E+001
 0.952814E+000
 0.959614E+000
 0.967522E+000
 0.976764E+000
 0.987620E+000
 0.100049E+001
 0.101582E+001
 0.103433E+001
 0.105664E+001
 0.108373E+001
 0.111657E+001
 0.115440E+001
 0.119647E+001
 0.122999E+001
 0.120861E+001
 0.115242E+001
 0.955403E+000
 0.962389E+000
 0.970481E+000
 0.979897E+000
 0.990937E+000
 0.100395E+001
 0.101945E+001
 0.103801E+001
 0.106030E+001
 0.108732E+001
 0.111926E+001
 0.115677E+001
 0.119677E+001
 0.122864E+001
 0.121557E+001
 0.125157E+001
 0.956453E+000
 0.963463E+000
 0.971546E+000
 0.980928E+000
 0.991882E+000
 0.100478E+001
 0.102007E+001
 0.103827E+001
 0.106018E+001
 0.108628E+001
 0.111738E+001
 0.115324E+001
 0.119145E+001
 0.122231E+001
 0.122394E+001
 0.135096E+001
 0.955538E+000
 0.962373E+000
 0.970231E+000
 0.979319E+000
 0.989909E+000
 0.100235E+001
 0.101704E+001
 0.103456E+001
 0.105543E+001
 0.108035E+001
 0.110986E+001
 0.114378E+001
 0.118025E+001
 0.121184E+001
 0.123457E+001
 0.144935E+001
 0.952249E+000
 0.958691E+000
 0.966071E+000
 0.974590E+000
 0.984509E+000
 0.996131E+000
 0.100988E+001
 0.102620E+001
 0.104566E+001
 0.106889E+001
 0.109640E+001
 0.112828E+001
 0.116340E+001
 0.119833E+001
 0.124803E+001
 0.154524E+001
 0.946263E+000
 0.952072E+000
 0.958712E+000
 0.966375E+000
 0.975291E+000
 0.985765E+000
 0.998151E+000
 0.101290E+001
 0.103054E+001
 0.105169E+001
 0.107697E+001
 0.110689E+001
 0.114158E+001
 0.118302E+001
 0.126439E+001
 0.163714E+001
 0.937420E+000
 0.942357E+000
 0.947998E+000
 0.954516E+000
 0.962134E+000
 0.971118E+000
 0.981805E+000
 0.994622E+000
 0.101011E+001
 0.102892E+001
 0.105193E+001
 0.108026E+001
 0.111590E+001
 0.116710E+001
 0.128329E+001
 0.172355E+001
 0.925828E+000
 0.929671E+000
 0.934074E+000
 0.939203E+000
 0.945252E+000
 0.952470E+000
 0.961175E+000
 0.971791E+000
 0.984890E+000
 0.100128E+001
 0.102215E+001
 0.104951E+001
 0.108777E+001
 0.115167E+001
 0.130393E+001
 0.180303E+001
 0.911953E+000
 0.914523E+000
 0.917512E+000
 0.921063E+000
 0.925352E+000
 0.930608E+000
 0.937143E+000
 0.945400E+000
 0.956029E+000
 0.970039E+000
 0.989097E+000
 0.101632E+001
 0.105885E+001
 0.113760E+001
 0.132523E+001
 0.187418E+001
 0.896688E+000
 0.897889E+000
 0.899370E+000
 0.901254E+000
 0.903696E+000
 0.906913E+000
 0.911221E+000
 0.917105E+000
 0.925330E+000
 0.937166E+000
 0.954864E+000
 0.982817E+000
 0.103093E+001
 0.112553E+001
 0.134587E+001
 0.193571E+001
 0.881361E+000
 0.881204E+000
 0.881205E+000
 0.881462E+000
 0.882111E+000
 0.883362E+000
 0.885549E+000
 0.889211E+000
 0.895254E+000
 0.905252E+000
 0.922087E+000
 0.951454E+000
 0.100582E+001
 0.111581E+001
 0.136449E+001
 0.198646E+001
 0.867618E+000
 0.866253E+000
 0.864948E+000
 0.863772E+000
 0.862849E+000
 0.862386E+000
 0.862738E+000
 0.864509E+000
 0.868748E+000
 0.877328E+000
 0.893737E+000
 0.924844E+000
 0.985219E+000
 0.110858E+001
 0.137978E+001
 0.202545E+001
 0.857193E+000
 0.854915E+000
 0.852627E+000
 0.850376E+000
 0.848275E+000
 0.846533E+000
 0.845525E+000
 0.845910E+000
 0.848856E+000
 0.856485E+000
 0.872762E+000
 0.905444E+000
 0.970588E+000
 0.110384E+001
 0.139065E+001
 0.205189E+001
 0.851554E+000
 0.848784E+000
 0.845966E+000
 0.843137E+000
 0.840403E+000
 0.837975E+000
 0.836241E+000
 0.835890E+000
 0.838162E+000
 0.845315E+000
 0.861583E+000
 0.895201E+000
 0.962991E+000
 0.110150E+001
 0.139629E+001
 0.206525E+001
 0.851554E+000
 0.848784E+000
 0.845966E+000
 0.843137E+000
 0.840403E+000
 0.837975E+000
 0.836241E+000
 0.835890E+000
 0.838162E+000
 0.845315E+000
 0.861583E+000
 0.895201E+000
 0.962991E+000
 0.110150E+001
 0.139629E+001
 0.206525E+001
 0.857193E+000
 0.854915E+000
 0.852627E+000
 0.850376E+000
 0.848275E+000
 0.846533E+000
 0.845525E+000
 0.845910E+000
 0.848856E+000
 0.856485E+000
 0.872762E+000
 0.905444E+000
 0.970588E+000
 0.110384E+001
 0.139065E+001
 0.205189E+001
 0.867618E+000
 0.866253E+000
 0.864948E+000
 0.863772E+000
 0.862849E+000
 0.862386E+000
 0.862738E+000
 0.864509E+000
 0.868748E+000
 0.877328E+000
 0.893737E+000
 0.924844E+000
 0.985219E+000
 0.110858E+001
 0.137978E+001
 0.202545E+001
 0.881361E+000
 0.881204E+000
 0.881205E+000
 0.881462E+000
 0.882111E+000
 0.883362E+000
 0.885549E+000
 0.889211E+000
 0.895254E+000
 0.905252E+000
 0.922087E+000
 0.951454E+000
 0.100582E+001
 0.111581E+001
 0.136449E+001
 0.198646E+001
 0.896688E+000
 0.897889E+000
 0.899370E+000
 0.901254E+000
 0.903696E+000
 0.906913E+000
 0.911221E+000
 0.917105E+000
 0.925330E+000
 0.937166E+000
 0.954864E+000
 0.982817E+000
 0.103093E+001
 0.112553E+001
 0.134587E+001
 0.193571E+001
 0.911953E+000
 0.914523E+000
 0.917512E+000
 0.921063E+000
 0.925352E+000
 0.930608E+000
 0.937143E+000
 0.945400E+000
 0.956029E+000
 0.970039E+000
 0.989097E+000
 0.101632E+001
 0.105885E+001
 0.113760E+001
 0.132523E+001
 0.187418E+001
 0.925828E+000
 0.929671E+000
 0.934074E+000
 0.939203E+000
 0.945252E+000
 0.952470E+000
 0.961175E+000
 0.971791E+000
 0.984890E+000
 0.100128E+001
 0.102215E+001
 0.104951E+001
 0.108777E+001
 0.115167E+001
 0.130393E+001
 0.180303E+001
 0.937420E+000
 0.942357E+000
 0.947998E+000
 0.954516E+000
 0.962134E+000
 0.971118E+000
 0.981805E+000
 0.994622E+000
 0.101011E+001
 0.102892E+001
 0.105193E+001
 0.108026E+001
 0.111590E+001
 0.116710E+001
 0.128329E+001
 0.172355E+001
 0.946263E+000
 0.952072E+000
 0.958712E+000
 0.966375E+000
 0.975291E+000
 0.985765E+000
 0.998151E+000
 0.101290E+001
 0.103054E+001
 0.105169E+001
 0.107697E+001
 0.110689E+001
 0.114158E+001
 0.118302E+001
 0.126439E+001
 0.163714E+001
 0.952249E+000
 0.958691E+000
 0.966071E+000
 0.974590E+000
 0.984509E+000
 0.996131E+000
 0.100988E+001
 0.102620E+001
 0.104566E+001
 0.106889E+001
 0.109640E+001
 0.112828E+001
 0.116340E+001
 0.119833E+001
 0.124803E+001
 0.154524E+001
 0.955538E+000
 0.962373E+000
 0.970231E+000
 0.979319E+000
 0.989909E+000
 0.100235E+001
 0.101704E+001
 0.103456E+001
 0.105543E+001
 0.108035E+001
 0.110986E+001
 0.114378E+001
 0.118025E+001
 0.121184E+001
 0.123457E+001
 0.144935E+001
 0.956453E+000
 0.963463E+000
 0.971546E+000
 0.980928E+000
 0.991882E+000
 0.100478E+001
 0.102007E+001
 0.103827E+001
 0.106018E+001
 0.108628E+001
 0.111738E+001
 0.115324E+001
 0.119145E+001
 0.122231E+001
 0.122394E+001
 0.135096E+001
 0.955403E+000
 0.962389E+000
 0.970481E+000
 0.979897E+000
 0.990937E+000
 0.100395E+001
 0.101945E+001
 0.103801E+001
 0.106030E+001
 0.108732E+001
 0.111926E+001
 0.115677E+001
 0.119677E+001
 0.122864E+001
 0.121557E+001
 0.125157E+001
 0.952814E+000
 0.959614E+000
 0.967522E+000
 0.976764E+000
 0.987620E+000
 0.100049E+001
 0.101582E+001
 0.103433E+001
 0.105664E+001
 0.108373E+001
 0.111657E+001
 0.115440E+001
 0.119647E+001
 0.122999E+001
 0.120861E+001
 0.115242E+001
 0.949093E+000
 0.955573E+000
 0.963149E+000
 0.972032E+000
 0.982510E+000
 0.994951E+000
 0.100988E+001
 0.102787E+001
 0.104987E+001
 0.107654E+001
 0.110923E+001
 0.114798E+001
 0.118940E+001
 0.122699E+001
 0.120149E+001
 0.105506E+001
 0.944596E+000
 0.950655E+000
 0.957786E+000
 0.966176E+000
 0.976100E+000
 0.987929E+000
 0.100215E+001
 0.101942E+001
 0.104051E+001
 0.106659E+001
 0.109826E+001
 0.113693E+001
 0.117909E+001
 0.121459E+001
 0.119912E+001
 0.953228E+000
 0.942688E+000
 0.948607E+000
 0.955528E+000
 0.963659E+000
 0.973273E+000
 0.984723E+000
 0.998506E+000
 0.101521E+001
 0.103573E+001
 0.106079E+001
 0.109193E+001
 0.112829E+001
 0.117056E+001
 0.119888E+001
 0.118401E+001
 0.848711E+000
 0.943008E+000
 0.948930E+000
 0.955829E+000
 0.963902E+000
 0.973406E+000
 0.984705E+000
 0.998228E+000
 0.101462E+001
 0.103451E+001
 0.105892E+001
 0.108835E+001
 0.112313E+001
 0.115984E+001
 0.118356E+001
 0.114613E+001
 0.750140E+000
 0.941899E+000
 0.947657E+000
 0.954341E+000
 0.962131E+000
 0.971284E+000
 0.982116E+000
 0.995069E+000
 0.101067E+001
 0.102953E+001
 0.105255E+001
 0.107971E+001
 0.111169E+001
 0.114251E+001
 0.115928E+001
 0.109832E+001
 0.660278E+000
 0.938903E+000
 0.944300E+000
 0.950538E+000
 0.957790E+000
 0.966280E+000
 0.976306E+000
 0.988275E+000
 0.100258E+001
 0.101996E+001
 0.104062E+001
 0.106525E+001
 0.109284E+001
 0.111757E+001
 0.112560E+001
 0.104158E+001
 0.577118E+000
 0.933537E+000
 0.938336E+000
 0.943860E+000
 0.950261E+000
 0.957736E+000
 0.966568E+000
 0.977037E+000
 0.989631E+000
 0.100468E+001
 0.102259E+001
 0.104364E+001
 0.106584E+001
 0.108444E+001
 0.108134E+001
 0.977726E+000
 0.504712E+000
 0.925305E+000
 0.929232E+000
 0.933730E+000
 0.938925E+000
 0.945000E+000
 0.952148E+000
 0.960674E+000
 0.970865E+000
 0.983006E+000
 0.997462E+000
 0.101385E+001
 0.103038E+001
 0.104176E+001
 0.102681E+001
 0.908366E+000
 0.447390E+000
 0.913754E+000
 0.916501E+000
 0.919623E+000
 0.923231E+000
 0.927447E+000
 0.932451E+000
 0.938439E+000
 0.945608E+000
 0.954215E+000
 0.964315E+000
 0.975385E+000
 0.985644E+000
 0.988922E+000
 0.962767E+000
 0.834992E+000
 0.409698E+000
 0.898548E+000
 0.899777E+000
 0.901155E+000
 0.902750E+000
 0.904657E+000
 0.906983E+000
 0.909843E+000
 0.913377E+000
 0.917689E+000
 0.922688E+000
 0.927813E+000
 0.931132E+000
 0.925924E+000
 0.890167E+000
 0.759057E+000
 0.394368E+000
 0.879568E+000
 0.878936E+000
 0.878185E+000
 0.877352E+000
 0.876475E+000
 0.875589E+000
 0.874741E+000
 0.873971E+000
 0.873269E+000
 0.872474E+000
 0.870996E+000
 0.866818E+000
 0.853280E+000
 0.810152E+000
 0.682014E+000
 0.400169E+000
 0.857045E+000
 0.854222E+000
 0.850985E+000
 0.847324E+000
 0.843210E+000
 0.838608E+000
 0.833476E+000
 0.827758E+000
 0.821361E+000
 0.814087E+000
 0.805360E+000
 0.793301E+000
 0.771969E+000
 0.724018E+000
 0.605358E+000
 0.421864E+000
 0.831693E+000
 0.826406E+000
 0.820386E+000
 0.813560E+000
 0.805826E+000
 0.797063E+000
 0.787131E+000
 0.775882E+000
 0.763151E+000
 0.748723E+000
 0.732126E+000
 0.711910E+000
 0.683458E+000
 0.633276E+000
 0.530680E+000
 0.452567E+000
 0.804836E+000
 0.796920E+000
 0.787935E+000
 0.777732E+000
 0.766121E+000
 0.752881E+000
 0.737767E+000
 0.720523E+000
 0.700906E+000
 0.678692E+000
 0.653609E+000
 0.624906E+000
 0.589857E+000
 0.539799E+000
 0.459782E+000
 0.486028E+000
 0.778444E+000
 0.767910E+000
 0.755968E+000
 0.742380E+000
 0.726857E+000
 0.709065E+000
 0.688633E+000
 0.665173E+000
 0.638323E+000
 0.607833E+000
 0.573653E+000
 0.535922E+000
 0.494322E+000
 0.446179E+000
 0.394915E+000
 0.517486E+000
 0.755037E+000
 0.742139E+000
 0.727517E+000
 0.710838E+000
 0.691712E+000
 0.669682E+000
 0.644230E+000
 0.614799E+000
 0.580852E+000
 0.542013E+000
 0.498357E+000
 0.450881E+000
 0.402045E+000
 0.356642E+000
 0.339169E+000
 0.543595E+000
 0.737355E+000
 0.722637E+000
 0.705942E+000
 0.686856E+000
 0.664894E+000
 0.639488E+000
 0.609975E+000
 0.575613E+000
 0.535636E+000
 0.489425E+000
 0.436925E+000
 0.379607E+000
 0.322518E+000
 0.279327E+000
 0.296931E+000
 0.562125E+000
 0.727801E+000
 0.712086E+000
 0.694251E+000
 0.673831E+000
 0.650288E+000
 0.622980E+000
 0.591150E+000
 0.553924E+000
 0.510354E+000
 0.459581E+000
 0.401285E+000
 0.336891E+000
 0.272850E+000
 0.230367E+000
 0.273649E+000
 0.571714E+000
 0.727801E+000
 0.712086E+000
 0.694251E+000
 0.673831E+000
 0.650288E+000
 0.622980E+000
 0.591150E+000
 0.553924E+000
 0.510354E+000
 0.459581E+000
 0.401285E+000
 0.336891E+000
 0.272850E+000
 0.230367E+000
 0.273649E+000
 0.571714E+000
 0.737355E+000
 0.722637E+000
 0.705942E+000
 0.686856E+000
 0.664894E+000
 0.639488E+000
 0.609975E+000
 0.575613E+000
 0.535636E+000
 0.489425E+000
 0.436925E+000
 0.379607E+000
 0.322518E+000
 0.279327E+000
 0.296931E+000
 0.562125E+000
 0.755037E+000
 0.742139E+000
 0.727517E+000
 0.710838E+000
 0.691712E+000
 0.669682E+000
 0.644230E+000
 0.614799E+000
 0.580852E+000
 0.542013E+000
 0.498357E+000
 0.450881E+000
 0.402045E+000
 0.356642E+000
 0.339169E+000
 0.543595E+000
 0.778444E+000
 0.767910E+000
 0.755968E+000
 0.742380E+000
 0.726857E+000
 0.709065E+000
 0.688633E+000
 0.665173E+000
 0.638323E+000
 0.607833E+000
 0.573653E+000
 0.535922E+000
 0.494322E+000
 0.446179E+000
 0.394915E+000
 0.517486E+000
 0.804836E+000
 0.796920E+000
 0.787935E+000
 0.777732E+000
 0.766121E+000
 0.752881E+000
 0.737767E+000
 0.720523E+000
 0.700906E+000
 0.678692E+000
 0.653609E+000
 0.624906E+000
 0.589857E+000
 0.539799E+000
 0.459782E+000
 0.486028E+000
 0.831693E+000
 0.826406E+000
 0.820386E+000
 0.813560E+000
 0.805826E+000
 0.797063E+000
 0.787131E+000
 0.775882E+000
 0.763151E+000
 0.748723E+000
 0.732126E+000
 0.711910E+000
 0.683458E+000
 0.633276E+000
 0.530680E+000
 0.452567E+000
 0.857045E+000
 0.854222E+000
 0.850985E+000
 0.847324E+000
 0.843210E+000
 0.838608E+000
 0.833476E+000
 0.827758E+000
 0.821361E+000
 0.814087E+000
 0.805360E+000
 0.793301E+000
 0.771969E+000
 0.724018E+000
 0.605358E+000
 0.421864E+000
 0.879568E+000
 0.878936E+000
 0.878185E+000
 0.877352E+000
 0.876475E+000
 0.875589E+000
 0.874741E+000
 0.873971E+000
 0.873269E+000
 0.872474E+000
 0.870996E+000
 0.866818E+000
 0.853280E+000
 0.810152E+000
 0.682014E+000
 0.400169E+000
 0.898548E+000
 0.899777E+000
 0.901155E+000
 0.902750E+000
 0.904657E+000
 0.906983E+000
 0.909843E+000
 0.913377E+000
 0.917689E+000
 0.922688E+000
 0.927813E+000
 0.931132E+000
 0.925924E+000
 0.890167E+000
 0.759057E+000
 0.394368E+000
 0.913754E+000
 0.916501E+000
 0.919623E+000
 0.923231E+000
 0.927447E+000
 0.932451E+000
 0.938439E+000
 0.945608E+000
 0.954215E+000
 0.964315E+000
 0.975385E+000
 0.985644E+000
 0.988922E+000
 0.962767E+000
 0.834992E+000
 0.409698E+000
 0.925305E+000
 0.929232E+000
 0.933730E+000
 0.938925E+000
 0.945000E+000
 0.952148E+000
 0.960674E+000
 0.970865E+000
 0.983006E+000
 0.997462E+000
 0.101385E+001
 0.103038E+001
 0.104176E+001
 0.102681E+001
 0.908366E+000
 0.447390E+000
 0.933537E+000
 0.938336E+000
 0.943860E+000
 0.950261E+000
 0.957736E+000
 0.966568E+000
 0.977037E+000
 0.989631E+000
 0.100468E+001
 0.102259E+001
 0.104364E+001
 0.106584E+001
 0.108444E+001
 0.108134E+001
 0.977726E+000
 0.504712E+000
 0.938903E+000
 0.944300E+000
 0.950538E+000
 0.957790E+000
 0.966280E+000
 0.976306E+000
 0.988275E+000
 0.100258E+001
 0.101996E+001
 0.104062E+001
 0.106525E+001
 0.109284E+001
 0.111757E+001
 0.112560E+001
 0.104158E+001
 0.577118E+000
 0.941899E+000
 0.947657E+000
 0.954341E+000
 0.962131E+000
 0.971284E+000
 0.982116E+000
 0.995069E+000
 0.101067E+001
 0.102953E+001
 0.105255E+001
 0.107971E+001
 0.111169E+001
 0.114251E+001
 0.115928E+001
 0.109832E+001
 0.660278E+000
 0.943008E+000
 0.948930E+000
 0.955829E+000
 0.963902E+000
 0.973406E+000
 0.984705E+000
 0.998228E+000
 0.101462E+001
 0.103451E+001
 0.105892E+001
 0.108835E+001
 0.112313E+001
 0.115984E+001
 0.118356E+001
 0.114613E+001
 0.750140E+000
 0.942688E+000
 0.948607E+000
 0.955528E+000
 0.963659E+000
 0.973273E+000
 0.984723E+000
 0.998506E+000
 0.101521E+001
 0.103573E+001
 0.106079E+001
 0.109193E+001
 0.112829E+001
 0.117056E+001
 0.119888E+001
 0.118401E+001
 0.848711E+000
