# vtk DataFile Version 3.0
output
ASCII
DATASET UNSTRUCTURED_GRID
POINTS    16 FLOAT
-0.100000E+001 -0.100000E+001  0.000000E+000
 0.000000E+000 -0.100000E+001  0.000000E+000
-0.176777E+000 -0.176777E+000  0.000000E+000
-0.459243E-016 -0.250000E+000  0.000000E+000
-0.100000E+001  0.000000E+000  0.000000E+000
-0.250000E+000  0.918485E-016  0.000000E+000
 0.100000E+001 -0.100000E+001  0.000000E+000
 0.176777E+000 -0.176777E+000  0.000000E+000
-0.100000E+001  0.100000E+001  0.000000E+000
-0.176777E+000  0.176777E+000  0.000000E+000
 0.100000E+001  0.000000E+000  0.000000E+000
 0.250000E+000 -0.612323E-016  0.000000E+000
 0.000000E+000  0.100000E+001  0.000000E+000
 0.765404E-016  0.250000E+000  0.000000E+000
 0.100000E+001  0.100000E+001  0.000000E+000
 0.176777E+000  0.176777E+000  0.000000E+000
CELLS     8    40
    4    0     1     3     2
    4    1     6     7     3
    4    6    10    11     7
    4   10    14    15    11
    4   14    12    13    15
    4   12     8     9    13
    4    8     4     5     9
    4    4     0     2     5
CELL_TYPES     8
    9
    9
    9
    9
    9
    9
    9
    9
POINT_DATA    16
SCALARS displacement FLOAT     3
LOOKUP_TABLE default
-0.326620E-004  0.133301E-004  0.000000E+000
 0.192036E-020  0.158823E-004  0.000000E+000
-0.114337E-004  0.237707E-005  0.000000E+000
-0.221980E-015  0.618290E-005  0.000000E+000
-0.366150E-004 -0.130168E-020  0.000000E+000
-0.274870E-004 -0.554847E-016  0.000000E+000
 0.326620E-004  0.133301E-004  0.000000E+000
 0.114337E-004  0.237707E-005  0.000000E+000
-0.326620E-004 -0.133301E-004  0.000000E+000
-0.114337E-004 -0.237707E-005  0.000000E+000
 0.366150E-004  0.000000E+000  0.000000E+000
 0.274870E-004  0.554863E-016  0.000000E+000
 0.192036E-020 -0.158823E-004  0.000000E+000
 0.166484E-015 -0.618290E-005  0.000000E+000
 0.326620E-004 -0.133301E-004  0.000000E+000
 0.114337E-004 -0.237707E-005  0.000000E+000
CELL_DATA     8
SCALARS region_id INT     1
LOOKUP_TABLE default
    1
    1
    1
    1
    1
    1
    1
    1
SCALARS element_id INT     1
LOOKUP_TABLE default
    1
    2
    3
    4
    5
    6
    7
    8
SCALARS stress_11 FLOAT     1
LOOKUP_TABLE default
 0.108363E+001
 0.108363E+001
 0.722471E+000
 0.722471E+000
 0.108363E+001
 0.108363E+001
 0.722471E+000
 0.722471E+000
SCALARS stress_22 FLOAT     1
LOOKUP_TABLE default
-0.116524E-001
-0.116524E-001
-0.115348E+000
-0.115348E+000
-0.116524E-001
-0.116524E-001
-0.115348E+000
-0.115348E+000
SCALARS stress_33 FLOAT     1
LOOKUP_TABLE default
 0.321594E+000
 0.321594E+000
 0.182137E+000
 0.182137E+000
 0.321594E+000
 0.321594E+000
 0.182137E+000
 0.182137E+000
SCALARS stress_23 FLOAT     1
LOOKUP_TABLE default
 0.000000E+000
 0.000000E+000
 0.000000E+000
 0.000000E+000
 0.000000E+000
 0.000000E+000
 0.000000E+000
 0.000000E+000
SCALARS stress_13 FLOAT     1
LOOKUP_TABLE default
 0.000000E+000
 0.000000E+000
 0.000000E+000
 0.000000E+000
 0.000000E+000
 0.000000E+000
 0.000000E+000
 0.000000E+000
SCALARS stress_12 FLOAT     1
LOOKUP_TABLE default
-0.170238E-001
 0.170238E-001
 0.866095E-001
-0.866095E-001
-0.170238E-001
 0.170238E-001
 0.866095E-001
-0.866095E-001
SCALARS pressure FLOAT     1
LOOKUP_TABLE default
 0.464525E+000
 0.464525E+000
 0.263087E+000
 0.263087E+000
 0.464525E+000
 0.464525E+000
 0.263087E+000
 0.263087E+000
SCALARS von_Mises FLOAT     1
LOOKUP_TABLE default
 0.973840E+000
 0.973840E+000
 0.754234E+000
 0.754234E+000
 0.973840E+000
 0.973840E+000
 0.754234E+000
 0.754234E+000
