# vtk DataFile Version 3.0
output
ASCII
DATASET UNSTRUCTURED_GRID
POINTS  8448 FLOAT
-0.100000E+001 -0.100000E+001  0.000000E+000
-0.968750E+000 -0.100000E+001  0.000000E+000
-0.974274E+000 -0.974274E+000  0.000000E+000
-0.943864E+000 -0.974408E+000  0.000000E+000
-0.100000E+001 -0.968750E+000  0.000000E+000
-0.974408E+000 -0.943864E+000  0.000000E+000
-0.937500E+000 -0.100000E+001  0.000000E+000
-0.913450E+000 -0.974539E+000  0.000000E+000
-0.948549E+000 -0.948549E+000  0.000000E+000
-0.918977E+000 -0.948816E+000  0.000000E+000
-0.948816E+000 -0.918977E+000  0.000000E+000
-0.889399E+000 -0.949077E+000  0.000000E+000
-0.100000E+001 -0.937500E+000  0.000000E+000
-0.974539E+000 -0.913450E+000  0.000000E+000
-0.949077E+000 -0.889399E+000  0.000000E+000
-0.906250E+000 -0.100000E+001  0.000000E+000
-0.883033E+000 -0.974666E+000  0.000000E+000
-0.859815E+000 -0.949331E+000  0.000000E+000
-0.922823E+000 -0.922823E+000  0.000000E+000
-0.894091E+000 -0.923225E+000  0.000000E+000
-0.923225E+000 -0.894091E+000  0.000000E+000
-0.865349E+000 -0.923616E+000  0.000000E+000
-0.923616E+000 -0.865349E+000  0.000000E+000
-0.836598E+000 -0.923997E+000  0.000000E+000
-0.100000E+001 -0.906250E+000  0.000000E+000
-0.974666E+000 -0.883033E+000  0.000000E+000
-0.949331E+000 -0.859815E+000  0.000000E+000
-0.923997E+000 -0.836598E+000  0.000000E+000
-0.875000E+000 -0.100000E+001  0.000000E+000
-0.852612E+000 -0.974789E+000  0.000000E+000
-0.830225E+000 -0.949578E+000  0.000000E+000
-0.807837E+000 -0.924367E+000  0.000000E+000
-0.897097E+000 -0.897097E+000  0.000000E+000
-0.869204E+000 -0.897633E+000  0.000000E+000
-0.897633E+000 -0.869204E+000  0.000000E+000
-0.841299E+000 -0.898155E+000  0.000000E+000
-0.898155E+000 -0.841299E+000  0.000000E+000
-0.813380E+000 -0.898663E+000  0.000000E+000
-0.898663E+000 -0.813380E+000  0.000000E+000
-0.785450E+000 -0.899157E+000  0.000000E+000
-0.100000E+001 -0.875000E+000  0.000000E+000
-0.974789E+000 -0.852612E+000  0.000000E+000
-0.949578E+000 -0.830225E+000  0.000000E+000
-0.924367E+000 -0.807837E+000  0.000000E+000
-0.899157E+000 -0.785450E+000  0.000000E+000
-0.843750E+000 -0.100000E+001  0.000000E+000
-0.822189E+000 -0.974909E+000  0.000000E+000
-0.800629E+000 -0.949818E+000  0.000000E+000
-0.779068E+000 -0.924727E+000  0.000000E+000
-0.757507E+000 -0.899636E+000  0.000000E+000
-0.871371E+000 -0.871371E+000  0.000000E+000
-0.844318E+000 -0.872041E+000  0.000000E+000
-0.872041E+000 -0.844318E+000  0.000000E+000
-0.817248E+000 -0.872693E+000  0.000000E+000
-0.872693E+000 -0.817248E+000  0.000000E+000
-0.790163E+000 -0.873328E+000  0.000000E+000
-0.873328E+000 -0.790163E+000  0.000000E+000
-0.763062E+000 -0.873946E+000  0.000000E+000
-0.873946E+000 -0.763062E+000  0.000000E+000
-0.735947E+000 -0.874545E+000  0.000000E+000
-0.100000E+001 -0.843750E+000  0.000000E+000
-0.974909E+000 -0.822189E+000  0.000000E+000
-0.949818E+000 -0.800629E+000  0.000000E+000
-0.924727E+000 -0.779068E+000  0.000000E+000
-0.899636E+000 -0.757507E+000  0.000000E+000
-0.874545E+000 -0.735947E+000  0.000000E+000
-0.812500E+000 -0.100000E+001  0.000000E+000
-0.791763E+000 -0.975025E+000  0.000000E+000
-0.771027E+000 -0.950050E+000  0.000000E+000
-0.750290E+000 -0.925075E+000  0.000000E+000
-0.729553E+000 -0.900100E+000  0.000000E+000
-0.708816E+000 -0.875125E+000  0.000000E+000
-0.845646E+000 -0.845646E+000  0.000000E+000
-0.819432E+000 -0.846449E+000  0.000000E+000
-0.846449E+000 -0.819432E+000  0.000000E+000
-0.793198E+000 -0.847232E+000  0.000000E+000
-0.847232E+000 -0.793198E+000  0.000000E+000
-0.766946E+000 -0.847994E+000  0.000000E+000
-0.847994E+000 -0.766946E+000  0.000000E+000
-0.740675E+000 -0.848735E+000  0.000000E+000
-0.848735E+000 -0.740675E+000  0.000000E+000
-0.714386E+000 -0.849454E+000  0.000000E+000
-0.849454E+000 -0.714386E+000  0.000000E+000
-0.688080E+000 -0.850150E+000  0.000000E+000
-0.100000E+001 -0.812500E+000  0.000000E+000
-0.975025E+000 -0.791763E+000  0.000000E+000
-0.950050E+000 -0.771027E+000  0.000000E+000
-0.925075E+000 -0.750290E+000  0.000000E+000
-0.900100E+000 -0.729553E+000  0.000000E+000
-0.875125E+000 -0.708816E+000  0.000000E+000
-0.850150E+000 -0.688080E+000  0.000000E+000
-0.781250E+000 -0.100000E+001  0.000000E+000
-0.761334E+000 -0.975137E+000  0.000000E+000
-0.741419E+000 -0.950275E+000  0.000000E+000
-0.721503E+000 -0.925412E+000  0.000000E+000
-0.701588E+000 -0.900550E+000  0.000000E+000
-0.681672E+000 -0.875687E+000  0.000000E+000
-0.661757E+000 -0.850824E+000  0.000000E+000
-0.819920E+000 -0.819920E+000  0.000000E+000
-0.794545E+000 -0.820857E+000  0.000000E+000
-0.820857E+000 -0.794545E+000  0.000000E+000
-0.769148E+000 -0.821771E+000  0.000000E+000
-0.821771E+000 -0.769148E+000  0.000000E+000
-0.743728E+000 -0.822660E+000  0.000000E+000
-0.822660E+000 -0.743728E+000  0.000000E+000
-0.718287E+000 -0.823524E+000  0.000000E+000
-0.823524E+000 -0.718287E+000  0.000000E+000
-0.692825E+000 -0.824363E+000  0.000000E+000
-0.824363E+000 -0.692825E+000  0.000000E+000
-0.667343E+000 -0.825175E+000  0.000000E+000
-0.825175E+000 -0.667343E+000  0.000000E+000
-0.641841E+000 -0.825962E+000  0.000000E+000
-0.100000E+001 -0.781250E+000  0.000000E+000
-0.975137E+000 -0.761334E+000  0.000000E+000
-0.950275E+000 -0.741419E+000  0.000000E+000
-0.925412E+000 -0.721503E+000  0.000000E+000
-0.900550E+000 -0.701588E+000  0.000000E+000
-0.875687E+000 -0.681672E+000  0.000000E+000
-0.850824E+000 -0.661757E+000  0.000000E+000
-0.825962E+000 -0.641841E+000  0.000000E+000
-0.750000E+000 -0.100000E+001  0.000000E+000
-0.730903E+000 -0.975246E+000  0.000000E+000
-0.711806E+000 -0.950492E+000  0.000000E+000
-0.692709E+000 -0.925738E+000  0.000000E+000
-0.673612E+000 -0.900983E+000  0.000000E+000
-0.654514E+000 -0.876229E+000  0.000000E+000
-0.635417E+000 -0.851475E+000  0.000000E+000
-0.616320E+000 -0.826721E+000  0.000000E+000
-0.794194E+000 -0.794194E+000  0.000000E+000
-0.769659E+000 -0.795265E+000  0.000000E+000
-0.795265E+000 -0.769659E+000  0.000000E+000
-0.745097E+000 -0.796309E+000  0.000000E+000
-0.796309E+000 -0.745097E+000  0.000000E+000
-0.720511E+000 -0.797326E+000  0.000000E+000
-0.797326E+000 -0.720511E+000  0.000000E+000
-0.695900E+000 -0.798313E+000  0.000000E+000
-0.798313E+000 -0.695900E+000  0.000000E+000
-0.671264E+000 -0.799272E+000  0.000000E+000
-0.799272E+000 -0.671264E+000  0.000000E+000
-0.646606E+000 -0.800200E+000  0.000000E+000
-0.800200E+000 -0.646606E+000  0.000000E+000
-0.621926E+000 -0.801099E+000  0.000000E+000
-0.801099E+000 -0.621926E+000  0.000000E+000
-0.597223E+000 -0.801967E+000  0.000000E+000
-0.100000E+001 -0.750000E+000  0.000000E+000
-0.975246E+000 -0.730903E+000  0.000000E+000
-0.950492E+000 -0.711806E+000  0.000000E+000
-0.925738E+000 -0.692709E+000  0.000000E+000
-0.900983E+000 -0.673612E+000  0.000000E+000
-0.876229E+000 -0.654514E+000  0.000000E+000
-0.851475E+000 -0.635417E+000  0.000000E+000
-0.826721E+000 -0.616320E+000  0.000000E+000
-0.801967E+000 -0.597223E+000  0.000000E+000
-0.718750E+000 -0.100000E+001  0.000000E+000
-0.700469E+000 -0.975350E+000  0.000000E+000
-0.682187E+000 -0.950701E+000  0.000000E+000
-0.663906E+000 -0.926051E+000  0.000000E+000
-0.645625E+000 -0.901402E+000  0.000000E+000
-0.627344E+000 -0.876752E+000  0.000000E+000
-0.609062E+000 -0.852103E+000  0.000000E+000
-0.590781E+000 -0.827453E+000  0.000000E+000
-0.572500E+000 -0.802803E+000  0.000000E+000
-0.768468E+000 -0.768468E+000  0.000000E+000
-0.744772E+000 -0.769674E+000  0.000000E+000
-0.769674E+000 -0.744772E+000  0.000000E+000
-0.721047E+000 -0.770848E+000  0.000000E+000
-0.770848E+000 -0.721047E+000  0.000000E+000
-0.697293E+000 -0.771991E+000  0.000000E+000
-0.771991E+000 -0.697293E+000  0.000000E+000
-0.673512E+000 -0.773102E+000  0.000000E+000
-0.773102E+000 -0.673512E+000  0.000000E+000
-0.649704E+000 -0.774181E+000  0.000000E+000
-0.774181E+000 -0.649704E+000  0.000000E+000
-0.625869E+000 -0.775226E+000  0.000000E+000
-0.775226E+000 -0.625869E+000  0.000000E+000
-0.602010E+000 -0.776236E+000  0.000000E+000
-0.776236E+000 -0.602010E+000  0.000000E+000
-0.578126E+000 -0.777213E+000  0.000000E+000
-0.777213E+000 -0.578126E+000  0.000000E+000
-0.554219E+000 -0.778154E+000  0.000000E+000
-0.100000E+001 -0.718750E+000  0.000000E+000
-0.975350E+000 -0.700469E+000  0.000000E+000
-0.950701E+000 -0.682187E+000  0.000000E+000
-0.926051E+000 -0.663906E+000  0.000000E+000
-0.901402E+000 -0.645625E+000  0.000000E+000
-0.876752E+000 -0.627344E+000  0.000000E+000
-0.852103E+000 -0.609062E+000  0.000000E+000
-0.827453E+000 -0.590781E+000  0.000000E+000
-0.802803E+000 -0.572500E+000  0.000000E+000
-0.778154E+000 -0.554219E+000  0.000000E+000
-0.687500E+000 -0.100000E+001  0.000000E+000
-0.670032E+000 -0.975451E+000  0.000000E+000
-0.652564E+000 -0.950902E+000  0.000000E+000
-0.635096E+000 -0.926353E+000  0.000000E+000
-0.617628E+000 -0.901804E+000  0.000000E+000
-0.600160E+000 -0.877255E+000  0.000000E+000
-0.582692E+000 -0.852706E+000  0.000000E+000
-0.565224E+000 -0.828157E+000  0.000000E+000
-0.547756E+000 -0.803608E+000  0.000000E+000
-0.530288E+000 -0.779059E+000  0.000000E+000
-0.742743E+000 -0.742743E+000  0.000000E+000
-0.719886E+000 -0.744082E+000  0.000000E+000
-0.744082E+000 -0.719886E+000  0.000000E+000
-0.696997E+000 -0.745387E+000  0.000000E+000
-0.745387E+000 -0.696997E+000  0.000000E+000
-0.674076E+000 -0.746657E+000  0.000000E+000
-0.746657E+000 -0.674076E+000  0.000000E+000
-0.651124E+000 -0.747891E+000  0.000000E+000
-0.747891E+000 -0.651124E+000  0.000000E+000
-0.628143E+000 -0.749090E+000  0.000000E+000
-0.749090E+000 -0.628143E+000  0.000000E+000
-0.605133E+000 -0.750251E+000  0.000000E+000
-0.750251E+000 -0.605133E+000  0.000000E+000
-0.582094E+000 -0.751374E+000  0.000000E+000
-0.751374E+000 -0.582094E+000  0.000000E+000
-0.559029E+000 -0.752459E+000  0.000000E+000
-0.752459E+000 -0.559029E+000  0.000000E+000
-0.535937E+000 -0.753504E+000  0.000000E+000
-0.753504E+000 -0.535937E+000  0.000000E+000
-0.512821E+000 -0.754510E+000  0.000000E+000
-0.100000E+001 -0.687500E+000  0.000000E+000
-0.975451E+000 -0.670032E+000  0.000000E+000
-0.950902E+000 -0.652564E+000  0.000000E+000
-0.926353E+000 -0.635096E+000  0.000000E+000
-0.901804E+000 -0.617628E+000  0.000000E+000
-0.877255E+000 -0.600160E+000  0.000000E+000
-0.852706E+000 -0.582692E+000  0.000000E+000
-0.828157E+000 -0.565224E+000  0.000000E+000
-0.803608E+000 -0.547756E+000  0.000000E+000
-0.779059E+000 -0.530288E+000  0.000000E+000
-0.754510E+000 -0.512821E+000  0.000000E+000
-0.656250E+000 -0.100000E+001  0.000000E+000
-0.639593E+000 -0.975548E+000  0.000000E+000
-0.622936E+000 -0.951095E+000  0.000000E+000
-0.606279E+000 -0.926643E+000  0.000000E+000
-0.589622E+000 -0.902190E+000  0.000000E+000
-0.572965E+000 -0.877738E+000  0.000000E+000
-0.556308E+000 -0.853285E+000  0.000000E+000
-0.539651E+000 -0.828833E+000  0.000000E+000
-0.522994E+000 -0.804380E+000  0.000000E+000
-0.506337E+000 -0.779928E+000  0.000000E+000
-0.489680E+000 -0.755476E+000  0.000000E+000
-0.717017E+000 -0.717017E+000  0.000000E+000
-0.695000E+000 -0.718490E+000  0.000000E+000
-0.718490E+000 -0.695000E+000  0.000000E+000
-0.672946E+000 -0.719925E+000  0.000000E+000
-0.719925E+000 -0.672946E+000  0.000000E+000
-0.650859E+000 -0.721323E+000  0.000000E+000
-0.721323E+000 -0.650859E+000  0.000000E+000
-0.628737E+000 -0.722681E+000  0.000000E+000
-0.722681E+000 -0.628737E+000  0.000000E+000
-0.606582E+000 -0.723999E+000  0.000000E+000
-0.723999E+000 -0.606582E+000  0.000000E+000
-0.584396E+000 -0.725276E+000  0.000000E+000
-0.725276E+000 -0.584396E+000  0.000000E+000
-0.562179E+000 -0.726511E+000  0.000000E+000
-0.726511E+000 -0.562179E+000  0.000000E+000
-0.539932E+000 -0.727704E+000  0.000000E+000
-0.727704E+000 -0.539932E+000  0.000000E+000
-0.517656E+000 -0.728855E+000  0.000000E+000
-0.728855E+000 -0.517656E+000  0.000000E+000
-0.495353E+000 -0.729961E+000  0.000000E+000
-0.729961E+000 -0.495353E+000  0.000000E+000
-0.473023E+000 -0.731023E+000  0.000000E+000
-0.100000E+001 -0.656250E+000  0.000000E+000
-0.975548E+000 -0.639593E+000  0.000000E+000
-0.951095E+000 -0.622936E+000  0.000000E+000
-0.926643E+000 -0.606279E+000  0.000000E+000
-0.902190E+000 -0.589622E+000  0.000000E+000
-0.877738E+000 -0.572965E+000  0.000000E+000
-0.853285E+000 -0.556308E+000  0.000000E+000
-0.828833E+000 -0.539651E+000  0.000000E+000
-0.804380E+000 -0.522994E+000  0.000000E+000
-0.779928E+000 -0.506337E+000  0.000000E+000
-0.755476E+000 -0.489680E+000  0.000000E+000
-0.731023E+000 -0.473023E+000  0.000000E+000
-0.625000E+000 -0.100000E+001  0.000000E+000
-0.609152E+000 -0.975640E+000  0.000000E+000
-0.593303E+000 -0.951280E+000  0.000000E+000
-0.577455E+000 -0.926920E+000  0.000000E+000
-0.561606E+000 -0.902560E+000  0.000000E+000
-0.545758E+000 -0.878200E+000  0.000000E+000
-0.529909E+000 -0.853840E+000  0.000000E+000
-0.514061E+000 -0.829480E+000  0.000000E+000
-0.498212E+000 -0.805120E+000  0.000000E+000
-0.482364E+000 -0.780760E+000  0.000000E+000
-0.466515E+000 -0.756400E+000  0.000000E+000
-0.450667E+000 -0.732040E+000  0.000000E+000
-0.691291E+000 -0.691291E+000  0.000000E+000
-0.670113E+000 -0.692898E+000  0.000000E+000
-0.692898E+000 -0.670113E+000  0.000000E+000
-0.648896E+000 -0.694464E+000  0.000000E+000
-0.694464E+000 -0.648896E+000  0.000000E+000
-0.627641E+000 -0.695988E+000  0.000000E+000
-0.695988E+000 -0.627641E+000  0.000000E+000
-0.606349E+000 -0.697470E+000  0.000000E+000
-0.697470E+000 -0.606349E+000  0.000000E+000
-0.585022E+000 -0.698907E+000  0.000000E+000
-0.698907E+000 -0.585022E+000  0.000000E+000
-0.563659E+000 -0.700301E+000  0.000000E+000
-0.700301E+000 -0.563659E+000  0.000000E+000
-0.542263E+000 -0.701649E+000  0.000000E+000
-0.701649E+000 -0.542263E+000  0.000000E+000
-0.520835E+000 -0.702950E+000  0.000000E+000
-0.702950E+000 -0.520835E+000  0.000000E+000
-0.499375E+000 -0.704205E+000  0.000000E+000
-0.704205E+000 -0.499375E+000  0.000000E+000
-0.477885E+000 -0.705412E+000  0.000000E+000
-0.705412E+000 -0.477885E+000  0.000000E+000
-0.456365E+000 -0.706571E+000  0.000000E+000
-0.706571E+000 -0.456365E+000  0.000000E+000
-0.434818E+000 -0.707680E+000  0.000000E+000
-0.100000E+001 -0.625000E+000  0.000000E+000
-0.975640E+000 -0.609152E+000  0.000000E+000
-0.951280E+000 -0.593303E+000  0.000000E+000
-0.926920E+000 -0.577455E+000  0.000000E+000
-0.902560E+000 -0.561606E+000  0.000000E+000
-0.878200E+000 -0.545758E+000  0.000000E+000
-0.853840E+000 -0.529909E+000  0.000000E+000
-0.829480E+000 -0.514061E+000  0.000000E+000
-0.805120E+000 -0.498212E+000  0.000000E+000
-0.780760E+000 -0.482364E+000  0.000000E+000
-0.756400E+000 -0.466515E+000  0.000000E+000
-0.732040E+000 -0.450667E+000  0.000000E+000
-0.707680E+000 -0.434818E+000  0.000000E+000
-0.593750E+000 -0.100000E+001  0.000000E+000
-0.578708E+000 -0.975728E+000  0.000000E+000
-0.563666E+000 -0.951457E+000  0.000000E+000
-0.548624E+000 -0.927185E+000  0.000000E+000
-0.533582E+000 -0.902913E+000  0.000000E+000
-0.518540E+000 -0.878642E+000  0.000000E+000
-0.503497E+000 -0.854370E+000  0.000000E+000
-0.488455E+000 -0.830098E+000  0.000000E+000
-0.473413E+000 -0.805827E+000  0.000000E+000
-0.458371E+000 -0.781555E+000  0.000000E+000
-0.443329E+000 -0.757283E+000  0.000000E+000
-0.428287E+000 -0.733011E+000  0.000000E+000
-0.413245E+000 -0.708740E+000  0.000000E+000
-0.665566E+000 -0.665566E+000  0.000000E+000
-0.645227E+000 -0.667306E+000  0.000000E+000
-0.667306E+000 -0.645227E+000  0.000000E+000
-0.624846E+000 -0.669003E+000  0.000000E+000
-0.669003E+000 -0.624846E+000  0.000000E+000
-0.604424E+000 -0.670654E+000  0.000000E+000
-0.670654E+000 -0.604424E+000  0.000000E+000
-0.583962E+000 -0.672259E+000  0.000000E+000
-0.672259E+000 -0.583962E+000  0.000000E+000
-0.563461E+000 -0.673816E+000  0.000000E+000
-0.673816E+000 -0.563461E+000  0.000000E+000
-0.542923E+000 -0.675326E+000  0.000000E+000
-0.675326E+000 -0.542923E+000  0.000000E+000
-0.522348E+000 -0.676786E+000  0.000000E+000
-0.676786E+000 -0.522348E+000  0.000000E+000
-0.501738E+000 -0.678196E+000  0.000000E+000
-0.678196E+000 -0.501738E+000  0.000000E+000
-0.481094E+000 -0.679555E+000  0.000000E+000
-0.679555E+000 -0.481094E+000  0.000000E+000
-0.460417E+000 -0.680863E+000  0.000000E+000
-0.680863E+000 -0.460417E+000  0.000000E+000
-0.439708E+000 -0.682118E+000  0.000000E+000
-0.682118E+000 -0.439708E+000  0.000000E+000
-0.418970E+000 -0.683320E+000  0.000000E+000
-0.683320E+000 -0.418970E+000  0.000000E+000
-0.398203E+000 -0.684468E+000  0.000000E+000
-0.100000E+001 -0.593750E+000  0.000000E+000
-0.975728E+000 -0.578708E+000  0.000000E+000
-0.951457E+000 -0.563666E+000  0.000000E+000
-0.927185E+000 -0.548624E+000  0.000000E+000
-0.902913E+000 -0.533582E+000  0.000000E+000
-0.878642E+000 -0.518540E+000  0.000000E+000
-0.854370E+000 -0.503497E+000  0.000000E+000
-0.830098E+000 -0.488455E+000  0.000000E+000
-0.805827E+000 -0.473413E+000  0.000000E+000
-0.781555E+000 -0.458371E+000  0.000000E+000
-0.757283E+000 -0.443329E+000  0.000000E+000
-0.733011E+000 -0.428287E+000  0.000000E+000
-0.708740E+000 -0.413245E+000  0.000000E+000
-0.684468E+000 -0.398203E+000  0.000000E+000
-0.562500E+000 -0.100000E+001  0.000000E+000
-0.548262E+000 -0.975812E+000  0.000000E+000
-0.534024E+000 -0.951625E+000  0.000000E+000
-0.519786E+000 -0.927437E+000  0.000000E+000
-0.505549E+000 -0.903250E+000  0.000000E+000
-0.491311E+000 -0.879062E+000  0.000000E+000
-0.477073E+000 -0.854874E+000  0.000000E+000
-0.462835E+000 -0.830687E+000  0.000000E+000
-0.448597E+000 -0.806499E+000  0.000000E+000
-0.434359E+000 -0.782312E+000  0.000000E+000
-0.420121E+000 -0.758124E+000  0.000000E+000
-0.405884E+000 -0.733937E+000  0.000000E+000
-0.391646E+000 -0.709749E+000  0.000000E+000
-0.377408E+000 -0.685561E+000  0.000000E+000
-0.639840E+000 -0.639840E+000  0.000000E+000
-0.620340E+000 -0.641715E+000  0.000000E+000
-0.641715E+000 -0.620340E+000  0.000000E+000
-0.600796E+000 -0.643542E+000  0.000000E+000
-0.643542E+000 -0.600796E+000  0.000000E+000
-0.581206E+000 -0.645320E+000  0.000000E+000
-0.645320E+000 -0.581206E+000  0.000000E+000
-0.561574E+000 -0.647048E+000  0.000000E+000
-0.647048E+000 -0.561574E+000  0.000000E+000
-0.541900E+000 -0.648725E+000  0.000000E+000
-0.648725E+000 -0.541900E+000  0.000000E+000
-0.522186E+000 -0.650351E+000  0.000000E+000
-0.650351E+000 -0.522186E+000  0.000000E+000
-0.502432E+000 -0.651923E+000  0.000000E+000
-0.651923E+000 -0.502432E+000  0.000000E+000
-0.482640E+000 -0.653442E+000  0.000000E+000
-0.653442E+000 -0.482640E+000  0.000000E+000
-0.462812E+000 -0.654906E+000  0.000000E+000
-0.654906E+000 -0.462812E+000  0.000000E+000
-0.442949E+000 -0.656314E+000  0.000000E+000
-0.656314E+000 -0.442949E+000  0.000000E+000
-0.423051E+000 -0.657666E+000  0.000000E+000
-0.657666E+000 -0.423051E+000  0.000000E+000
-0.403122E+000 -0.658960E+000  0.000000E+000
-0.658960E+000 -0.403122E+000  0.000000E+000
-0.383161E+000 -0.660196E+000  0.000000E+000
-0.660196E+000 -0.383161E+000  0.000000E+000
-0.363170E+000 -0.661374E+000  0.000000E+000
-0.100000E+001 -0.562500E+000  0.000000E+000
-0.975812E+000 -0.548262E+000  0.000000E+000
-0.951625E+000 -0.534024E+000  0.000000E+000
-0.927437E+000 -0.519786E+000  0.000000E+000
-0.903250E+000 -0.505549E+000  0.000000E+000
-0.879062E+000 -0.491311E+000  0.000000E+000
-0.854874E+000 -0.477073E+000  0.000000E+000
-0.830687E+000 -0.462835E+000  0.000000E+000
-0.806499E+000 -0.448597E+000  0.000000E+000
-0.782312E+000 -0.434359E+000  0.000000E+000
-0.758124E+000 -0.420121E+000  0.000000E+000
-0.733937E+000 -0.405884E+000  0.000000E+000
-0.709749E+000 -0.391646E+000  0.000000E+000
-0.685561E+000 -0.377408E+000  0.000000E+000
-0.661374E+000 -0.363170E+000  0.000000E+000
-0.531250E+000 -0.100000E+001  0.000000E+000
-0.517814E+000 -0.975892E+000  0.000000E+000
-0.504379E+000 -0.951785E+000  0.000000E+000
-0.490943E+000 -0.927677E+000  0.000000E+000
-0.477508E+000 -0.903569E+000  0.000000E+000
-0.464072E+000 -0.879461E+000  0.000000E+000
-0.450636E+000 -0.855354E+000  0.000000E+000
-0.437201E+000 -0.831246E+000  0.000000E+000
-0.423765E+000 -0.807138E+000  0.000000E+000
-0.410329E+000 -0.783030E+000  0.000000E+000
-0.396894E+000 -0.758923E+000  0.000000E+000
-0.383458E+000 -0.734815E+000  0.000000E+000
-0.370023E+000 -0.710707E+000  0.000000E+000
-0.356587E+000 -0.686599E+000  0.000000E+000
-0.343151E+000 -0.662492E+000  0.000000E+000
-0.614114E+000 -0.614114E+000  0.000000E+000
-0.595454E+000 -0.616123E+000  0.000000E+000
-0.616123E+000 -0.595454E+000  0.000000E+000
-0.576745E+000 -0.618080E+000  0.000000E+000
-0.618080E+000 -0.576745E+000  0.000000E+000
-0.557989E+000 -0.619985E+000  0.000000E+000
-0.619985E+000 -0.557989E+000  0.000000E+000
-0.539187E+000 -0.621837E+000  0.000000E+000
-0.621837E+000 -0.539187E+000  0.000000E+000
-0.520340E+000 -0.623634E+000  0.000000E+000
-0.623634E+000 -0.520340E+000  0.000000E+000
-0.501449E+000 -0.625376E+000  0.000000E+000
-0.625376E+000 -0.501449E+000  0.000000E+000
-0.482517E+000 -0.627061E+000  0.000000E+000
-0.627061E+000 -0.482517E+000  0.000000E+000
-0.463543E+000 -0.628688E+000  0.000000E+000
-0.628688E+000 -0.463543E+000  0.000000E+000
-0.444531E+000 -0.630256E+000  0.000000E+000
-0.630256E+000 -0.444531E+000  0.000000E+000
-0.425481E+000 -0.631765E+000  0.000000E+000
-0.631765E+000 -0.425481E+000  0.000000E+000
-0.406394E+000 -0.633213E+000  0.000000E+000
-0.633213E+000 -0.406394E+000  0.000000E+000
-0.387273E+000 -0.634600E+000  0.000000E+000
-0.634600E+000 -0.387273E+000  0.000000E+000
-0.368119E+000 -0.635925E+000  0.000000E+000
-0.635925E+000 -0.368119E+000  0.000000E+000
-0.348932E+000 -0.637186E+000  0.000000E+000
-0.637186E+000 -0.348932E+000  0.000000E+000
-0.329716E+000 -0.638384E+000  0.000000E+000
-0.100000E+001 -0.531250E+000  0.000000E+000
-0.975892E+000 -0.517814E+000  0.000000E+000
-0.951785E+000 -0.504379E+000  0.000000E+000
-0.927677E+000 -0.490943E+000  0.000000E+000
-0.903569E+000 -0.477508E+000  0.000000E+000
-0.879461E+000 -0.464072E+000  0.000000E+000
-0.855354E+000 -0.450636E+000  0.000000E+000
-0.831246E+000 -0.437201E+000  0.000000E+000
-0.807138E+000 -0.423765E+000  0.000000E+000
-0.783030E+000 -0.410329E+000  0.000000E+000
-0.758923E+000 -0.396894E+000  0.000000E+000
-0.734815E+000 -0.383458E+000  0.000000E+000
-0.710707E+000 -0.370023E+000  0.000000E+000
-0.686599E+000 -0.356587E+000  0.000000E+000
-0.662492E+000 -0.343151E+000  0.000000E+000
-0.638384E+000 -0.329716E+000  0.000000E+000
-0.500000E+000 -0.100000E+001  0.000000E+000
-0.487365E+000 -0.975968E+000  0.000000E+000
-0.474729E+000 -0.951936E+000  0.000000E+000
-0.462094E+000 -0.927903E+000  0.000000E+000
-0.449459E+000 -0.903871E+000  0.000000E+000
-0.436824E+000 -0.879839E+000  0.000000E+000
-0.424188E+000 -0.855807E+000  0.000000E+000
-0.411553E+000 -0.831775E+000  0.000000E+000
-0.398918E+000 -0.807742E+000  0.000000E+000
-0.386282E+000 -0.783710E+000  0.000000E+000
-0.373647E+000 -0.759678E+000  0.000000E+000
-0.361012E+000 -0.735646E+000  0.000000E+000
-0.348377E+000 -0.711614E+000  0.000000E+000
-0.335741E+000 -0.687582E+000  0.000000E+000
-0.323106E+000 -0.663549E+000  0.000000E+000
-0.310471E+000 -0.639517E+000  0.000000E+000
-0.588388E+000 -0.588388E+000  0.000000E+000
-0.570568E+000 -0.590531E+000  0.000000E+000
-0.590531E+000 -0.570568E+000  0.000000E+000
-0.552695E+000 -0.592619E+000  0.000000E+000
-0.592619E+000 -0.552695E+000  0.000000E+000
-0.534772E+000 -0.594651E+000  0.000000E+000
-0.594651E+000 -0.534772E+000  0.000000E+000
-0.516799E+000 -0.596626E+000  0.000000E+000
-0.596626E+000 -0.516799E+000  0.000000E+000
-0.498779E+000 -0.598543E+000  0.000000E+000
-0.598543E+000 -0.498779E+000  0.000000E+000
-0.480712E+000 -0.600401E+000  0.000000E+000
-0.600401E+000 -0.480712E+000  0.000000E+000
-0.462601E+000 -0.602198E+000  0.000000E+000
-0.602198E+000 -0.462601E+000  0.000000E+000
-0.444446E+000 -0.603934E+000  0.000000E+000
-0.603934E+000 -0.444446E+000  0.000000E+000
-0.426250E+000 -0.605607E+000  0.000000E+000
-0.605607E+000 -0.426250E+000  0.000000E+000
-0.408013E+000 -0.607216E+000  0.000000E+000
-0.607216E+000 -0.408013E+000  0.000000E+000
-0.389737E+000 -0.608761E+000  0.000000E+000
-0.608761E+000 -0.389737E+000  0.000000E+000
-0.371425E+000 -0.610240E+000  0.000000E+000
-0.610240E+000 -0.371425E+000  0.000000E+000
-0.353076E+000 -0.611653E+000  0.000000E+000
-0.611653E+000 -0.353076E+000  0.000000E+000
-0.334694E+000 -0.612999E+000  0.000000E+000
-0.612999E+000 -0.334694E+000  0.000000E+000
-0.316280E+000 -0.614276E+000  0.000000E+000
-0.614276E+000 -0.316280E+000  0.000000E+000
-0.297835E+000 -0.615485E+000  0.000000E+000
-0.100000E+001 -0.500000E+000  0.000000E+000
-0.975968E+000 -0.487365E+000  0.000000E+000
-0.951936E+000 -0.474729E+000  0.000000E+000
-0.927903E+000 -0.462094E+000  0.000000E+000
-0.903871E+000 -0.449459E+000  0.000000E+000
-0.879839E+000 -0.436824E+000  0.000000E+000
-0.855807E+000 -0.424188E+000  0.000000E+000
-0.831775E+000 -0.411553E+000  0.000000E+000
-0.807742E+000 -0.398918E+000  0.000000E+000
-0.783710E+000 -0.386282E+000  0.000000E+000
-0.759678E+000 -0.373647E+000  0.000000E+000
-0.735646E+000 -0.361012E+000  0.000000E+000
-0.711614E+000 -0.348377E+000  0.000000E+000
-0.687582E+000 -0.335741E+000  0.000000E+000
-0.663549E+000 -0.323106E+000  0.000000E+000
-0.639517E+000 -0.310471E+000  0.000000E+000
-0.615485E+000 -0.297835E+000  0.000000E+000
-0.468750E+000 -0.100000E+001  0.000000E+000
-0.456913E+000 -0.976039E+000  0.000000E+000
-0.445076E+000 -0.952078E+000  0.000000E+000
-0.433240E+000 -0.928117E+000  0.000000E+000
-0.421403E+000 -0.904156E+000  0.000000E+000
-0.409566E+000 -0.880195E+000  0.000000E+000
-0.397729E+000 -0.856234E+000  0.000000E+000
-0.385893E+000 -0.832273E+000  0.000000E+000
-0.374056E+000 -0.808312E+000  0.000000E+000
-0.362219E+000 -0.784351E+000  0.000000E+000
-0.350382E+000 -0.760390E+000  0.000000E+000
-0.338546E+000 -0.736429E+000  0.000000E+000
-0.326709E+000 -0.712468E+000  0.000000E+000
-0.314872E+000 -0.688507E+000  0.000000E+000
-0.303035E+000 -0.664546E+000  0.000000E+000
-0.291199E+000 -0.640585E+000  0.000000E+000
-0.279362E+000 -0.616624E+000  0.000000E+000
-0.562663E+000 -0.562663E+000  0.000000E+000
-0.545681E+000 -0.564939E+000  0.000000E+000
-0.564939E+000 -0.545681E+000  0.000000E+000
-0.528645E+000 -0.567158E+000  0.000000E+000
-0.567158E+000 -0.528645E+000  0.000000E+000
-0.511554E+000 -0.569317E+000  0.000000E+000
-0.569317E+000 -0.511554E+000  0.000000E+000
-0.494412E+000 -0.571415E+000  0.000000E+000
-0.571415E+000 -0.494412E+000  0.000000E+000
-0.477218E+000 -0.573452E+000  0.000000E+000
-0.573452E+000 -0.477218E+000  0.000000E+000
-0.459976E+000 -0.575426E+000  0.000000E+000
-0.575426E+000 -0.459976E+000  0.000000E+000
-0.442685E+000 -0.577335E+000  0.000000E+000
-0.577335E+000 -0.442685E+000  0.000000E+000
-0.425349E+000 -0.579180E+000  0.000000E+000
-0.579180E+000 -0.425349E+000  0.000000E+000
-0.407968E+000 -0.580957E+000  0.000000E+000
-0.580957E+000 -0.407968E+000  0.000000E+000
-0.390545E+000 -0.582667E+000  0.000000E+000
-0.582667E+000 -0.390545E+000  0.000000E+000
-0.373080E+000 -0.584308E+000  0.000000E+000
-0.584308E+000 -0.373080E+000  0.000000E+000
-0.355576E+000 -0.585880E+000  0.000000E+000
-0.585880E+000 -0.355576E+000  0.000000E+000
-0.338034E+000 -0.587381E+000  0.000000E+000
-0.587381E+000 -0.338034E+000  0.000000E+000
-0.320457E+000 -0.588811E+000  0.000000E+000
-0.588811E+000 -0.320457E+000  0.000000E+000
-0.302845E+000 -0.590168E+000  0.000000E+000
-0.590168E+000 -0.302845E+000  0.000000E+000
-0.285200E+000 -0.591453E+000  0.000000E+000
-0.591453E+000 -0.285200E+000  0.000000E+000
-0.267525E+000 -0.592663E+000  0.000000E+000
-0.100000E+001 -0.468750E+000  0.000000E+000
-0.976039E+000 -0.456913E+000  0.000000E+000
-0.952078E+000 -0.445076E+000  0.000000E+000
-0.928117E+000 -0.433240E+000  0.000000E+000
-0.904156E+000 -0.421403E+000  0.000000E+000
-0.880195E+000 -0.409566E+000  0.000000E+000
-0.856234E+000 -0.397729E+000  0.000000E+000
-0.832273E+000 -0.385893E+000  0.000000E+000
-0.808312E+000 -0.374056E+000  0.000000E+000
-0.784351E+000 -0.362219E+000  0.000000E+000
-0.760390E+000 -0.350382E+000  0.000000E+000
-0.736429E+000 -0.338546E+000  0.000000E+000
-0.712468E+000 -0.326709E+000  0.000000E+000
-0.688507E+000 -0.314872E+000  0.000000E+000
-0.664546E+000 -0.303035E+000  0.000000E+000
-0.640585E+000 -0.291199E+000  0.000000E+000
-0.616624E+000 -0.279362E+000  0.000000E+000
-0.592663E+000 -0.267525E+000  0.000000E+000
-0.437500E+000 -0.100000E+001  0.000000E+000
-0.426460E+000 -0.976106E+000  0.000000E+000
-0.415420E+000 -0.952212E+000  0.000000E+000
-0.404380E+000 -0.928317E+000  0.000000E+000
-0.393340E+000 -0.904423E+000  0.000000E+000
-0.382300E+000 -0.880529E+000  0.000000E+000
-0.371260E+000 -0.856635E+000  0.000000E+000
-0.360221E+000 -0.832741E+000  0.000000E+000
-0.349181E+000 -0.808847E+000  0.000000E+000
-0.338141E+000 -0.784952E+000  0.000000E+000
-0.327101E+000 -0.761058E+000  0.000000E+000
-0.316061E+000 -0.737164E+000  0.000000E+000
-0.305021E+000 -0.713270E+000  0.000000E+000
-0.293981E+000 -0.689376E+000  0.000000E+000
-0.282941E+000 -0.665481E+000  0.000000E+000
-0.271901E+000 -0.641587E+000  0.000000E+000
-0.260861E+000 -0.617693E+000  0.000000E+000
-0.249821E+000 -0.593799E+000  0.000000E+000
-0.536937E+000 -0.536937E+000  0.000000E+000
-0.520795E+000 -0.539347E+000  0.000000E+000
-0.539347E+000 -0.520795E+000  0.000000E+000
-0.504594E+000 -0.541696E+000  0.000000E+000
-0.541696E+000 -0.504594E+000  0.000000E+000
-0.488337E+000 -0.543982E+000  0.000000E+000
-0.543982E+000 -0.488337E+000  0.000000E+000
-0.472024E+000 -0.546205E+000  0.000000E+000
-0.546205E+000 -0.472024E+000  0.000000E+000
-0.455658E+000 -0.548361E+000  0.000000E+000
-0.548361E+000 -0.455658E+000  0.000000E+000
-0.439239E+000 -0.550451E+000  0.000000E+000
-0.550451E+000 -0.439239E+000  0.000000E+000
-0.422770E+000 -0.552473E+000  0.000000E+000
-0.552473E+000 -0.422770E+000  0.000000E+000
-0.406252E+000 -0.554425E+000  0.000000E+000
-0.554425E+000 -0.406252E+000  0.000000E+000
-0.389687E+000 -0.556308E+000  0.000000E+000
-0.556308E+000 -0.389687E+000  0.000000E+000
-0.373077E+000 -0.558118E+000  0.000000E+000
-0.558118E+000 -0.373077E+000  0.000000E+000
-0.356423E+000 -0.559856E+000  0.000000E+000
-0.559856E+000 -0.356423E+000  0.000000E+000
-0.339728E+000 -0.561520E+000  0.000000E+000
-0.561520E+000 -0.339728E+000  0.000000E+000
-0.322992E+000 -0.563110E+000  0.000000E+000
-0.563110E+000 -0.322992E+000  0.000000E+000
-0.306219E+000 -0.564623E+000  0.000000E+000
-0.564623E+000 -0.306219E+000  0.000000E+000
-0.289409E+000 -0.566061E+000  0.000000E+000
-0.566061E+000 -0.289409E+000  0.000000E+000
-0.272565E+000 -0.567421E+000  0.000000E+000
-0.567421E+000 -0.272565E+000  0.000000E+000
-0.255688E+000 -0.568702E+000  0.000000E+000
-0.568702E+000 -0.255688E+000  0.000000E+000
-0.238781E+000 -0.569905E+000  0.000000E+000
-0.100000E+001 -0.437500E+000  0.000000E+000
-0.976106E+000 -0.426460E+000  0.000000E+000
-0.952212E+000 -0.415420E+000  0.000000E+000
-0.928317E+000 -0.404380E+000  0.000000E+000
-0.904423E+000 -0.393340E+000  0.000000E+000
-0.880529E+000 -0.382300E+000  0.000000E+000
-0.856635E+000 -0.371260E+000  0.000000E+000
-0.832741E+000 -0.360221E+000  0.000000E+000
-0.808847E+000 -0.349181E+000  0.000000E+000
-0.784952E+000 -0.338141E+000  0.000000E+000
-0.761058E+000 -0.327101E+000  0.000000E+000
-0.737164E+000 -0.316061E+000  0.000000E+000
-0.713270E+000 -0.305021E+000  0.000000E+000
-0.689376E+000 -0.293981E+000  0.000000E+000
-0.665481E+000 -0.282941E+000  0.000000E+000
-0.641587E+000 -0.271901E+000  0.000000E+000
-0.617693E+000 -0.260861E+000  0.000000E+000
-0.593799E+000 -0.249821E+000  0.000000E+000
-0.569905E+000 -0.238781E+000  0.000000E+000
-0.406250E+000 -0.100000E+001  0.000000E+000
-0.396005E+000 -0.976168E+000  0.000000E+000
-0.385761E+000 -0.952336E+000  0.000000E+000
-0.375516E+000 -0.928505E+000  0.000000E+000
-0.365271E+000 -0.904673E+000  0.000000E+000
-0.355027E+000 -0.880841E+000  0.000000E+000
-0.344782E+000 -0.857009E+000  0.000000E+000
-0.334537E+000 -0.833177E+000  0.000000E+000
-0.324293E+000 -0.809346E+000  0.000000E+000
-0.314048E+000 -0.785514E+000  0.000000E+000
-0.303803E+000 -0.761682E+000  0.000000E+000
-0.293559E+000 -0.737850E+000  0.000000E+000
-0.283314E+000 -0.714018E+000  0.000000E+000
-0.273069E+000 -0.690186E+000  0.000000E+000
-0.262825E+000 -0.666355E+000  0.000000E+000
-0.252580E+000 -0.642523E+000  0.000000E+000
-0.242335E+000 -0.618691E+000  0.000000E+000
-0.232091E+000 -0.594859E+000  0.000000E+000
-0.221846E+000 -0.571027E+000  0.000000E+000
-0.511211E+000 -0.511211E+000  0.000000E+000
-0.495908E+000 -0.513755E+000  0.000000E+000
-0.513755E+000 -0.495908E+000  0.000000E+000
-0.480544E+000 -0.516235E+000  0.000000E+000
-0.516235E+000 -0.480544E+000  0.000000E+000
-0.465119E+000 -0.518648E+000  0.000000E+000
-0.518648E+000 -0.465119E+000  0.000000E+000
-0.449637E+000 -0.520994E+000  0.000000E+000
-0.520994E+000 -0.449637E+000  0.000000E+000
-0.434097E+000 -0.523270E+000  0.000000E+000
-0.523270E+000 -0.434097E+000  0.000000E+000
-0.418502E+000 -0.525476E+000  0.000000E+000
-0.525476E+000 -0.418502E+000  0.000000E+000
-0.402854E+000 -0.527610E+000  0.000000E+000
-0.527610E+000 -0.402854E+000  0.000000E+000
-0.387155E+000 -0.529671E+000  0.000000E+000
-0.529671E+000 -0.387155E+000  0.000000E+000
-0.371406E+000 -0.531658E+000  0.000000E+000
-0.531658E+000 -0.371406E+000  0.000000E+000
-0.355609E+000 -0.533569E+000  0.000000E+000
-0.533569E+000 -0.355609E+000  0.000000E+000
-0.339766E+000 -0.535404E+000  0.000000E+000
-0.535404E+000 -0.339766E+000  0.000000E+000
-0.323879E+000 -0.537160E+000  0.000000E+000
-0.537160E+000 -0.323879E+000  0.000000E+000
-0.307950E+000 -0.538838E+000  0.000000E+000
-0.538838E+000 -0.307950E+000  0.000000E+000
-0.291981E+000 -0.540436E+000  0.000000E+000
-0.540436E+000 -0.291981E+000  0.000000E+000
-0.275973E+000 -0.541953E+000  0.000000E+000
-0.541953E+000 -0.275973E+000  0.000000E+000
-0.259930E+000 -0.543388E+000  0.000000E+000
-0.543388E+000 -0.259930E+000  0.000000E+000
-0.243852E+000 -0.544741E+000  0.000000E+000
-0.544741E+000 -0.243852E+000  0.000000E+000
-0.227741E+000 -0.546010E+000  0.000000E+000
-0.546010E+000 -0.227741E+000  0.000000E+000
-0.211601E+000 -0.547196E+000  0.000000E+000
-0.100000E+001 -0.406250E+000  0.000000E+000
-0.976168E+000 -0.396005E+000  0.000000E+000
-0.952336E+000 -0.385761E+000  0.000000E+000
-0.928505E+000 -0.375516E+000  0.000000E+000
-0.904673E+000 -0.365271E+000  0.000000E+000
-0.880841E+000 -0.355027E+000  0.000000E+000
-0.857009E+000 -0.344782E+000  0.000000E+000
-0.833177E+000 -0.334537E+000  0.000000E+000
-0.809346E+000 -0.324293E+000  0.000000E+000
-0.785514E+000 -0.314048E+000  0.000000E+000
-0.761682E+000 -0.303803E+000  0.000000E+000
-0.737850E+000 -0.293559E+000  0.000000E+000
-0.714018E+000 -0.283314E+000  0.000000E+000
-0.690186E+000 -0.273069E+000  0.000000E+000
-0.666355E+000 -0.262825E+000  0.000000E+000
-0.642523E+000 -0.252580E+000  0.000000E+000
-0.618691E+000 -0.242335E+000  0.000000E+000
-0.594859E+000 -0.232091E+000  0.000000E+000
-0.571027E+000 -0.221846E+000  0.000000E+000
-0.547196E+000 -0.211601E+000  0.000000E+000
-0.375000E+000 -0.100000E+001  0.000000E+000
-0.365549E+000 -0.976226E+000  0.000000E+000
-0.356098E+000 -0.952452E+000  0.000000E+000
-0.346647E+000 -0.928678E+000  0.000000E+000
-0.337196E+000 -0.904904E+000  0.000000E+000
-0.327745E+000 -0.881130E+000  0.000000E+000
-0.318295E+000 -0.857357E+000  0.000000E+000
-0.308844E+000 -0.833583E+000  0.000000E+000
-0.299393E+000 -0.809809E+000  0.000000E+000
-0.289942E+000 -0.786035E+000  0.000000E+000
-0.280491E+000 -0.762261E+000  0.000000E+000
-0.271040E+000 -0.738487E+000  0.000000E+000
-0.261589E+000 -0.714713E+000  0.000000E+000
-0.252138E+000 -0.690939E+000  0.000000E+000
-0.242687E+000 -0.667165E+000  0.000000E+000
-0.233236E+000 -0.643391E+000  0.000000E+000
-0.223786E+000 -0.619618E+000  0.000000E+000
-0.214335E+000 -0.595844E+000  0.000000E+000
-0.204884E+000 -0.572070E+000  0.000000E+000
-0.195433E+000 -0.548296E+000  0.000000E+000
-0.485485E+000 -0.485485E+000  0.000000E+000
-0.471022E+000 -0.488164E+000  0.000000E+000
-0.488164E+000 -0.471022E+000  0.000000E+000
-0.456494E+000 -0.490774E+000  0.000000E+000
-0.490774E+000 -0.456494E+000  0.000000E+000
-0.441902E+000 -0.493314E+000  0.000000E+000
-0.493314E+000 -0.441902E+000  0.000000E+000
-0.427249E+000 -0.495783E+000  0.000000E+000
-0.495783E+000 -0.427249E+000  0.000000E+000
-0.412536E+000 -0.498179E+000  0.000000E+000
-0.498179E+000 -0.412536E+000  0.000000E+000
-0.397766E+000 -0.500501E+000  0.000000E+000
-0.500501E+000 -0.397766E+000  0.000000E+000
-0.382939E+000 -0.502748E+000  0.000000E+000
-0.502748E+000 -0.382939E+000  0.000000E+000
-0.368058E+000 -0.504917E+000  0.000000E+000
-0.504917E+000 -0.368058E+000  0.000000E+000
-0.353125E+000 -0.507008E+000  0.000000E+000
-0.507008E+000 -0.353125E+000  0.000000E+000
-0.338141E+000 -0.509020E+000  0.000000E+000
-0.509020E+000 -0.338141E+000  0.000000E+000
-0.323109E+000 -0.510951E+000  0.000000E+000
-0.510951E+000 -0.323109E+000  0.000000E+000
-0.308031E+000 -0.512800E+000  0.000000E+000
-0.512800E+000 -0.308031E+000  0.000000E+000
-0.292908E+000 -0.514566E+000  0.000000E+000
-0.514566E+000 -0.292908E+000  0.000000E+000
-0.277743E+000 -0.516248E+000  0.000000E+000
-0.516248E+000 -0.277743E+000  0.000000E+000
-0.262538E+000 -0.517845E+000  0.000000E+000
-0.517845E+000 -0.262538E+000  0.000000E+000
-0.247294E+000 -0.519356E+000  0.000000E+000
-0.519356E+000 -0.247294E+000  0.000000E+000
-0.232015E+000 -0.520780E+000  0.000000E+000
-0.520780E+000 -0.232015E+000  0.000000E+000
-0.216702E+000 -0.522116E+000  0.000000E+000
-0.522116E+000 -0.216702E+000  0.000000E+000
-0.201357E+000 -0.523364E+000  0.000000E+000
-0.523364E+000 -0.201357E+000  0.000000E+000
-0.185982E+000 -0.524522E+000  0.000000E+000
-0.100000E+001 -0.375000E+000  0.000000E+000
-0.976226E+000 -0.365549E+000  0.000000E+000
-0.952452E+000 -0.356098E+000  0.000000E+000
-0.928678E+000 -0.346647E+000  0.000000E+000
-0.904904E+000 -0.337196E+000  0.000000E+000
-0.881130E+000 -0.327745E+000  0.000000E+000
-0.857357E+000 -0.318295E+000  0.000000E+000
-0.833583E+000 -0.308844E+000  0.000000E+000
-0.809809E+000 -0.299393E+000  0.000000E+000
-0.786035E+000 -0.289942E+000  0.000000E+000
-0.762261E+000 -0.280491E+000  0.000000E+000
-0.738487E+000 -0.271040E+000  0.000000E+000
-0.714713E+000 -0.261589E+000  0.000000E+000
-0.690939E+000 -0.252138E+000  0.000000E+000
-0.667165E+000 -0.242687E+000  0.000000E+000
-0.643391E+000 -0.233236E+000  0.000000E+000
-0.619618E+000 -0.223786E+000  0.000000E+000
-0.595844E+000 -0.214335E+000  0.000000E+000
-0.572070E+000 -0.204884E+000  0.000000E+000
-0.548296E+000 -0.195433E+000  0.000000E+000
-0.524522E+000 -0.185982E+000  0.000000E+000
-0.343750E+000 -0.100000E+001  0.000000E+000
-0.335092E+000 -0.976280E+000  0.000000E+000
-0.326433E+000 -0.952559E+000  0.000000E+000
-0.317775E+000 -0.928839E+000  0.000000E+000
-0.309116E+000 -0.905118E+000  0.000000E+000
-0.300458E+000 -0.881398E+000  0.000000E+000
-0.291799E+000 -0.857677E+000  0.000000E+000
-0.283141E+000 -0.833957E+000  0.000000E+000
-0.274482E+000 -0.810236E+000  0.000000E+000
-0.265824E+000 -0.786516E+000  0.000000E+000
-0.257165E+000 -0.762795E+000  0.000000E+000
-0.248507E+000 -0.739075E+000  0.000000E+000
-0.239848E+000 -0.715354E+000  0.000000E+000
-0.231190E+000 -0.691634E+000  0.000000E+000
-0.222531E+000 -0.667913E+000  0.000000E+000
-0.213873E+000 -0.644193E+000  0.000000E+000
-0.205214E+000 -0.620472E+000  0.000000E+000
-0.196556E+000 -0.596752E+000  0.000000E+000
-0.187897E+000 -0.573031E+000  0.000000E+000
-0.179239E+000 -0.549311E+000  0.000000E+000
-0.170580E+000 -0.525590E+000  0.000000E+000
-0.459760E+000 -0.459760E+000  0.000000E+000
-0.446136E+000 -0.462572E+000  0.000000E+000
-0.462572E+000 -0.446136E+000  0.000000E+000
-0.432443E+000 -0.465312E+000  0.000000E+000
-0.465312E+000 -0.432443E+000  0.000000E+000
-0.418685E+000 -0.467980E+000  0.000000E+000
-0.467980E+000 -0.418685E+000  0.000000E+000
-0.404861E+000 -0.470572E+000  0.000000E+000
-0.470572E+000 -0.404861E+000  0.000000E+000
-0.390975E+000 -0.473088E+000  0.000000E+000
-0.473088E+000 -0.390975E+000  0.000000E+000
-0.377029E+000 -0.475526E+000  0.000000E+000
-0.475526E+000 -0.377029E+000  0.000000E+000
-0.363023E+000 -0.477885E+000  0.000000E+000
-0.477885E+000 -0.363023E+000  0.000000E+000
-0.348961E+000 -0.480163E+000  0.000000E+000
-0.480163E+000 -0.348961E+000  0.000000E+000
-0.334843E+000 -0.482359E+000  0.000000E+000
-0.482359E+000 -0.334843E+000  0.000000E+000
-0.320673E+000 -0.484471E+000  0.000000E+000
-0.484471E+000 -0.320673E+000  0.000000E+000
-0.306452E+000 -0.486499E+000  0.000000E+000
-0.486499E+000 -0.306452E+000  0.000000E+000
-0.292182E+000 -0.488440E+000  0.000000E+000
-0.488440E+000 -0.292182E+000  0.000000E+000
-0.277866E+000 -0.490295E+000  0.000000E+000
-0.490295E+000 -0.277866E+000  0.000000E+000
-0.263505E+000 -0.492061E+000  0.000000E+000
-0.492061E+000 -0.263505E+000  0.000000E+000
-0.249102E+000 -0.493738E+000  0.000000E+000
-0.493738E+000 -0.249102E+000  0.000000E+000
-0.234659E+000 -0.495324E+000  0.000000E+000
-0.495324E+000 -0.234659E+000  0.000000E+000
-0.220178E+000 -0.496819E+000  0.000000E+000
-0.496819E+000 -0.220178E+000  0.000000E+000
-0.205662E+000 -0.498222E+000  0.000000E+000
-0.498222E+000 -0.205662E+000  0.000000E+000
-0.191112E+000 -0.499532E+000  0.000000E+000
-0.499532E+000 -0.191112E+000  0.000000E+000
-0.176531E+000 -0.500748E+000  0.000000E+000
-0.500748E+000 -0.176531E+000  0.000000E+000
-0.161922E+000 -0.501870E+000  0.000000E+000
-0.100000E+001 -0.343750E+000  0.000000E+000
-0.976280E+000 -0.335092E+000  0.000000E+000
-0.952559E+000 -0.326433E+000  0.000000E+000
-0.928839E+000 -0.317775E+000  0.000000E+000
-0.905118E+000 -0.309116E+000  0.000000E+000
-0.881398E+000 -0.300458E+000  0.000000E+000
-0.857677E+000 -0.291799E+000  0.000000E+000
-0.833957E+000 -0.283141E+000  0.000000E+000
-0.810236E+000 -0.274482E+000  0.000000E+000
-0.786516E+000 -0.265824E+000  0.000000E+000
-0.762795E+000 -0.257165E+000  0.000000E+000
-0.739075E+000 -0.248507E+000  0.000000E+000
-0.715354E+000 -0.239848E+000  0.000000E+000
-0.691634E+000 -0.231190E+000  0.000000E+000
-0.667913E+000 -0.222531E+000  0.000000E+000
-0.644193E+000 -0.213873E+000  0.000000E+000
-0.620472E+000 -0.205214E+000  0.000000E+000
-0.596752E+000 -0.196556E+000  0.000000E+000
-0.573031E+000 -0.187897E+000  0.000000E+000
-0.549311E+000 -0.179239E+000  0.000000E+000
-0.525590E+000 -0.170580E+000  0.000000E+000
-0.501870E+000 -0.161922E+000  0.000000E+000
-0.312500E+000 -0.100000E+001  0.000000E+000
-0.304633E+000 -0.976328E+000  0.000000E+000
-0.296765E+000 -0.952657E+000  0.000000E+000
-0.288898E+000 -0.928985E+000  0.000000E+000
-0.281031E+000 -0.905313E+000  0.000000E+000
-0.273163E+000 -0.881642E+000  0.000000E+000
-0.265296E+000 -0.857970E+000  0.000000E+000
-0.257429E+000 -0.834299E+000  0.000000E+000
-0.249561E+000 -0.810627E+000  0.000000E+000
-0.241694E+000 -0.786955E+000  0.000000E+000
-0.233827E+000 -0.763284E+000  0.000000E+000
-0.225959E+000 -0.739612E+000  0.000000E+000
-0.218092E+000 -0.715940E+000  0.000000E+000
-0.210225E+000 -0.692269E+000  0.000000E+000
-0.202357E+000 -0.668597E+000  0.000000E+000
-0.194490E+000 -0.644926E+000  0.000000E+000
-0.186623E+000 -0.621254E+000  0.000000E+000
-0.178755E+000 -0.597582E+000  0.000000E+000
-0.170888E+000 -0.573911E+000  0.000000E+000
-0.163020E+000 -0.550239E+000  0.000000E+000
-0.155153E+000 -0.526567E+000  0.000000E+000
-0.147286E+000 -0.502896E+000  0.000000E+000
-0.434034E+000 -0.434034E+000  0.000000E+000
-0.421249E+000 -0.436980E+000  0.000000E+000
-0.436980E+000 -0.421249E+000  0.000000E+000
-0.408393E+000 -0.439851E+000  0.000000E+000
-0.439851E+000 -0.408393E+000  0.000000E+000
-0.395467E+000 -0.442645E+000  0.000000E+000
-0.442645E+000 -0.395467E+000  0.000000E+000
-0.382474E+000 -0.445361E+000  0.000000E+000
-0.445361E+000 -0.382474E+000  0.000000E+000
-0.369415E+000 -0.447997E+000  0.000000E+000
-0.447997E+000 -0.369415E+000  0.000000E+000
-0.356292E+000 -0.450551E+000  0.000000E+000
-0.450551E+000 -0.356292E+000  0.000000E+000
-0.343108E+000 -0.453022E+000  0.000000E+000
-0.453022E+000 -0.343108E+000  0.000000E+000
-0.329864E+000 -0.455409E+000  0.000000E+000
-0.455409E+000 -0.329864E+000  0.000000E+000
-0.316562E+000 -0.457709E+000  0.000000E+000
-0.457709E+000 -0.316562E+000  0.000000E+000
-0.303205E+000 -0.459922E+000  0.000000E+000
-0.459922E+000 -0.303205E+000  0.000000E+000
-0.289795E+000 -0.462046E+000  0.000000E+000
-0.462046E+000 -0.289795E+000  0.000000E+000
-0.276334E+000 -0.464080E+000  0.000000E+000
-0.464080E+000 -0.276334E+000  0.000000E+000
-0.262824E+000 -0.466023E+000  0.000000E+000
-0.466023E+000 -0.262824E+000  0.000000E+000
-0.249267E+000 -0.467873E+000  0.000000E+000
-0.467873E+000 -0.249267E+000  0.000000E+000
-0.235666E+000 -0.469630E+000  0.000000E+000
-0.469630E+000 -0.235666E+000  0.000000E+000
-0.222024E+000 -0.471292E+000  0.000000E+000
-0.471292E+000 -0.222024E+000  0.000000E+000
-0.208341E+000 -0.472858E+000  0.000000E+000
-0.472858E+000 -0.208341E+000  0.000000E+000
-0.194622E+000 -0.474328E+000  0.000000E+000
-0.474328E+000 -0.194622E+000  0.000000E+000
-0.180867E+000 -0.475700E+000  0.000000E+000
-0.475700E+000 -0.180867E+000  0.000000E+000
-0.167080E+000 -0.476974E+000  0.000000E+000
-0.476974E+000 -0.167080E+000  0.000000E+000
-0.153263E+000 -0.478149E+000  0.000000E+000
-0.478149E+000 -0.153263E+000  0.000000E+000
-0.139418E+000 -0.479224E+000  0.000000E+000
-0.100000E+001 -0.312500E+000  0.000000E+000
-0.976328E+000 -0.304633E+000  0.000000E+000
-0.952657E+000 -0.296765E+000  0.000000E+000
-0.928985E+000 -0.288898E+000  0.000000E+000
-0.905313E+000 -0.281031E+000  0.000000E+000
-0.881642E+000 -0.273163E+000  0.000000E+000
-0.857970E+000 -0.265296E+000  0.000000E+000
-0.834299E+000 -0.257429E+000  0.000000E+000
-0.810627E+000 -0.249561E+000  0.000000E+000
-0.786955E+000 -0.241694E+000  0.000000E+000
-0.763284E+000 -0.233827E+000  0.000000E+000
-0.739612E+000 -0.225959E+000  0.000000E+000
-0.715940E+000 -0.218092E+000  0.000000E+000
-0.692269E+000 -0.210225E+000  0.000000E+000
-0.668597E+000 -0.202357E+000  0.000000E+000
-0.644926E+000 -0.194490E+000  0.000000E+000
-0.621254E+000 -0.186623E+000  0.000000E+000
-0.597582E+000 -0.178755E+000  0.000000E+000
-0.573911E+000 -0.170888E+000  0.000000E+000
-0.550239E+000 -0.163020E+000  0.000000E+000
-0.526567E+000 -0.155153E+000  0.000000E+000
-0.502896E+000 -0.147286E+000  0.000000E+000
-0.479224E+000 -0.139418E+000  0.000000E+000
-0.281250E+000 -0.100000E+001  0.000000E+000
-0.274173E+000 -0.976373E+000  0.000000E+000
-0.267095E+000 -0.952745E+000  0.000000E+000
-0.260018E+000 -0.929118E+000  0.000000E+000
-0.252941E+000 -0.905491E+000  0.000000E+000
-0.245863E+000 -0.881863E+000  0.000000E+000
-0.238786E+000 -0.858236E+000  0.000000E+000
-0.231709E+000 -0.834609E+000  0.000000E+000
-0.224631E+000 -0.810981E+000  0.000000E+000
-0.217554E+000 -0.787354E+000  0.000000E+000
-0.210477E+000 -0.763727E+000  0.000000E+000
-0.203399E+000 -0.740099E+000  0.000000E+000
-0.196322E+000 -0.716472E+000  0.000000E+000
-0.189245E+000 -0.692845E+000  0.000000E+000
-0.182167E+000 -0.669217E+000  0.000000E+000
-0.175090E+000 -0.645590E+000  0.000000E+000
-0.168013E+000 -0.621963E+000  0.000000E+000
-0.160935E+000 -0.598335E+000  0.000000E+000
-0.153858E+000 -0.574708E+000  0.000000E+000
-0.146781E+000 -0.551081E+000  0.000000E+000
-0.139703E+000 -0.527453E+000  0.000000E+000
-0.132626E+000 -0.503826E+000  0.000000E+000
-0.125549E+000 -0.480199E+000  0.000000E+000
-0.408308E+000 -0.408308E+000  0.000000E+000
-0.396363E+000 -0.411388E+000  0.000000E+000
-0.411388E+000 -0.396363E+000  0.000000E+000
-0.384343E+000 -0.414390E+000  0.000000E+000
-0.414390E+000 -0.384343E+000  0.000000E+000
-0.372250E+000 -0.417311E+000  0.000000E+000
-0.417311E+000 -0.372250E+000  0.000000E+000
-0.360086E+000 -0.420150E+000  0.000000E+000
-0.420150E+000 -0.360086E+000  0.000000E+000
-0.347854E+000 -0.422906E+000  0.000000E+000
-0.422906E+000 -0.347854E+000  0.000000E+000
-0.335555E+000 -0.425576E+000  0.000000E+000
-0.425576E+000 -0.335555E+000  0.000000E+000
-0.323192E+000 -0.428160E+000  0.000000E+000
-0.428160E+000 -0.323192E+000  0.000000E+000
-0.310767E+000 -0.430655E+000  0.000000E+000
-0.430655E+000 -0.310767E+000  0.000000E+000
-0.298281E+000 -0.433060E+000  0.000000E+000
-0.433060E+000 -0.298281E+000  0.000000E+000
-0.285737E+000 -0.435373E+000  0.000000E+000
-0.435373E+000 -0.285737E+000  0.000000E+000
-0.273138E+000 -0.437594E+000  0.000000E+000
-0.437594E+000 -0.273138E+000  0.000000E+000
-0.260485E+000 -0.439720E+000  0.000000E+000
-0.439720E+000 -0.260485E+000  0.000000E+000
-0.247782E+000 -0.441751E+000  0.000000E+000
-0.441751E+000 -0.247782E+000  0.000000E+000
-0.235029E+000 -0.443686E+000  0.000000E+000
-0.443686E+000 -0.235029E+000  0.000000E+000
-0.222231E+000 -0.445522E+000  0.000000E+000
-0.445522E+000 -0.222231E+000  0.000000E+000
-0.209388E+000 -0.447260E+000  0.000000E+000
-0.447260E+000 -0.209388E+000  0.000000E+000
-0.196505E+000 -0.448897E+000  0.000000E+000
-0.448897E+000 -0.196505E+000  0.000000E+000
-0.183582E+000 -0.450434E+000  0.000000E+000
-0.450434E+000 -0.183582E+000  0.000000E+000
-0.170623E+000 -0.451868E+000  0.000000E+000
-0.451868E+000 -0.170623E+000  0.000000E+000
-0.157629E+000 -0.453200E+000  0.000000E+000
-0.453200E+000 -0.157629E+000  0.000000E+000
-0.144605E+000 -0.454429E+000  0.000000E+000
-0.454429E+000 -0.144605E+000  0.000000E+000
-0.131551E+000 -0.455552E+000  0.000000E+000
-0.455552E+000 -0.131551E+000  0.000000E+000
-0.118471E+000 -0.456571E+000  0.000000E+000
-0.100000E+001 -0.281250E+000  0.000000E+000
-0.976373E+000 -0.274173E+000  0.000000E+000
-0.952745E+000 -0.267095E+000  0.000000E+000
-0.929118E+000 -0.260018E+000  0.000000E+000
-0.905491E+000 -0.252941E+000  0.000000E+000
-0.881863E+000 -0.245863E+000  0.000000E+000
-0.858236E+000 -0.238786E+000  0.000000E+000
-0.834609E+000 -0.231709E+000  0.000000E+000
-0.810981E+000 -0.224631E+000  0.000000E+000
-0.787354E+000 -0.217554E+000  0.000000E+000
-0.763727E+000 -0.210477E+000  0.000000E+000
-0.740099E+000 -0.203399E+000  0.000000E+000
-0.716472E+000 -0.196322E+000  0.000000E+000
-0.692845E+000 -0.189245E+000  0.000000E+000
-0.669217E+000 -0.182167E+000  0.000000E+000
-0.645590E+000 -0.175090E+000  0.000000E+000
-0.621963E+000 -0.168013E+000  0.000000E+000
-0.598335E+000 -0.160935E+000  0.000000E+000
-0.574708E+000 -0.153858E+000  0.000000E+000
-0.551081E+000 -0.146781E+000  0.000000E+000
-0.527453E+000 -0.139703E+000  0.000000E+000
-0.503826E+000 -0.132626E+000  0.000000E+000
-0.480199E+000 -0.125549E+000  0.000000E+000
-0.456571E+000 -0.118471E+000  0.000000E+000
-0.250000E+000 -0.100000E+001  0.000000E+000
-0.243712E+000 -0.976412E+000  0.000000E+000
-0.237423E+000 -0.952825E+000  0.000000E+000
-0.231135E+000 -0.929237E+000  0.000000E+000
-0.224847E+000 -0.905650E+000  0.000000E+000
-0.218558E+000 -0.882062E+000  0.000000E+000
-0.212270E+000 -0.858474E+000  0.000000E+000
-0.205982E+000 -0.834887E+000  0.000000E+000
-0.199693E+000 -0.811299E+000  0.000000E+000
-0.193405E+000 -0.787711E+000  0.000000E+000
-0.187116E+000 -0.764124E+000  0.000000E+000
-0.180828E+000 -0.740536E+000  0.000000E+000
-0.174540E+000 -0.716949E+000  0.000000E+000
-0.168251E+000 -0.693361E+000  0.000000E+000
-0.161963E+000 -0.669773E+000  0.000000E+000
-0.155675E+000 -0.646186E+000  0.000000E+000
-0.149386E+000 -0.622598E+000  0.000000E+000
-0.143098E+000 -0.599011E+000  0.000000E+000
-0.136810E+000 -0.575423E+000  0.000000E+000
-0.130521E+000 -0.551835E+000  0.000000E+000
-0.124233E+000 -0.528248E+000  0.000000E+000
-0.117945E+000 -0.504660E+000  0.000000E+000
-0.111656E+000 -0.481072E+000  0.000000E+000
-0.105368E+000 -0.457485E+000  0.000000E+000
-0.382583E+000 -0.382583E+000  0.000000E+000
-0.371476E+000 -0.385796E+000  0.000000E+000
-0.385796E+000 -0.371476E+000  0.000000E+000
-0.360292E+000 -0.388928E+000  0.000000E+000
-0.388928E+000 -0.360292E+000  0.000000E+000
-0.349032E+000 -0.391977E+000  0.000000E+000
-0.391977E+000 -0.349032E+000  0.000000E+000
-0.337699E+000 -0.394939E+000  0.000000E+000
-0.394939E+000 -0.337699E+000  0.000000E+000
-0.326293E+000 -0.397815E+000  0.000000E+000
-0.397815E+000 -0.326293E+000  0.000000E+000
-0.314819E+000 -0.400601E+000  0.000000E+000
-0.400601E+000 -0.314819E+000  0.000000E+000
-0.303277E+000 -0.403297E+000  0.000000E+000
-0.403297E+000 -0.303277E+000  0.000000E+000
-0.291669E+000 -0.405901E+000  0.000000E+000
-0.405901E+000 -0.291669E+000  0.000000E+000
-0.280000E+000 -0.408410E+000  0.000000E+000
-0.408410E+000 -0.280000E+000  0.000000E+000
-0.268269E+000 -0.410824E+000  0.000000E+000
-0.410824E+000 -0.268269E+000  0.000000E+000
-0.256481E+000 -0.413141E+000  0.000000E+000
-0.413141E+000 -0.256481E+000  0.000000E+000
-0.244637E+000 -0.415360E+000  0.000000E+000
-0.415360E+000 -0.244637E+000  0.000000E+000
-0.232740E+000 -0.417480E+000  0.000000E+000
-0.417480E+000 -0.232740E+000  0.000000E+000
-0.220792E+000 -0.419498E+000  0.000000E+000
-0.419498E+000 -0.220792E+000  0.000000E+000
-0.208795E+000 -0.421414E+000  0.000000E+000
-0.421414E+000 -0.208795E+000  0.000000E+000
-0.196753E+000 -0.423227E+000  0.000000E+000
-0.423227E+000 -0.196753E+000  0.000000E+000
-0.184668E+000 -0.424936E+000  0.000000E+000
-0.424936E+000 -0.184668E+000  0.000000E+000
-0.172542E+000 -0.426540E+000  0.000000E+000
-0.426540E+000 -0.172542E+000  0.000000E+000
-0.160378E+000 -0.428037E+000  0.000000E+000
-0.428037E+000 -0.160378E+000  0.000000E+000
-0.148178E+000 -0.429426E+000  0.000000E+000
-0.429426E+000 -0.148178E+000  0.000000E+000
-0.135946E+000 -0.430708E+000  0.000000E+000
-0.430708E+000 -0.135946E+000  0.000000E+000
-0.123684E+000 -0.431881E+000  0.000000E+000
-0.431881E+000 -0.123684E+000  0.000000E+000
-0.111394E+000 -0.432944E+000  0.000000E+000
-0.432944E+000 -0.111394E+000  0.000000E+000
-0.990794E-001 -0.433897E+000  0.000000E+000
-0.100000E+001 -0.250000E+000  0.000000E+000
-0.976412E+000 -0.243712E+000  0.000000E+000
-0.952825E+000 -0.237423E+000  0.000000E+000
-0.929237E+000 -0.231135E+000  0.000000E+000
-0.905650E+000 -0.224847E+000  0.000000E+000
-0.882062E+000 -0.218558E+000  0.000000E+000
-0.858474E+000 -0.212270E+000  0.000000E+000
-0.834887E+000 -0.205982E+000  0.000000E+000
-0.811299E+000 -0.199693E+000  0.000000E+000
-0.787711E+000 -0.193405E+000  0.000000E+000
-0.764124E+000 -0.187116E+000  0.000000E+000
-0.740536E+000 -0.180828E+000  0.000000E+000
-0.716949E+000 -0.174540E+000  0.000000E+000
-0.693361E+000 -0.168251E+000  0.000000E+000
-0.669773E+000 -0.161963E+000  0.000000E+000
-0.646186E+000 -0.155675E+000  0.000000E+000
-0.622598E+000 -0.149386E+000  0.000000E+000
-0.599011E+000 -0.143098E+000  0.000000E+000
-0.575423E+000 -0.136810E+000  0.000000E+000
-0.551835E+000 -0.130521E+000  0.000000E+000
-0.528248E+000 -0.124233E+000  0.000000E+000
-0.504660E+000 -0.117945E+000  0.000000E+000
-0.481072E+000 -0.111656E+000  0.000000E+000
-0.457485E+000 -0.105368E+000  0.000000E+000
-0.433897E+000 -0.990794E-001  0.000000E+000
-0.218750E+000 -0.100000E+001  0.000000E+000
-0.213250E+000 -0.976447E+000  0.000000E+000
-0.207749E+000 -0.952895E+000  0.000000E+000
-0.202249E+000 -0.929342E+000  0.000000E+000
-0.196749E+000 -0.905790E+000  0.000000E+000
-0.191249E+000 -0.882237E+000  0.000000E+000
-0.185748E+000 -0.858685E+000  0.000000E+000
-0.180248E+000 -0.835132E+000  0.000000E+000
-0.174748E+000 -0.811580E+000  0.000000E+000
-0.169247E+000 -0.788027E+000  0.000000E+000
-0.163747E+000 -0.764475E+000  0.000000E+000
-0.158247E+000 -0.740922E+000  0.000000E+000
-0.152746E+000 -0.717370E+000  0.000000E+000
-0.147246E+000 -0.693817E+000  0.000000E+000
-0.141746E+000 -0.670265E+000  0.000000E+000
-0.136246E+000 -0.646712E+000  0.000000E+000
-0.130745E+000 -0.623160E+000  0.000000E+000
-0.125245E+000 -0.599607E+000  0.000000E+000
-0.119745E+000 -0.576055E+000  0.000000E+000
-0.114244E+000 -0.552502E+000  0.000000E+000
-0.108744E+000 -0.528950E+000  0.000000E+000
-0.103244E+000 -0.505397E+000  0.000000E+000
-0.977434E-001 -0.481845E+000  0.000000E+000
-0.922432E-001 -0.458292E+000  0.000000E+000
-0.867429E-001 -0.434740E+000  0.000000E+000
-0.356857E+000 -0.356857E+000  0.000000E+000
-0.346590E+000 -0.360205E+000  0.000000E+000
-0.360205E+000 -0.346590E+000  0.000000E+000
-0.336242E+000 -0.363467E+000  0.000000E+000
-0.363467E+000 -0.336242E+000  0.000000E+000
-0.325815E+000 -0.366642E+000  0.000000E+000
-0.366642E+000 -0.325815E+000  0.000000E+000
-0.315311E+000 -0.369729E+000  0.000000E+000
-0.369729E+000 -0.315311E+000  0.000000E+000
-0.304733E+000 -0.372724E+000  0.000000E+000
-0.372724E+000 -0.304733E+000  0.000000E+000
-0.294082E+000 -0.375626E+000  0.000000E+000
-0.375626E+000 -0.294082E+000  0.000000E+000
-0.283361E+000 -0.378435E+000  0.000000E+000
-0.378435E+000 -0.283361E+000  0.000000E+000
-0.272572E+000 -0.381146E+000  0.000000E+000
-0.381146E+000 -0.272572E+000  0.000000E+000
-0.261718E+000 -0.383760E+000  0.000000E+000
-0.383760E+000 -0.261718E+000  0.000000E+000
-0.250801E+000 -0.386275E+000  0.000000E+000
-0.386275E+000 -0.250801E+000  0.000000E+000
-0.239824E+000 -0.388689E+000  0.000000E+000
-0.388689E+000 -0.239824E+000  0.000000E+000
-0.228788E+000 -0.391000E+000  0.000000E+000
-0.391000E+000 -0.228788E+000  0.000000E+000
-0.217698E+000 -0.393208E+000  0.000000E+000
-0.393208E+000 -0.217698E+000  0.000000E+000
-0.206554E+000 -0.395310E+000  0.000000E+000
-0.395310E+000 -0.206554E+000  0.000000E+000
-0.195360E+000 -0.397307E+000  0.000000E+000
-0.397307E+000 -0.195360E+000  0.000000E+000
-0.184118E+000 -0.399195E+000  0.000000E+000
-0.399195E+000 -0.184118E+000  0.000000E+000
-0.172831E+000 -0.400975E+000  0.000000E+000
-0.400975E+000 -0.172831E+000  0.000000E+000
-0.161502E+000 -0.402645E+000  0.000000E+000
-0.402645E+000 -0.161502E+000  0.000000E+000
-0.150133E+000 -0.404205E+000  0.000000E+000
-0.404205E+000 -0.150133E+000  0.000000E+000
-0.138727E+000 -0.405652E+000  0.000000E+000
-0.405652E+000 -0.138727E+000  0.000000E+000
-0.127288E+000 -0.406988E+000  0.000000E+000
-0.406988E+000 -0.127288E+000  0.000000E+000
-0.115816E+000 -0.408209E+000  0.000000E+000
-0.408209E+000 -0.115816E+000  0.000000E+000
-0.104317E+000 -0.409317E+000  0.000000E+000
-0.409317E+000 -0.104317E+000  0.000000E+000
-0.927911E-001 -0.410310E+000  0.000000E+000
-0.410310E+000 -0.927911E-001  0.000000E+000
-0.812426E-001 -0.411187E+000  0.000000E+000
-0.100000E+001 -0.218750E+000  0.000000E+000
-0.976447E+000 -0.213250E+000  0.000000E+000
-0.952895E+000 -0.207749E+000  0.000000E+000
-0.929342E+000 -0.202249E+000  0.000000E+000
-0.905790E+000 -0.196749E+000  0.000000E+000
-0.882237E+000 -0.191249E+000  0.000000E+000
-0.858685E+000 -0.185748E+000  0.000000E+000
-0.835132E+000 -0.180248E+000  0.000000E+000
-0.811580E+000 -0.174748E+000  0.000000E+000
-0.788027E+000 -0.169247E+000  0.000000E+000
-0.764475E+000 -0.163747E+000  0.000000E+000
-0.740922E+000 -0.158247E+000  0.000000E+000
-0.717370E+000 -0.152746E+000  0.000000E+000
-0.693817E+000 -0.147246E+000  0.000000E+000
-0.670265E+000 -0.141746E+000  0.000000E+000
-0.646712E+000 -0.136246E+000  0.000000E+000
-0.623160E+000 -0.130745E+000  0.000000E+000
-0.599607E+000 -0.125245E+000  0.000000E+000
-0.576055E+000 -0.119745E+000  0.000000E+000
-0.552502E+000 -0.114244E+000  0.000000E+000
-0.528950E+000 -0.108744E+000  0.000000E+000
-0.505397E+000 -0.103244E+000  0.000000E+000
-0.481845E+000 -0.977434E-001  0.000000E+000
-0.458292E+000 -0.922432E-001  0.000000E+000
-0.434740E+000 -0.867429E-001  0.000000E+000
-0.411187E+000 -0.812426E-001  0.000000E+000
-0.187500E+000 -0.100000E+001  0.000000E+000
-0.182787E+000 -0.976478E+000  0.000000E+000
-0.178074E+000 -0.952956E+000  0.000000E+000
-0.173361E+000 -0.929434E+000  0.000000E+000
-0.168648E+000 -0.905912E+000  0.000000E+000
-0.163935E+000 -0.882390E+000  0.000000E+000
-0.159222E+000 -0.858868E+000  0.000000E+000
-0.154509E+000 -0.835346E+000  0.000000E+000
-0.149796E+000 -0.811824E+000  0.000000E+000
-0.145083E+000 -0.788301E+000  0.000000E+000
-0.140370E+000 -0.764779E+000  0.000000E+000
-0.135657E+000 -0.741257E+000  0.000000E+000
-0.130943E+000 -0.717735E+000  0.000000E+000
-0.126230E+000 -0.694213E+000  0.000000E+000
-0.121517E+000 -0.670691E+000  0.000000E+000
-0.116804E+000 -0.647169E+000  0.000000E+000
-0.112091E+000 -0.623647E+000  0.000000E+000
-0.107378E+000 -0.600125E+000  0.000000E+000
-0.102665E+000 -0.576603E+000  0.000000E+000
-0.979522E-001 -0.553081E+000  0.000000E+000
-0.932391E-001 -0.529559E+000  0.000000E+000
-0.885261E-001 -0.506037E+000  0.000000E+000
-0.838131E-001 -0.482515E+000  0.000000E+000
-0.791000E-001 -0.458993E+000  0.000000E+000
-0.743870E-001 -0.435471E+000  0.000000E+000
-0.696739E-001 -0.411949E+000  0.000000E+000
-0.331131E+000 -0.331131E+000  0.000000E+000
-0.321704E+000 -0.334613E+000  0.000000E+000
-0.334613E+000 -0.321704E+000  0.000000E+000
-0.312192E+000 -0.338006E+000  0.000000E+000
-0.338006E+000 -0.312192E+000  0.000000E+000
-0.302598E+000 -0.341308E+000  0.000000E+000
-0.341308E+000 -0.302598E+000  0.000000E+000
-0.292924E+000 -0.344518E+000  0.000000E+000
-0.344518E+000 -0.292924E+000  0.000000E+000
-0.283172E+000 -0.347633E+000  0.000000E+000
-0.347633E+000 -0.283172E+000  0.000000E+000
-0.273345E+000 -0.350652E+000  0.000000E+000
-0.350652E+000 -0.273345E+000  0.000000E+000
-0.263445E+000 -0.353572E+000  0.000000E+000
-0.353572E+000 -0.263445E+000  0.000000E+000
-0.253475E+000 -0.356392E+000  0.000000E+000
-0.356392E+000 -0.253475E+000  0.000000E+000
-0.243437E+000 -0.359111E+000  0.000000E+000
-0.359111E+000 -0.243437E+000  0.000000E+000
-0.233333E+000 -0.361726E+000  0.000000E+000
-0.361726E+000 -0.233333E+000  0.000000E+000
-0.223167E+000 -0.364236E+000  0.000000E+000
-0.364236E+000 -0.223167E+000  0.000000E+000
-0.212940E+000 -0.366640E+000  0.000000E+000
-0.366640E+000 -0.212940E+000  0.000000E+000
-0.202655E+000 -0.368936E+000  0.000000E+000
-0.368936E+000 -0.202655E+000  0.000000E+000
-0.192316E+000 -0.371123E+000  0.000000E+000
-0.371123E+000 -0.192316E+000  0.000000E+000
-0.181924E+000 -0.373199E+000  0.000000E+000
-0.373199E+000 -0.181924E+000  0.000000E+000
-0.171483E+000 -0.375163E+000  0.000000E+000
-0.375163E+000 -0.171483E+000  0.000000E+000
-0.160994E+000 -0.377014E+000  0.000000E+000
-0.377014E+000 -0.160994E+000  0.000000E+000
-0.150462E+000 -0.378751E+000  0.000000E+000
-0.378751E+000 -0.150462E+000  0.000000E+000
-0.139888E+000 -0.380373E+000  0.000000E+000
-0.380373E+000 -0.139888E+000  0.000000E+000
-0.129277E+000 -0.381879E+000  0.000000E+000
-0.381879E+000 -0.129277E+000  0.000000E+000
-0.118629E+000 -0.383267E+000  0.000000E+000
-0.383267E+000 -0.118629E+000  0.000000E+000
-0.107949E+000 -0.384538E+000  0.000000E+000
-0.384538E+000 -0.107949E+000  0.000000E+000
-0.972393E-001 -0.385689E+000  0.000000E+000
-0.385689E+000 -0.972393E-001  0.000000E+000
-0.865027E-001 -0.386722E+000  0.000000E+000
-0.386722E+000 -0.865027E-001  0.000000E+000
-0.757423E-001 -0.387635E+000  0.000000E+000
-0.387635E+000 -0.757423E-001  0.000000E+000
-0.649609E-001 -0.388426E+000  0.000000E+000
-0.100000E+001 -0.187500E+000  0.000000E+000
-0.976478E+000 -0.182787E+000  0.000000E+000
-0.952956E+000 -0.178074E+000  0.000000E+000
-0.929434E+000 -0.173361E+000  0.000000E+000
-0.905912E+000 -0.168648E+000  0.000000E+000
-0.882390E+000 -0.163935E+000  0.000000E+000
-0.858868E+000 -0.159222E+000  0.000000E+000
-0.835346E+000 -0.154509E+000  0.000000E+000
-0.811824E+000 -0.149796E+000  0.000000E+000
-0.788301E+000 -0.145083E+000  0.000000E+000
-0.764779E+000 -0.140370E+000  0.000000E+000
-0.741257E+000 -0.135657E+000  0.000000E+000
-0.717735E+000 -0.130943E+000  0.000000E+000
-0.694213E+000 -0.126230E+000  0.000000E+000
-0.670691E+000 -0.121517E+000  0.000000E+000
-0.647169E+000 -0.116804E+000  0.000000E+000
-0.623647E+000 -0.112091E+000  0.000000E+000
-0.600125E+000 -0.107378E+000  0.000000E+000
-0.576603E+000 -0.102665E+000  0.000000E+000
-0.553081E+000 -0.979522E-001  0.000000E+000
-0.529559E+000 -0.932391E-001  0.000000E+000
-0.506037E+000 -0.885261E-001  0.000000E+000
-0.482515E+000 -0.838131E-001  0.000000E+000
-0.458993E+000 -0.791000E-001  0.000000E+000
-0.435471E+000 -0.743870E-001  0.000000E+000
-0.411949E+000 -0.696739E-001  0.000000E+000
-0.388426E+000 -0.649609E-001  0.000000E+000
-0.156250E+000 -0.100000E+001  0.000000E+000
-0.152324E+000 -0.976504E+000  0.000000E+000
-0.148397E+000 -0.953007E+000  0.000000E+000
-0.144471E+000 -0.929511E+000  0.000000E+000
-0.140544E+000 -0.906015E+000  0.000000E+000
-0.136618E+000 -0.882519E+000  0.000000E+000
-0.132691E+000 -0.859022E+000  0.000000E+000
-0.128765E+000 -0.835526E+000  0.000000E+000
-0.124838E+000 -0.812030E+000  0.000000E+000
-0.120912E+000 -0.788534E+000  0.000000E+000
-0.116985E+000 -0.765037E+000  0.000000E+000
-0.113059E+000 -0.741541E+000  0.000000E+000
-0.109132E+000 -0.718045E+000  0.000000E+000
-0.105206E+000 -0.694549E+000  0.000000E+000
-0.101279E+000 -0.671052E+000  0.000000E+000
-0.973528E-001 -0.647556E+000  0.000000E+000
-0.934263E-001 -0.624060E+000  0.000000E+000
-0.894999E-001 -0.600564E+000  0.000000E+000
-0.855734E-001 -0.577067E+000  0.000000E+000
-0.816469E-001 -0.553571E+000  0.000000E+000
-0.777204E-001 -0.530075E+000  0.000000E+000
-0.737939E-001 -0.506579E+000  0.000000E+000
-0.698675E-001 -0.483082E+000  0.000000E+000
-0.659410E-001 -0.459586E+000  0.000000E+000
-0.620145E-001 -0.436090E+000  0.000000E+000
-0.580880E-001 -0.412594E+000  0.000000E+000
-0.541615E-001 -0.389097E+000  0.000000E+000
-0.305405E+000 -0.305405E+000  0.000000E+000
-0.296817E+000 -0.309021E+000  0.000000E+000
-0.309021E+000 -0.296817E+000  0.000000E+000
-0.288141E+000 -0.312544E+000  0.000000E+000
-0.312544E+000 -0.288141E+000  0.000000E+000
-0.279380E+000 -0.315974E+000  0.000000E+000
-0.315974E+000 -0.279380E+000  0.000000E+000
-0.270536E+000 -0.319307E+000  0.000000E+000
-0.319307E+000 -0.270536E+000  0.000000E+000
-0.261611E+000 -0.322542E+000  0.000000E+000
-0.322542E+000 -0.261611E+000  0.000000E+000
-0.252608E+000 -0.325677E+000  0.000000E+000
-0.325677E+000 -0.252608E+000  0.000000E+000
-0.243530E+000 -0.328709E+000  0.000000E+000
-0.328709E+000 -0.243530E+000  0.000000E+000
-0.234378E+000 -0.331638E+000  0.000000E+000
-0.331638E+000 -0.234378E+000  0.000000E+000
-0.225156E+000 -0.334461E+000  0.000000E+000
-0.334461E+000 -0.225156E+000  0.000000E+000
-0.215865E+000 -0.337177E+000  0.000000E+000
-0.337177E+000 -0.215865E+000  0.000000E+000
-0.206510E+000 -0.339784E+000  0.000000E+000
-0.339784E+000 -0.206510E+000  0.000000E+000
-0.197091E+000 -0.342280E+000  0.000000E+000
-0.342280E+000 -0.197091E+000  0.000000E+000
-0.187613E+000 -0.344665E+000  0.000000E+000
-0.344665E+000 -0.187613E+000  0.000000E+000
-0.178078E+000 -0.346935E+000  0.000000E+000
-0.346935E+000 -0.178078E+000  0.000000E+000
-0.168488E+000 -0.349091E+000  0.000000E+000
-0.349091E+000 -0.168488E+000  0.000000E+000
-0.158847E+000 -0.351131E+000  0.000000E+000
-0.351131E+000 -0.158847E+000  0.000000E+000
-0.149158E+000 -0.353053E+000  0.000000E+000
-0.353053E+000 -0.149158E+000  0.000000E+000
-0.139422E+000 -0.354857E+000  0.000000E+000
-0.354857E+000 -0.139422E+000  0.000000E+000
-0.129644E+000 -0.356541E+000  0.000000E+000
-0.356541E+000 -0.129644E+000  0.000000E+000
-0.119826E+000 -0.358105E+000  0.000000E+000
-0.358105E+000 -0.119826E+000  0.000000E+000
-0.109971E+000 -0.359547E+000  0.000000E+000
-0.359547E+000 -0.109971E+000  0.000000E+000
-0.100082E+000 -0.360866E+000  0.000000E+000
-0.360866E+000 -0.100082E+000  0.000000E+000
-0.901620E-001 -0.362062E+000  0.000000E+000
-0.362062E+000 -0.901620E-001  0.000000E+000
-0.802144E-001 -0.363134E+000  0.000000E+000
-0.363134E+000 -0.802144E-001  0.000000E+000
-0.702420E-001 -0.364082E+000  0.000000E+000
-0.364082E+000 -0.702420E-001  0.000000E+000
-0.602478E-001 -0.364904E+000  0.000000E+000
-0.364904E+000 -0.602478E-001  0.000000E+000
-0.502351E-001 -0.365601E+000  0.000000E+000
-0.100000E+001 -0.156250E+000  0.000000E+000
-0.976504E+000 -0.152324E+000  0.000000E+000
-0.953007E+000 -0.148397E+000  0.000000E+000
-0.929511E+000 -0.144471E+000  0.000000E+000
-0.906015E+000 -0.140544E+000  0.000000E+000
-0.882519E+000 -0.136618E+000  0.000000E+000
-0.859022E+000 -0.132691E+000  0.000000E+000
-0.835526E+000 -0.128765E+000  0.000000E+000
-0.812030E+000 -0.124838E+000  0.000000E+000
-0.788534E+000 -0.120912E+000  0.000000E+000
-0.765037E+000 -0.116985E+000  0.000000E+000
-0.741541E+000 -0.113059E+000  0.000000E+000
-0.718045E+000 -0.109132E+000  0.000000E+000
-0.694549E+000 -0.105206E+000  0.000000E+000
-0.671052E+000 -0.101279E+000  0.000000E+000
-0.647556E+000 -0.973528E-001  0.000000E+000
-0.624060E+000 -0.934263E-001  0.000000E+000
-0.600564E+000 -0.894999E-001  0.000000E+000
-0.577067E+000 -0.855734E-001  0.000000E+000
-0.553571E+000 -0.816469E-001  0.000000E+000
-0.530075E+000 -0.777204E-001  0.000000E+000
-0.506579E+000 -0.737939E-001  0.000000E+000
-0.483082E+000 -0.698675E-001  0.000000E+000
-0.459586E+000 -0.659410E-001  0.000000E+000
-0.436090E+000 -0.620145E-001  0.000000E+000
-0.412594E+000 -0.580880E-001  0.000000E+000
-0.389097E+000 -0.541615E-001  0.000000E+000
-0.365601E+000 -0.502351E-001  0.000000E+000
-0.125000E+000 -0.100000E+001  0.000000E+000
-0.121860E+000 -0.976525E+000  0.000000E+000
-0.118719E+000 -0.953050E+000  0.000000E+000
-0.115579E+000 -0.929575E+000  0.000000E+000
-0.112438E+000 -0.906100E+000  0.000000E+000
-0.109298E+000 -0.882624E+000  0.000000E+000
-0.106157E+000 -0.859149E+000  0.000000E+000
-0.103017E+000 -0.835674E+000  0.000000E+000
-0.998761E-001 -0.812199E+000  0.000000E+000
-0.967356E-001 -0.788724E+000  0.000000E+000
-0.935951E-001 -0.765249E+000  0.000000E+000
-0.904546E-001 -0.741774E+000  0.000000E+000
-0.873141E-001 -0.718299E+000  0.000000E+000
-0.841736E-001 -0.694823E+000  0.000000E+000
-0.810331E-001 -0.671348E+000  0.000000E+000
-0.778926E-001 -0.647873E+000  0.000000E+000
-0.747521E-001 -0.624398E+000  0.000000E+000
-0.716117E-001 -0.600923E+000  0.000000E+000
-0.684712E-001 -0.577448E+000  0.000000E+000
-0.653307E-001 -0.553973E+000  0.000000E+000
-0.621902E-001 -0.530498E+000  0.000000E+000
-0.590497E-001 -0.507022E+000  0.000000E+000
-0.559092E-001 -0.483547E+000  0.000000E+000
-0.527687E-001 -0.460072E+000  0.000000E+000
-0.496282E-001 -0.436597E+000  0.000000E+000
-0.464877E-001 -0.413122E+000  0.000000E+000
-0.433472E-001 -0.389647E+000  0.000000E+000
-0.402067E-001 -0.366172E+000  0.000000E+000
-0.279680E+000 -0.279680E+000  0.000000E+000
-0.271931E+000 -0.283429E+000  0.000000E+000
-0.283429E+000 -0.271931E+000  0.000000E+000
-0.264091E+000 -0.287083E+000  0.000000E+000
-0.287083E+000 -0.264091E+000  0.000000E+000
-0.256163E+000 -0.290639E+000  0.000000E+000
-0.290639E+000 -0.256163E+000  0.000000E+000
-0.248149E+000 -0.294096E+000  0.000000E+000
-0.294096E+000 -0.248149E+000  0.000000E+000
-0.240051E+000 -0.297451E+000  0.000000E+000
-0.297451E+000 -0.240051E+000  0.000000E+000
-0.231872E+000 -0.300702E+000  0.000000E+000
-0.300702E+000 -0.231872E+000  0.000000E+000
-0.223614E+000 -0.303847E+000  0.000000E+000
-0.303847E+000 -0.223614E+000  0.000000E+000
-0.215281E+000 -0.306884E+000  0.000000E+000
-0.306884E+000 -0.215281E+000  0.000000E+000
-0.206874E+000 -0.309812E+000  0.000000E+000
-0.309812E+000 -0.206874E+000  0.000000E+000
-0.198397E+000 -0.312628E+000  0.000000E+000
-0.312628E+000 -0.198397E+000  0.000000E+000
-0.189853E+000 -0.315332E+000  0.000000E+000
-0.315332E+000 -0.189853E+000  0.000000E+000
-0.181243E+000 -0.317920E+000  0.000000E+000
-0.317920E+000 -0.181243E+000  0.000000E+000
-0.172571E+000 -0.320393E+000  0.000000E+000
-0.320393E+000 -0.172571E+000  0.000000E+000
-0.163840E+000 -0.322748E+000  0.000000E+000
-0.322748E+000 -0.163840E+000  0.000000E+000
-0.155053E+000 -0.324983E+000  0.000000E+000
-0.324983E+000 -0.155053E+000  0.000000E+000
-0.146212E+000 -0.327099E+000  0.000000E+000
-0.327099E+000 -0.146212E+000  0.000000E+000
-0.137321E+000 -0.329092E+000  0.000000E+000
-0.329092E+000 -0.137321E+000  0.000000E+000
-0.128382E+000 -0.330963E+000  0.000000E+000
-0.330963E+000 -0.128382E+000  0.000000E+000
-0.119399E+000 -0.332709E+000  0.000000E+000
-0.332709E+000 -0.119399E+000  0.000000E+000
-0.110375E+000 -0.334331E+000  0.000000E+000
-0.334331E+000 -0.110375E+000  0.000000E+000
-0.101312E+000 -0.335826E+000  0.000000E+000
-0.335826E+000 -0.101312E+000  0.000000E+000
-0.922144E-001 -0.337194E+000  0.000000E+000
-0.337194E+000 -0.922144E-001  0.000000E+000
-0.830846E-001 -0.338435E+000  0.000000E+000
-0.338435E+000 -0.830846E-001  0.000000E+000
-0.739260E-001 -0.339547E+000  0.000000E+000
-0.339547E+000 -0.739260E-001  0.000000E+000
-0.647417E-001 -0.340529E+000  0.000000E+000
-0.340529E+000 -0.647417E-001  0.000000E+000
-0.555348E-001 -0.341382E+000  0.000000E+000
-0.341382E+000 -0.555348E-001  0.000000E+000
-0.463086E-001 -0.342105E+000  0.000000E+000
-0.342105E+000 -0.463086E-001  0.000000E+000
-0.370662E-001 -0.342697E+000  0.000000E+000
-0.100000E+001 -0.125000E+000  0.000000E+000
-0.976525E+000 -0.121860E+000  0.000000E+000
-0.953050E+000 -0.118719E+000  0.000000E+000
-0.929575E+000 -0.115579E+000  0.000000E+000
-0.906100E+000 -0.112438E+000  0.000000E+000
-0.882624E+000 -0.109298E+000  0.000000E+000
-0.859149E+000 -0.106157E+000  0.000000E+000
-0.835674E+000 -0.103017E+000  0.000000E+000
-0.812199E+000 -0.998761E-001  0.000000E+000
-0.788724E+000 -0.967356E-001  0.000000E+000
-0.765249E+000 -0.935951E-001  0.000000E+000
-0.741774E+000 -0.904546E-001  0.000000E+000
-0.718299E+000 -0.873141E-001  0.000000E+000
-0.694823E+000 -0.841736E-001  0.000000E+000
-0.671348E+000 -0.810331E-001  0.000000E+000
-0.647873E+000 -0.778926E-001  0.000000E+000
-0.624398E+000 -0.747521E-001  0.000000E+000
-0.600923E+000 -0.716117E-001  0.000000E+000
-0.577448E+000 -0.684712E-001  0.000000E+000
-0.553973E+000 -0.653307E-001  0.000000E+000
-0.530498E+000 -0.621902E-001  0.000000E+000
-0.507022E+000 -0.590497E-001  0.000000E+000
-0.483547E+000 -0.559092E-001  0.000000E+000
-0.460072E+000 -0.527687E-001  0.000000E+000
-0.436597E+000 -0.496282E-001  0.000000E+000
-0.413122E+000 -0.464877E-001  0.000000E+000
-0.389647E+000 -0.433472E-001  0.000000E+000
-0.366172E+000 -0.402067E-001  0.000000E+000
-0.342697E+000 -0.370662E-001  0.000000E+000
-0.937500E-001 -0.100000E+001  0.000000E+000
-0.913950E-001 -0.976541E+000  0.000000E+000
-0.890401E-001 -0.953083E+000  0.000000E+000
-0.866851E-001 -0.929624E+000  0.000000E+000
-0.843301E-001 -0.906165E+000  0.000000E+000
-0.819752E-001 -0.882707E+000  0.000000E+000
-0.796202E-001 -0.859248E+000  0.000000E+000
-0.772652E-001 -0.835789E+000  0.000000E+000
-0.749103E-001 -0.812331E+000  0.000000E+000
-0.725553E-001 -0.788872E+000  0.000000E+000
-0.702004E-001 -0.765413E+000  0.000000E+000
-0.678454E-001 -0.741955E+000  0.000000E+000
-0.654904E-001 -0.718496E+000  0.000000E+000
-0.631355E-001 -0.695037E+000  0.000000E+000
-0.607805E-001 -0.671579E+000  0.000000E+000
-0.584255E-001 -0.648120E+000  0.000000E+000
-0.560706E-001 -0.624661E+000  0.000000E+000
-0.537156E-001 -0.601203E+000  0.000000E+000
-0.513606E-001 -0.577744E+000  0.000000E+000
-0.490057E-001 -0.554285E+000  0.000000E+000
-0.466507E-001 -0.530827E+000  0.000000E+000
-0.442957E-001 -0.507368E+000  0.000000E+000
-0.419408E-001 -0.483909E+000  0.000000E+000
-0.395858E-001 -0.460451E+000  0.000000E+000
-0.372309E-001 -0.436992E+000  0.000000E+000
-0.348759E-001 -0.413533E+000  0.000000E+000
-0.325209E-001 -0.390075E+000  0.000000E+000
-0.301660E-001 -0.366616E+000  0.000000E+000
-0.278110E-001 -0.343157E+000  0.000000E+000
-0.253954E+000 -0.253954E+000  0.000000E+000
-0.247044E+000 -0.257837E+000  0.000000E+000
-0.257837E+000 -0.247044E+000  0.000000E+000
-0.240041E+000 -0.261622E+000  0.000000E+000
-0.261622E+000 -0.240041E+000  0.000000E+000
-0.232945E+000 -0.265305E+000  0.000000E+000
-0.265305E+000 -0.232945E+000  0.000000E+000
-0.225761E+000 -0.268885E+000  0.000000E+000
-0.268885E+000 -0.225761E+000  0.000000E+000
-0.218490E+000 -0.272360E+000  0.000000E+000
-0.272360E+000 -0.218490E+000  0.000000E+000
-0.211135E+000 -0.275727E+000  0.000000E+000
-0.275727E+000 -0.211135E+000  0.000000E+000
-0.203699E+000 -0.278984E+000  0.000000E+000
-0.278984E+000 -0.203699E+000  0.000000E+000
-0.196184E+000 -0.282130E+000  0.000000E+000
-0.282130E+000 -0.196184E+000  0.000000E+000
-0.188593E+000 -0.285162E+000  0.000000E+000
-0.285162E+000 -0.188593E+000  0.000000E+000
-0.180930E+000 -0.288079E+000  0.000000E+000
-0.288079E+000 -0.180930E+000  0.000000E+000
-0.173196E+000 -0.290879E+000  0.000000E+000
-0.290879E+000 -0.173196E+000  0.000000E+000
-0.165395E+000 -0.293560E+000  0.000000E+000
-0.293560E+000 -0.165395E+000  0.000000E+000
-0.157529E+000 -0.296121E+000  0.000000E+000
-0.296121E+000 -0.157529E+000  0.000000E+000
-0.149602E+000 -0.298560E+000  0.000000E+000
-0.298560E+000 -0.149602E+000  0.000000E+000
-0.141617E+000 -0.300876E+000  0.000000E+000
-0.300876E+000 -0.141617E+000  0.000000E+000
-0.133577E+000 -0.303066E+000  0.000000E+000
-0.303066E+000 -0.133577E+000  0.000000E+000
-0.125484E+000 -0.305131E+000  0.000000E+000
-0.305131E+000 -0.125484E+000  0.000000E+000
-0.117342E+000 -0.307069E+000  0.000000E+000
-0.307069E+000 -0.117342E+000  0.000000E+000
-0.109154E+000 -0.308877E+000  0.000000E+000
-0.308877E+000 -0.109154E+000  0.000000E+000
-0.100924E+000 -0.310557E+000  0.000000E+000
-0.310557E+000 -0.100924E+000  0.000000E+000
-0.926537E-001 -0.312106E+000  0.000000E+000
-0.312106E+000 -0.926537E-001  0.000000E+000
-0.843471E-001 -0.313523E+000  0.000000E+000
-0.313523E+000 -0.843471E-001  0.000000E+000
-0.760073E-001 -0.314808E+000  0.000000E+000
-0.314808E+000 -0.760073E-001  0.000000E+000
-0.676377E-001 -0.315959E+000  0.000000E+000
-0.315959E+000 -0.676377E-001  0.000000E+000
-0.592414E-001 -0.316977E+000  0.000000E+000
-0.316977E+000 -0.592414E-001  0.000000E+000
-0.508217E-001 -0.317860E+000  0.000000E+000
-0.317860E+000 -0.508217E-001  0.000000E+000
-0.423821E-001 -0.318609E+000  0.000000E+000
-0.318609E+000 -0.423821E-001  0.000000E+000
-0.339258E-001 -0.319222E+000  0.000000E+000
-0.319222E+000 -0.339258E-001  0.000000E+000
-0.254560E-001 -0.319699E+000  0.000000E+000
-0.100000E+001 -0.937500E-001  0.000000E+000
-0.976541E+000 -0.913950E-001  0.000000E+000
-0.953083E+000 -0.890401E-001  0.000000E+000
-0.929624E+000 -0.866851E-001  0.000000E+000
-0.906165E+000 -0.843301E-001  0.000000E+000
-0.882707E+000 -0.819752E-001  0.000000E+000
-0.859248E+000 -0.796202E-001  0.000000E+000
-0.835789E+000 -0.772652E-001  0.000000E+000
-0.812331E+000 -0.749103E-001  0.000000E+000
-0.788872E+000 -0.725553E-001  0.000000E+000
-0.765413E+000 -0.702004E-001  0.000000E+000
-0.741955E+000 -0.678454E-001  0.000000E+000
-0.718496E+000 -0.654904E-001  0.000000E+000
-0.695037E+000 -0.631355E-001  0.000000E+000
-0.671579E+000 -0.607805E-001  0.000000E+000
-0.648120E+000 -0.584255E-001  0.000000E+000
-0.624661E+000 -0.560706E-001  0.000000E+000
-0.601203E+000 -0.537156E-001  0.000000E+000
-0.577744E+000 -0.513606E-001  0.000000E+000
-0.554285E+000 -0.490057E-001  0.000000E+000
-0.530827E+000 -0.466507E-001  0.000000E+000
-0.507368E+000 -0.442957E-001  0.000000E+000
-0.483909E+000 -0.419408E-001  0.000000E+000
-0.460451E+000 -0.395858E-001  0.000000E+000
-0.436992E+000 -0.372309E-001  0.000000E+000
-0.413533E+000 -0.348759E-001  0.000000E+000
-0.390075E+000 -0.325209E-001  0.000000E+000
-0.366616E+000 -0.301660E-001  0.000000E+000
-0.343157E+000 -0.278110E-001  0.000000E+000
-0.319699E+000 -0.254560E-001  0.000000E+000
-0.625000E-001 -0.100000E+001  0.000000E+000
-0.609302E-001 -0.976553E+000  0.000000E+000
-0.593604E-001 -0.953106E+000  0.000000E+000
-0.577906E-001 -0.929659E+000  0.000000E+000
-0.562209E-001 -0.906212E+000  0.000000E+000
-0.546511E-001 -0.882765E+000  0.000000E+000
-0.530813E-001 -0.859319E+000  0.000000E+000
-0.515115E-001 -0.835872E+000  0.000000E+000
-0.499417E-001 -0.812425E+000  0.000000E+000
-0.483719E-001 -0.788978E+000  0.000000E+000
-0.468022E-001 -0.765531E+000  0.000000E+000
-0.452324E-001 -0.742084E+000  0.000000E+000
-0.436626E-001 -0.718637E+000  0.000000E+000
-0.420928E-001 -0.695190E+000  0.000000E+000
-0.405230E-001 -0.671743E+000  0.000000E+000
-0.389532E-001 -0.648296E+000  0.000000E+000
-0.373835E-001 -0.624849E+000  0.000000E+000
-0.358137E-001 -0.601403E+000  0.000000E+000
-0.342439E-001 -0.577956E+000  0.000000E+000
-0.326741E-001 -0.554509E+000  0.000000E+000
-0.311043E-001 -0.531062E+000  0.000000E+000
-0.295345E-001 -0.507615E+000  0.000000E+000
-0.279648E-001 -0.484168E+000  0.000000E+000
-0.263950E-001 -0.460721E+000  0.000000E+000
-0.248252E-001 -0.437274E+000  0.000000E+000
-0.232554E-001 -0.413827E+000  0.000000E+000
-0.216856E-001 -0.390380E+000  0.000000E+000
-0.201158E-001 -0.366933E+000  0.000000E+000
-0.185461E-001 -0.343487E+000  0.000000E+000
-0.169763E-001 -0.320040E+000  0.000000E+000
-0.228228E+000 -0.228228E+000  0.000000E+000
-0.222158E+000 -0.232245E+000  0.000000E+000
-0.232245E+000 -0.222158E+000  0.000000E+000
-0.215990E+000 -0.236160E+000  0.000000E+000
-0.236160E+000 -0.215990E+000  0.000000E+000
-0.209728E+000 -0.239971E+000  0.000000E+000
-0.239971E+000 -0.209728E+000  0.000000E+000
-0.203373E+000 -0.243674E+000  0.000000E+000
-0.243674E+000 -0.203373E+000  0.000000E+000
-0.196929E+000 -0.247269E+000  0.000000E+000
-0.247269E+000 -0.196929E+000  0.000000E+000
-0.190398E+000 -0.250752E+000  0.000000E+000
-0.250752E+000 -0.190398E+000  0.000000E+000
-0.183783E+000 -0.254121E+000  0.000000E+000
-0.254121E+000 -0.183783E+000  0.000000E+000
-0.177087E+000 -0.257376E+000  0.000000E+000
-0.257376E+000 -0.177087E+000  0.000000E+000
-0.170312E+000 -0.260513E+000  0.000000E+000
-0.260513E+000 -0.170312E+000  0.000000E+000
-0.163462E+000 -0.263530E+000  0.000000E+000
-0.263530E+000 -0.163462E+000  0.000000E+000
-0.156539E+000 -0.266427E+000  0.000000E+000
-0.266427E+000 -0.156539E+000  0.000000E+000
-0.149546E+000 -0.269200E+000  0.000000E+000
-0.269200E+000 -0.149546E+000  0.000000E+000
-0.142487E+000 -0.271849E+000  0.000000E+000
-0.271849E+000 -0.142487E+000  0.000000E+000
-0.135364E+000 -0.274372E+000  0.000000E+000
-0.274372E+000 -0.135364E+000  0.000000E+000
-0.128182E+000 -0.276768E+000  0.000000E+000
-0.276768E+000 -0.128182E+000  0.000000E+000
-0.120941E+000 -0.279034E+000  0.000000E+000
-0.279034E+000 -0.120941E+000  0.000000E+000
-0.113647E+000 -0.281170E+000  0.000000E+000
-0.281170E+000 -0.113647E+000  0.000000E+000
-0.106302E+000 -0.283174E+000  0.000000E+000
-0.283174E+000 -0.106302E+000  0.000000E+000
-0.989098E-001 -0.285046E+000  0.000000E+000
-0.285046E+000 -0.989098E-001  0.000000E+000
-0.914730E-001 -0.286783E+000  0.000000E+000
-0.286783E+000 -0.914730E-001  0.000000E+000
-0.839952E-001 -0.288385E+000  0.000000E+000
-0.288385E+000 -0.839952E-001  0.000000E+000
-0.764797E-001 -0.289851E+000  0.000000E+000
-0.289851E+000 -0.764797E-001  0.000000E+000
-0.689300E-001 -0.291180E+000  0.000000E+000
-0.291180E+000 -0.689300E-001  0.000000E+000
-0.613493E-001 -0.292372E+000  0.000000E+000
-0.292372E+000 -0.613493E-001  0.000000E+000
-0.537411E-001 -0.293424E+000  0.000000E+000
-0.293424E+000 -0.537411E-001  0.000000E+000
-0.461087E-001 -0.294338E+000  0.000000E+000
-0.294338E+000 -0.461087E-001  0.000000E+000
-0.384556E-001 -0.295112E+000  0.000000E+000
-0.295112E+000 -0.384556E-001  0.000000E+000
-0.307853E-001 -0.295746E+000  0.000000E+000
-0.295746E+000 -0.307853E-001  0.000000E+000
-0.231011E-001 -0.296240E+000  0.000000E+000
-0.296240E+000 -0.231011E-001  0.000000E+000
-0.154065E-001 -0.296593E+000  0.000000E+000
-0.100000E+001 -0.625000E-001  0.000000E+000
-0.976553E+000 -0.609302E-001  0.000000E+000
-0.953106E+000 -0.593604E-001  0.000000E+000
-0.929659E+000 -0.577906E-001  0.000000E+000
-0.906212E+000 -0.562209E-001  0.000000E+000
-0.882765E+000 -0.546511E-001  0.000000E+000
-0.859319E+000 -0.530813E-001  0.000000E+000
-0.835872E+000 -0.515115E-001  0.000000E+000
-0.812425E+000 -0.499417E-001  0.000000E+000
-0.788978E+000 -0.483719E-001  0.000000E+000
-0.765531E+000 -0.468022E-001  0.000000E+000
-0.742084E+000 -0.452324E-001  0.000000E+000
-0.718637E+000 -0.436626E-001  0.000000E+000
-0.695190E+000 -0.420928E-001  0.000000E+000
-0.671743E+000 -0.405230E-001  0.000000E+000
-0.648296E+000 -0.389532E-001  0.000000E+000
-0.624849E+000 -0.373835E-001  0.000000E+000
-0.601403E+000 -0.358137E-001  0.000000E+000
-0.577956E+000 -0.342439E-001  0.000000E+000
-0.554509E+000 -0.326741E-001  0.000000E+000
-0.531062E+000 -0.311043E-001  0.000000E+000
-0.507615E+000 -0.295345E-001  0.000000E+000
-0.484168E+000 -0.279648E-001  0.000000E+000
-0.460721E+000 -0.263950E-001  0.000000E+000
-0.437274E+000 -0.248252E-001  0.000000E+000
-0.413827E+000 -0.232554E-001  0.000000E+000
-0.390380E+000 -0.216856E-001  0.000000E+000
-0.366933E+000 -0.201158E-001  0.000000E+000
-0.343487E+000 -0.185461E-001  0.000000E+000
-0.320040E+000 -0.169763E-001  0.000000E+000
-0.296593E+000 -0.154065E-001  0.000000E+000
-0.312500E-001 -0.100000E+001  0.000000E+000
-0.304652E-001 -0.976560E+000  0.000000E+000
-0.296803E-001 -0.953120E+000  0.000000E+000
-0.288955E-001 -0.929680E+000  0.000000E+000
-0.281107E-001 -0.906241E+000  0.000000E+000
-0.273258E-001 -0.882801E+000  0.000000E+000
-0.265410E-001 -0.859361E+000  0.000000E+000
-0.257562E-001 -0.835921E+000  0.000000E+000
-0.249713E-001 -0.812481E+000  0.000000E+000
-0.241865E-001 -0.789041E+000  0.000000E+000
-0.234017E-001 -0.765601E+000  0.000000E+000
-0.226168E-001 -0.742162E+000  0.000000E+000
-0.218320E-001 -0.718722E+000  0.000000E+000
-0.210472E-001 -0.695282E+000  0.000000E+000
-0.202623E-001 -0.671842E+000  0.000000E+000
-0.194775E-001 -0.648402E+000  0.000000E+000
-0.186927E-001 -0.624962E+000  0.000000E+000
-0.179078E-001 -0.601522E+000  0.000000E+000
-0.171230E-001 -0.578083E+000  0.000000E+000
-0.163382E-001 -0.554643E+000  0.000000E+000
-0.155533E-001 -0.531203E+000  0.000000E+000
-0.147685E-001 -0.507763E+000  0.000000E+000
-0.139836E-001 -0.484323E+000  0.000000E+000
-0.131988E-001 -0.460883E+000  0.000000E+000
-0.124140E-001 -0.437444E+000  0.000000E+000
-0.116291E-001 -0.414004E+000  0.000000E+000
-0.108443E-001 -0.390564E+000  0.000000E+000
-0.100595E-001 -0.367124E+000  0.000000E+000
-0.927464E-002 -0.343684E+000  0.000000E+000
-0.848981E-002 -0.320244E+000  0.000000E+000
-0.770498E-002 -0.296804E+000  0.000000E+000
-0.202502E+000 -0.202502E+000  0.000000E+000
-0.197272E+000 -0.206654E+000  0.000000E+000
-0.206654E+000 -0.197272E+000  0.000000E+000
-0.191940E+000 -0.210699E+000  0.000000E+000
-0.210699E+000 -0.191940E+000  0.000000E+000
-0.186511E+000 -0.214637E+000  0.000000E+000
-0.214637E+000 -0.186511E+000  0.000000E+000
-0.180986E+000 -0.218463E+000  0.000000E+000
-0.218463E+000 -0.180986E+000  0.000000E+000
-0.175369E+000 -0.222178E+000  0.000000E+000
-0.222178E+000 -0.175369E+000  0.000000E+000
-0.169662E+000 -0.225777E+000  0.000000E+000
-0.225777E+000 -0.169662E+000  0.000000E+000
-0.163868E+000 -0.229259E+000  0.000000E+000
-0.229259E+000 -0.163868E+000  0.000000E+000
-0.157990E+000 -0.232622E+000  0.000000E+000
-0.232622E+000 -0.157990E+000  0.000000E+000
-0.152031E+000 -0.235863E+000  0.000000E+000
-0.235863E+000 -0.152031E+000  0.000000E+000
-0.145994E+000 -0.238981E+000  0.000000E+000
-0.238981E+000 -0.145994E+000  0.000000E+000
-0.139882E+000 -0.241974E+000  0.000000E+000
-0.241974E+000 -0.139882E+000  0.000000E+000
-0.133698E+000 -0.244840E+000  0.000000E+000
-0.244840E+000 -0.133698E+000  0.000000E+000
-0.127445E+000 -0.247578E+000  0.000000E+000
-0.247578E+000 -0.127445E+000  0.000000E+000
-0.121127E+000 -0.250185E+000  0.000000E+000
-0.250185E+000 -0.121127E+000  0.000000E+000
-0.114746E+000 -0.252660E+000  0.000000E+000
-0.252660E+000 -0.114746E+000  0.000000E+000
-0.108306E+000 -0.255002E+000  0.000000E+000
-0.255002E+000 -0.108306E+000  0.000000E+000
-0.101811E+000 -0.257209E+000  0.000000E+000
-0.257209E+000 -0.101811E+000  0.000000E+000
-0.952624E-001 -0.259280E+000  0.000000E+000
-0.259280E+000 -0.952624E-001  0.000000E+000
-0.886651E-001 -0.261214E+000  0.000000E+000
-0.261214E+000 -0.886651E-001  0.000000E+000
-0.820221E-001 -0.263009E+000  0.000000E+000
-0.263009E+000 -0.820221E-001  0.000000E+000
-0.753367E-001 -0.264665E+000  0.000000E+000
-0.264665E+000 -0.753367E-001  0.000000E+000
-0.686124E-001 -0.266179E+000  0.000000E+000
-0.266179E+000 -0.686124E-001  0.000000E+000
-0.618526E-001 -0.267553E+000  0.000000E+000
-0.267553E+000 -0.618526E-001  0.000000E+000
-0.550609E-001 -0.268784E+000  0.000000E+000
-0.268784E+000 -0.550609E-001  0.000000E+000
-0.482408E-001 -0.269872E+000  0.000000E+000
-0.269872E+000 -0.482408E-001  0.000000E+000
-0.413957E-001 -0.270816E+000  0.000000E+000
-0.270816E+000 -0.413957E-001  0.000000E+000
-0.345291E-001 -0.271616E+000  0.000000E+000
-0.271616E+000 -0.345291E-001  0.000000E+000
-0.276448E-001 -0.272271E+000  0.000000E+000
-0.272271E+000 -0.276448E-001  0.000000E+000
-0.207461E-001 -0.272781E+000  0.000000E+000
-0.272781E+000 -0.207461E-001  0.000000E+000
-0.138367E-001 -0.273146E+000  0.000000E+000
-0.273146E+000 -0.138367E-001  0.000000E+000
-0.692014E-002 -0.273365E+000  0.000000E+000
-0.100000E+001 -0.312500E-001  0.000000E+000
-0.976560E+000 -0.304652E-001  0.000000E+000
-0.953120E+000 -0.296803E-001  0.000000E+000
-0.929680E+000 -0.288955E-001  0.000000E+000
-0.906241E+000 -0.281107E-001  0.000000E+000
-0.882801E+000 -0.273258E-001  0.000000E+000
-0.859361E+000 -0.265410E-001  0.000000E+000
-0.835921E+000 -0.257562E-001  0.000000E+000
-0.812481E+000 -0.249713E-001  0.000000E+000
-0.789041E+000 -0.241865E-001  0.000000E+000
-0.765601E+000 -0.234017E-001  0.000000E+000
-0.742162E+000 -0.226168E-001  0.000000E+000
-0.718722E+000 -0.218320E-001  0.000000E+000
-0.695282E+000 -0.210472E-001  0.000000E+000
-0.671842E+000 -0.202623E-001  0.000000E+000
-0.648402E+000 -0.194775E-001  0.000000E+000
-0.624962E+000 -0.186927E-001  0.000000E+000
-0.601522E+000 -0.179078E-001  0.000000E+000
-0.578083E+000 -0.171230E-001  0.000000E+000
-0.554643E+000 -0.163382E-001  0.000000E+000
-0.531203E+000 -0.155533E-001  0.000000E+000
-0.507763E+000 -0.147685E-001  0.000000E+000
-0.484323E+000 -0.139836E-001  0.000000E+000
-0.460883E+000 -0.131988E-001  0.000000E+000
-0.437444E+000 -0.124140E-001  0.000000E+000
-0.414004E+000 -0.116291E-001  0.000000E+000
-0.390564E+000 -0.108443E-001  0.000000E+000
-0.367124E+000 -0.100595E-001  0.000000E+000
-0.343684E+000 -0.927464E-002  0.000000E+000
-0.320244E+000 -0.848981E-002  0.000000E+000
-0.296804E+000 -0.770498E-002  0.000000E+000
-0.273365E+000 -0.692014E-002  0.000000E+000
 0.000000E+000 -0.100000E+001  0.000000E+000
-0.143513E-017 -0.976562E+000  0.000000E+000
-0.287027E-017 -0.953125E+000  0.000000E+000
-0.430540E-017 -0.929688E+000  0.000000E+000
-0.574053E-017 -0.906250E+000  0.000000E+000
-0.717566E-017 -0.882812E+000  0.000000E+000
-0.861080E-017 -0.859375E+000  0.000000E+000
-0.100459E-016 -0.835938E+000  0.000000E+000
-0.114811E-016 -0.812500E+000  0.000000E+000
-0.129162E-016 -0.789062E+000  0.000000E+000
-0.143513E-016 -0.765625E+000  0.000000E+000
-0.157865E-016 -0.742188E+000  0.000000E+000
-0.172216E-016 -0.718750E+000  0.000000E+000
-0.186567E-016 -0.695312E+000  0.000000E+000
-0.200919E-016 -0.671875E+000  0.000000E+000
-0.215270E-016 -0.648438E+000  0.000000E+000
-0.229621E-016 -0.625000E+000  0.000000E+000
-0.243973E-016 -0.601562E+000  0.000000E+000
-0.258324E-016 -0.578125E+000  0.000000E+000
-0.272675E-016 -0.554688E+000  0.000000E+000
-0.287027E-016 -0.531250E+000  0.000000E+000
-0.301378E-016 -0.507812E+000  0.000000E+000
-0.315729E-016 -0.484375E+000  0.000000E+000
-0.330081E-016 -0.460938E+000  0.000000E+000
-0.344432E-016 -0.437500E+000  0.000000E+000
-0.358783E-016 -0.414062E+000  0.000000E+000
-0.373135E-016 -0.390625E+000  0.000000E+000
-0.387486E-016 -0.367188E+000  0.000000E+000
-0.401837E-016 -0.343750E+000  0.000000E+000
-0.416189E-016 -0.320312E+000  0.000000E+000
-0.430540E-016 -0.296875E+000  0.000000E+000
-0.444891E-016 -0.273438E+000  0.000000E+000
-0.176777E+000 -0.176777E+000  0.000000E+000
-0.172385E+000 -0.181062E+000  0.000000E+000
-0.181062E+000 -0.172385E+000  0.000000E+000
-0.167890E+000 -0.185238E+000  0.000000E+000
-0.185238E+000 -0.167890E+000  0.000000E+000
-0.163293E+000 -0.189302E+000  0.000000E+000
-0.189302E+000 -0.163293E+000  0.000000E+000
-0.158598E+000 -0.193253E+000  0.000000E+000
-0.193253E+000 -0.158598E+000  0.000000E+000
-0.153808E+000 -0.197087E+000  0.000000E+000
-0.197087E+000 -0.153808E+000  0.000000E+000
-0.148925E+000 -0.200802E+000  0.000000E+000
-0.200802E+000 -0.148925E+000  0.000000E+000
-0.143952E+000 -0.204396E+000  0.000000E+000
-0.204396E+000 -0.143952E+000  0.000000E+000
-0.138893E+000 -0.207867E+000  0.000000E+000
-0.207867E+000 -0.138893E+000  0.000000E+000
-0.133749E+000 -0.211213E+000  0.000000E+000
-0.211213E+000 -0.133749E+000  0.000000E+000
-0.128526E+000 -0.214432E+000  0.000000E+000
-0.214432E+000 -0.128526E+000  0.000000E+000
-0.123225E+000 -0.217522E+000  0.000000E+000
-0.217522E+000 -0.123225E+000  0.000000E+000
-0.117849E+000 -0.220480E+000  0.000000E+000
-0.220480E+000 -0.117849E+000  0.000000E+000
-0.112403E+000 -0.223306E+000  0.000000E+000
-0.223306E+000 -0.112403E+000  0.000000E+000
-0.106889E+000 -0.225997E+000  0.000000E+000
-0.225997E+000 -0.106889E+000  0.000000E+000
-0.101310E+000 -0.228552E+000  0.000000E+000
-0.228552E+000 -0.101310E+000  0.000000E+000
-0.956709E-001 -0.230970E+000  0.000000E+000
-0.230970E+000 -0.956709E-001  0.000000E+000
-0.899738E-001 -0.233248E+000  0.000000E+000
-0.233248E+000 -0.899738E-001  0.000000E+000
-0.842225E-001 -0.235386E+000  0.000000E+000
-0.235386E+000 -0.842225E-001  0.000000E+000
-0.784204E-001 -0.237382E+000  0.000000E+000
-0.237382E+000 -0.784204E-001  0.000000E+000
-0.725712E-001 -0.239235E+000  0.000000E+000
-0.239235E+000 -0.725712E-001  0.000000E+000
-0.666782E-001 -0.240944E+000  0.000000E+000
-0.240944E+000 -0.666782E-001  0.000000E+000
-0.607450E-001 -0.242508E+000  0.000000E+000
-0.242508E+000 -0.607450E-001  0.000000E+000
-0.547753E-001 -0.243926E+000  0.000000E+000
-0.243926E+000 -0.547753E-001  0.000000E+000
-0.487726E-001 -0.245196E+000  0.000000E+000
-0.245196E+000 -0.487726E-001  0.000000E+000
-0.427405E-001 -0.246319E+000  0.000000E+000
-0.246319E+000 -0.427405E-001  0.000000E+000
-0.366826E-001 -0.247294E+000  0.000000E+000
-0.247294E+000 -0.366826E-001  0.000000E+000
-0.306027E-001 -0.248120E+000  0.000000E+000
-0.248120E+000 -0.306027E-001  0.000000E+000
-0.245043E-001 -0.248796E+000  0.000000E+000
-0.248796E+000 -0.245043E-001  0.000000E+000
-0.183911E-001 -0.249323E+000  0.000000E+000
-0.249323E+000 -0.183911E-001  0.000000E+000
-0.122669E-001 -0.249699E+000  0.000000E+000
-0.249699E+000 -0.122669E-001  0.000000E+000
-0.613531E-002 -0.249925E+000  0.000000E+000
-0.249925E+000 -0.613531E-002  0.000000E+000
-0.459243E-016 -0.250000E+000  0.000000E+000
-0.100000E+001  0.000000E+000  0.000000E+000
-0.976562E+000  0.287027E-017  0.000000E+000
-0.953125E+000  0.574053E-017  0.000000E+000
-0.929688E+000  0.861080E-017  0.000000E+000
-0.906250E+000  0.114811E-016  0.000000E+000
-0.882812E+000  0.143513E-016  0.000000E+000
-0.859375E+000  0.172216E-016  0.000000E+000
-0.835938E+000  0.200919E-016  0.000000E+000
-0.812500E+000  0.229621E-016  0.000000E+000
-0.789062E+000  0.258324E-016  0.000000E+000
-0.765625E+000  0.287027E-016  0.000000E+000
-0.742188E+000  0.315729E-016  0.000000E+000
-0.718750E+000  0.344432E-016  0.000000E+000
-0.695312E+000  0.373135E-016  0.000000E+000
-0.671875E+000  0.401837E-016  0.000000E+000
-0.648438E+000  0.430540E-016  0.000000E+000
-0.625000E+000  0.459243E-016  0.000000E+000
-0.601562E+000  0.487945E-016  0.000000E+000
-0.578125E+000  0.516648E-016  0.000000E+000
-0.554688E+000  0.545351E-016  0.000000E+000
-0.531250E+000  0.574053E-016  0.000000E+000
-0.507812E+000  0.602756E-016  0.000000E+000
-0.484375E+000  0.631459E-016  0.000000E+000
-0.460938E+000  0.660161E-016  0.000000E+000
-0.437500E+000  0.688864E-016  0.000000E+000
-0.414062E+000  0.717566E-016  0.000000E+000
-0.390625E+000  0.746269E-016  0.000000E+000
-0.367188E+000  0.774972E-016  0.000000E+000
-0.343750E+000  0.803674E-016  0.000000E+000
-0.320312E+000  0.832377E-016  0.000000E+000
-0.296875E+000  0.861080E-016  0.000000E+000
-0.273438E+000  0.889782E-016  0.000000E+000
-0.250000E+000  0.918485E-016  0.000000E+000
 0.312500E-001 -0.100000E+001  0.000000E+000
 0.304652E-001 -0.976560E+000  0.000000E+000
 0.296803E-001 -0.953120E+000  0.000000E+000
 0.288955E-001 -0.929680E+000  0.000000E+000
 0.281107E-001 -0.906241E+000  0.000000E+000
 0.273258E-001 -0.882801E+000  0.000000E+000
 0.265410E-001 -0.859361E+000  0.000000E+000
 0.257562E-001 -0.835921E+000  0.000000E+000
 0.249713E-001 -0.812481E+000  0.000000E+000
 0.241865E-001 -0.789041E+000  0.000000E+000
 0.234017E-001 -0.765601E+000  0.000000E+000
 0.226168E-001 -0.742162E+000  0.000000E+000
 0.218320E-001 -0.718722E+000  0.000000E+000
 0.210472E-001 -0.695282E+000  0.000000E+000
 0.202623E-001 -0.671842E+000  0.000000E+000
 0.194775E-001 -0.648402E+000  0.000000E+000
 0.186927E-001 -0.624962E+000  0.000000E+000
 0.179078E-001 -0.601522E+000  0.000000E+000
 0.171230E-001 -0.578083E+000  0.000000E+000
 0.163382E-001 -0.554643E+000  0.000000E+000
 0.155533E-001 -0.531203E+000  0.000000E+000
 0.147685E-001 -0.507763E+000  0.000000E+000
 0.139836E-001 -0.484323E+000  0.000000E+000
 0.131988E-001 -0.460883E+000  0.000000E+000
 0.124140E-001 -0.437444E+000  0.000000E+000
 0.116291E-001 -0.414004E+000  0.000000E+000
 0.108443E-001 -0.390564E+000  0.000000E+000
 0.100595E-001 -0.367124E+000  0.000000E+000
 0.927464E-002 -0.343684E+000  0.000000E+000
 0.848981E-002 -0.320244E+000  0.000000E+000
 0.770498E-002 -0.296804E+000  0.000000E+000
 0.692014E-002 -0.273365E+000  0.000000E+000
 0.613531E-002 -0.249925E+000  0.000000E+000
-0.100000E+001  0.312500E-001  0.000000E+000
-0.976560E+000  0.304652E-001  0.000000E+000
-0.953120E+000  0.296803E-001  0.000000E+000
-0.929680E+000  0.288955E-001  0.000000E+000
-0.906241E+000  0.281107E-001  0.000000E+000
-0.882801E+000  0.273258E-001  0.000000E+000
-0.859361E+000  0.265410E-001  0.000000E+000
-0.835921E+000  0.257562E-001  0.000000E+000
-0.812481E+000  0.249713E-001  0.000000E+000
-0.789041E+000  0.241865E-001  0.000000E+000
-0.765601E+000  0.234017E-001  0.000000E+000
-0.742162E+000  0.226168E-001  0.000000E+000
-0.718722E+000  0.218320E-001  0.000000E+000
-0.695282E+000  0.210472E-001  0.000000E+000
-0.671842E+000  0.202623E-001  0.000000E+000
-0.648402E+000  0.194775E-001  0.000000E+000
-0.624962E+000  0.186927E-001  0.000000E+000
-0.601522E+000  0.179078E-001  0.000000E+000
-0.578083E+000  0.171230E-001  0.000000E+000
-0.554643E+000  0.163382E-001  0.000000E+000
-0.531203E+000  0.155533E-001  0.000000E+000
-0.507763E+000  0.147685E-001  0.000000E+000
-0.484323E+000  0.139836E-001  0.000000E+000
-0.460883E+000  0.131988E-001  0.000000E+000
-0.437444E+000  0.124140E-001  0.000000E+000
-0.414004E+000  0.116291E-001  0.000000E+000
-0.390564E+000  0.108443E-001  0.000000E+000
-0.367124E+000  0.100595E-001  0.000000E+000
-0.343684E+000  0.927464E-002  0.000000E+000
-0.320244E+000  0.848981E-002  0.000000E+000
-0.296804E+000  0.770498E-002  0.000000E+000
-0.273365E+000  0.692014E-002  0.000000E+000
-0.249925E+000  0.613531E-002  0.000000E+000
 0.625000E-001 -0.100000E+001  0.000000E+000
 0.609302E-001 -0.976553E+000  0.000000E+000
 0.593604E-001 -0.953106E+000  0.000000E+000
 0.577906E-001 -0.929659E+000  0.000000E+000
 0.562209E-001 -0.906212E+000  0.000000E+000
 0.546511E-001 -0.882765E+000  0.000000E+000
 0.530813E-001 -0.859319E+000  0.000000E+000
 0.515115E-001 -0.835872E+000  0.000000E+000
 0.499417E-001 -0.812425E+000  0.000000E+000
 0.483719E-001 -0.788978E+000  0.000000E+000
 0.468022E-001 -0.765531E+000  0.000000E+000
 0.452324E-001 -0.742084E+000  0.000000E+000
 0.436626E-001 -0.718637E+000  0.000000E+000
 0.420928E-001 -0.695190E+000  0.000000E+000
 0.405230E-001 -0.671743E+000  0.000000E+000
 0.389532E-001 -0.648296E+000  0.000000E+000
 0.373835E-001 -0.624849E+000  0.000000E+000
 0.358137E-001 -0.601403E+000  0.000000E+000
 0.342439E-001 -0.577956E+000  0.000000E+000
 0.326741E-001 -0.554509E+000  0.000000E+000
 0.311043E-001 -0.531062E+000  0.000000E+000
 0.295345E-001 -0.507615E+000  0.000000E+000
 0.279648E-001 -0.484168E+000  0.000000E+000
 0.263950E-001 -0.460721E+000  0.000000E+000
 0.248252E-001 -0.437274E+000  0.000000E+000
 0.232554E-001 -0.413827E+000  0.000000E+000
 0.216856E-001 -0.390380E+000  0.000000E+000
 0.201158E-001 -0.366933E+000  0.000000E+000
 0.185461E-001 -0.343487E+000  0.000000E+000
 0.169763E-001 -0.320040E+000  0.000000E+000
 0.154065E-001 -0.296593E+000  0.000000E+000
 0.138367E-001 -0.273146E+000  0.000000E+000
 0.122669E-001 -0.249699E+000  0.000000E+000
-0.100000E+001  0.625000E-001  0.000000E+000
-0.976553E+000  0.609302E-001  0.000000E+000
-0.953106E+000  0.593604E-001  0.000000E+000
-0.929659E+000  0.577906E-001  0.000000E+000
-0.906212E+000  0.562209E-001  0.000000E+000
-0.882765E+000  0.546511E-001  0.000000E+000
-0.859319E+000  0.530813E-001  0.000000E+000
-0.835872E+000  0.515115E-001  0.000000E+000
-0.812425E+000  0.499417E-001  0.000000E+000
-0.788978E+000  0.483719E-001  0.000000E+000
-0.765531E+000  0.468022E-001  0.000000E+000
-0.742084E+000  0.452324E-001  0.000000E+000
-0.718637E+000  0.436626E-001  0.000000E+000
-0.695190E+000  0.420928E-001  0.000000E+000
-0.671743E+000  0.405230E-001  0.000000E+000
-0.648296E+000  0.389532E-001  0.000000E+000
-0.624849E+000  0.373835E-001  0.000000E+000
-0.601403E+000  0.358137E-001  0.000000E+000
-0.577956E+000  0.342439E-001  0.000000E+000
-0.554509E+000  0.326741E-001  0.000000E+000
-0.531062E+000  0.311043E-001  0.000000E+000
-0.507615E+000  0.295345E-001  0.000000E+000
-0.484168E+000  0.279648E-001  0.000000E+000
-0.460721E+000  0.263950E-001  0.000000E+000
-0.437274E+000  0.248252E-001  0.000000E+000
-0.413827E+000  0.232554E-001  0.000000E+000
-0.390380E+000  0.216856E-001  0.000000E+000
-0.366933E+000  0.201158E-001  0.000000E+000
-0.343487E+000  0.185461E-001  0.000000E+000
-0.320040E+000  0.169763E-001  0.000000E+000
-0.296593E+000  0.154065E-001  0.000000E+000
-0.273146E+000  0.138367E-001  0.000000E+000
-0.249699E+000  0.122669E-001  0.000000E+000
 0.937500E-001 -0.100000E+001  0.000000E+000
 0.913950E-001 -0.976541E+000  0.000000E+000
 0.890401E-001 -0.953083E+000  0.000000E+000
 0.866851E-001 -0.929624E+000  0.000000E+000
 0.843301E-001 -0.906165E+000  0.000000E+000
 0.819752E-001 -0.882707E+000  0.000000E+000
 0.796202E-001 -0.859248E+000  0.000000E+000
 0.772652E-001 -0.835789E+000  0.000000E+000
 0.749103E-001 -0.812331E+000  0.000000E+000
 0.725553E-001 -0.788872E+000  0.000000E+000
 0.702004E-001 -0.765413E+000  0.000000E+000
 0.678454E-001 -0.741955E+000  0.000000E+000
 0.654904E-001 -0.718496E+000  0.000000E+000
 0.631355E-001 -0.695037E+000  0.000000E+000
 0.607805E-001 -0.671579E+000  0.000000E+000
 0.584255E-001 -0.648120E+000  0.000000E+000
 0.560706E-001 -0.624661E+000  0.000000E+000
 0.537156E-001 -0.601203E+000  0.000000E+000
 0.513606E-001 -0.577744E+000  0.000000E+000
 0.490057E-001 -0.554285E+000  0.000000E+000
 0.466507E-001 -0.530827E+000  0.000000E+000
 0.442957E-001 -0.507368E+000  0.000000E+000
 0.419408E-001 -0.483909E+000  0.000000E+000
 0.395858E-001 -0.460451E+000  0.000000E+000
 0.372309E-001 -0.436992E+000  0.000000E+000
 0.348759E-001 -0.413533E+000  0.000000E+000
 0.325209E-001 -0.390075E+000  0.000000E+000
 0.301660E-001 -0.366616E+000  0.000000E+000
 0.278110E-001 -0.343157E+000  0.000000E+000
 0.254560E-001 -0.319699E+000  0.000000E+000
 0.231011E-001 -0.296240E+000  0.000000E+000
 0.207461E-001 -0.272781E+000  0.000000E+000
 0.183911E-001 -0.249323E+000  0.000000E+000
-0.100000E+001  0.937500E-001  0.000000E+000
-0.976541E+000  0.913950E-001  0.000000E+000
-0.953083E+000  0.890401E-001  0.000000E+000
-0.929624E+000  0.866851E-001  0.000000E+000
-0.906165E+000  0.843301E-001  0.000000E+000
-0.882707E+000  0.819752E-001  0.000000E+000
-0.859248E+000  0.796202E-001  0.000000E+000
-0.835789E+000  0.772652E-001  0.000000E+000
-0.812331E+000  0.749103E-001  0.000000E+000
-0.788872E+000  0.725553E-001  0.000000E+000
-0.765413E+000  0.702004E-001  0.000000E+000
-0.741955E+000  0.678454E-001  0.000000E+000
-0.718496E+000  0.654904E-001  0.000000E+000
-0.695037E+000  0.631355E-001  0.000000E+000
-0.671579E+000  0.607805E-001  0.000000E+000
-0.648120E+000  0.584255E-001  0.000000E+000
-0.624661E+000  0.560706E-001  0.000000E+000
-0.601203E+000  0.537156E-001  0.000000E+000
-0.577744E+000  0.513606E-001  0.000000E+000
-0.554285E+000  0.490057E-001  0.000000E+000
-0.530827E+000  0.466507E-001  0.000000E+000
-0.507368E+000  0.442957E-001  0.000000E+000
-0.483909E+000  0.419408E-001  0.000000E+000
-0.460451E+000  0.395858E-001  0.000000E+000
-0.436992E+000  0.372309E-001  0.000000E+000
-0.413533E+000  0.348759E-001  0.000000E+000
-0.390075E+000  0.325209E-001  0.000000E+000
-0.366616E+000  0.301660E-001  0.000000E+000
-0.343157E+000  0.278110E-001  0.000000E+000
-0.319699E+000  0.254560E-001  0.000000E+000
-0.296240E+000  0.231011E-001  0.000000E+000
-0.272781E+000  0.207461E-001  0.000000E+000
-0.249323E+000  0.183911E-001  0.000000E+000
 0.125000E+000 -0.100000E+001  0.000000E+000
 0.121860E+000 -0.976525E+000  0.000000E+000
 0.118719E+000 -0.953050E+000  0.000000E+000
 0.115579E+000 -0.929575E+000  0.000000E+000
 0.112438E+000 -0.906100E+000  0.000000E+000
 0.109298E+000 -0.882624E+000  0.000000E+000
 0.106157E+000 -0.859149E+000  0.000000E+000
 0.103017E+000 -0.835674E+000  0.000000E+000
 0.998761E-001 -0.812199E+000  0.000000E+000
 0.967356E-001 -0.788724E+000  0.000000E+000
 0.935951E-001 -0.765249E+000  0.000000E+000
 0.904546E-001 -0.741774E+000  0.000000E+000
 0.873141E-001 -0.718299E+000  0.000000E+000
 0.841736E-001 -0.694823E+000  0.000000E+000
 0.810331E-001 -0.671348E+000  0.000000E+000
 0.778926E-001 -0.647873E+000  0.000000E+000
 0.747521E-001 -0.624398E+000  0.000000E+000
 0.716117E-001 -0.600923E+000  0.000000E+000
 0.684712E-001 -0.577448E+000  0.000000E+000
 0.653307E-001 -0.553973E+000  0.000000E+000
 0.621902E-001 -0.530498E+000  0.000000E+000
 0.590497E-001 -0.507022E+000  0.000000E+000
 0.559092E-001 -0.483547E+000  0.000000E+000
 0.527687E-001 -0.460072E+000  0.000000E+000
 0.496282E-001 -0.436597E+000  0.000000E+000
 0.464877E-001 -0.413122E+000  0.000000E+000
 0.433472E-001 -0.389647E+000  0.000000E+000
 0.402067E-001 -0.366172E+000  0.000000E+000
 0.370662E-001 -0.342697E+000  0.000000E+000
 0.339258E-001 -0.319222E+000  0.000000E+000
 0.307853E-001 -0.295746E+000  0.000000E+000
 0.276448E-001 -0.272271E+000  0.000000E+000
 0.245043E-001 -0.248796E+000  0.000000E+000
-0.100000E+001  0.125000E+000  0.000000E+000
-0.976525E+000  0.121860E+000  0.000000E+000
-0.953050E+000  0.118719E+000  0.000000E+000
-0.929575E+000  0.115579E+000  0.000000E+000
-0.906100E+000  0.112438E+000  0.000000E+000
-0.882624E+000  0.109298E+000  0.000000E+000
-0.859149E+000  0.106157E+000  0.000000E+000
-0.835674E+000  0.103017E+000  0.000000E+000
-0.812199E+000  0.998761E-001  0.000000E+000
-0.788724E+000  0.967356E-001  0.000000E+000
-0.765249E+000  0.935951E-001  0.000000E+000
-0.741774E+000  0.904546E-001  0.000000E+000
-0.718299E+000  0.873141E-001  0.000000E+000
-0.694823E+000  0.841736E-001  0.000000E+000
-0.671348E+000  0.810331E-001  0.000000E+000
-0.647873E+000  0.778926E-001  0.000000E+000
-0.624398E+000  0.747521E-001  0.000000E+000
-0.600923E+000  0.716117E-001  0.000000E+000
-0.577448E+000  0.684712E-001  0.000000E+000
-0.553973E+000  0.653307E-001  0.000000E+000
-0.530498E+000  0.621902E-001  0.000000E+000
-0.507022E+000  0.590497E-001  0.000000E+000
-0.483547E+000  0.559092E-001  0.000000E+000
-0.460072E+000  0.527687E-001  0.000000E+000
-0.436597E+000  0.496282E-001  0.000000E+000
-0.413122E+000  0.464877E-001  0.000000E+000
-0.389647E+000  0.433472E-001  0.000000E+000
-0.366172E+000  0.402067E-001  0.000000E+000
-0.342697E+000  0.370662E-001  0.000000E+000
-0.319222E+000  0.339258E-001  0.000000E+000
-0.295746E+000  0.307853E-001  0.000000E+000
-0.272271E+000  0.276448E-001  0.000000E+000
-0.248796E+000  0.245043E-001  0.000000E+000
 0.156250E+000 -0.100000E+001  0.000000E+000
 0.152324E+000 -0.976504E+000  0.000000E+000
 0.148397E+000 -0.953007E+000  0.000000E+000
 0.144471E+000 -0.929511E+000  0.000000E+000
 0.140544E+000 -0.906015E+000  0.000000E+000
 0.136618E+000 -0.882519E+000  0.000000E+000
 0.132691E+000 -0.859022E+000  0.000000E+000
 0.128765E+000 -0.835526E+000  0.000000E+000
 0.124838E+000 -0.812030E+000  0.000000E+000
 0.120912E+000 -0.788534E+000  0.000000E+000
 0.116985E+000 -0.765037E+000  0.000000E+000
 0.113059E+000 -0.741541E+000  0.000000E+000
 0.109132E+000 -0.718045E+000  0.000000E+000
 0.105206E+000 -0.694549E+000  0.000000E+000
 0.101279E+000 -0.671052E+000  0.000000E+000
 0.973528E-001 -0.647556E+000  0.000000E+000
 0.934263E-001 -0.624060E+000  0.000000E+000
 0.894999E-001 -0.600564E+000  0.000000E+000
 0.855734E-001 -0.577067E+000  0.000000E+000
 0.816469E-001 -0.553571E+000  0.000000E+000
 0.777204E-001 -0.530075E+000  0.000000E+000
 0.737939E-001 -0.506579E+000  0.000000E+000
 0.698675E-001 -0.483082E+000  0.000000E+000
 0.659410E-001 -0.459586E+000  0.000000E+000
 0.620145E-001 -0.436090E+000  0.000000E+000
 0.580880E-001 -0.412594E+000  0.000000E+000
 0.541615E-001 -0.389097E+000  0.000000E+000
 0.502351E-001 -0.365601E+000  0.000000E+000
 0.463086E-001 -0.342105E+000  0.000000E+000
 0.423821E-001 -0.318609E+000  0.000000E+000
 0.384556E-001 -0.295112E+000  0.000000E+000
 0.345291E-001 -0.271616E+000  0.000000E+000
 0.306027E-001 -0.248120E+000  0.000000E+000
-0.100000E+001  0.156250E+000  0.000000E+000
-0.976504E+000  0.152324E+000  0.000000E+000
-0.953007E+000  0.148397E+000  0.000000E+000
-0.929511E+000  0.144471E+000  0.000000E+000
-0.906015E+000  0.140544E+000  0.000000E+000
-0.882519E+000  0.136618E+000  0.000000E+000
-0.859022E+000  0.132691E+000  0.000000E+000
-0.835526E+000  0.128765E+000  0.000000E+000
-0.812030E+000  0.124838E+000  0.000000E+000
-0.788534E+000  0.120912E+000  0.000000E+000
-0.765037E+000  0.116985E+000  0.000000E+000
-0.741541E+000  0.113059E+000  0.000000E+000
-0.718045E+000  0.109132E+000  0.000000E+000
-0.694549E+000  0.105206E+000  0.000000E+000
-0.671052E+000  0.101279E+000  0.000000E+000
-0.647556E+000  0.973528E-001  0.000000E+000
-0.624060E+000  0.934263E-001  0.000000E+000
-0.600564E+000  0.894999E-001  0.000000E+000
-0.577067E+000  0.855734E-001  0.000000E+000
-0.553571E+000  0.816469E-001  0.000000E+000
-0.530075E+000  0.777204E-001  0.000000E+000
-0.506579E+000  0.737939E-001  0.000000E+000
-0.483082E+000  0.698675E-001  0.000000E+000
-0.459586E+000  0.659410E-001  0.000000E+000
-0.436090E+000  0.620145E-001  0.000000E+000
-0.412594E+000  0.580880E-001  0.000000E+000
-0.389097E+000  0.541615E-001  0.000000E+000
-0.365601E+000  0.502351E-001  0.000000E+000
-0.342105E+000  0.463086E-001  0.000000E+000
-0.318609E+000  0.423821E-001  0.000000E+000
-0.295112E+000  0.384556E-001  0.000000E+000
-0.271616E+000  0.345291E-001  0.000000E+000
-0.248120E+000  0.306027E-001  0.000000E+000
 0.187500E+000 -0.100000E+001  0.000000E+000
 0.182787E+000 -0.976478E+000  0.000000E+000
 0.178074E+000 -0.952956E+000  0.000000E+000
 0.173361E+000 -0.929434E+000  0.000000E+000
 0.168648E+000 -0.905912E+000  0.000000E+000
 0.163935E+000 -0.882390E+000  0.000000E+000
 0.159222E+000 -0.858868E+000  0.000000E+000
 0.154509E+000 -0.835346E+000  0.000000E+000
 0.149796E+000 -0.811824E+000  0.000000E+000
 0.145083E+000 -0.788301E+000  0.000000E+000
 0.140370E+000 -0.764779E+000  0.000000E+000
 0.135657E+000 -0.741257E+000  0.000000E+000
 0.130943E+000 -0.717735E+000  0.000000E+000
 0.126230E+000 -0.694213E+000  0.000000E+000
 0.121517E+000 -0.670691E+000  0.000000E+000
 0.116804E+000 -0.647169E+000  0.000000E+000
 0.112091E+000 -0.623647E+000  0.000000E+000
 0.107378E+000 -0.600125E+000  0.000000E+000
 0.102665E+000 -0.576603E+000  0.000000E+000
 0.979522E-001 -0.553081E+000  0.000000E+000
 0.932391E-001 -0.529559E+000  0.000000E+000
 0.885261E-001 -0.506037E+000  0.000000E+000
 0.838131E-001 -0.482515E+000  0.000000E+000
 0.791000E-001 -0.458993E+000  0.000000E+000
 0.743870E-001 -0.435471E+000  0.000000E+000
 0.696739E-001 -0.411949E+000  0.000000E+000
 0.649609E-001 -0.388426E+000  0.000000E+000
 0.602478E-001 -0.364904E+000  0.000000E+000
 0.555348E-001 -0.341382E+000  0.000000E+000
 0.508217E-001 -0.317860E+000  0.000000E+000
 0.461087E-001 -0.294338E+000  0.000000E+000
 0.413957E-001 -0.270816E+000  0.000000E+000
 0.366826E-001 -0.247294E+000  0.000000E+000
-0.100000E+001  0.187500E+000  0.000000E+000
-0.976478E+000  0.182787E+000  0.000000E+000
-0.952956E+000  0.178074E+000  0.000000E+000
-0.929434E+000  0.173361E+000  0.000000E+000
-0.905912E+000  0.168648E+000  0.000000E+000
-0.882390E+000  0.163935E+000  0.000000E+000
-0.858868E+000  0.159222E+000  0.000000E+000
-0.835346E+000  0.154509E+000  0.000000E+000
-0.811824E+000  0.149796E+000  0.000000E+000
-0.788301E+000  0.145083E+000  0.000000E+000
-0.764779E+000  0.140370E+000  0.000000E+000
-0.741257E+000  0.135657E+000  0.000000E+000
-0.717735E+000  0.130943E+000  0.000000E+000
-0.694213E+000  0.126230E+000  0.000000E+000
-0.670691E+000  0.121517E+000  0.000000E+000
-0.647169E+000  0.116804E+000  0.000000E+000
-0.623647E+000  0.112091E+000  0.000000E+000
-0.600125E+000  0.107378E+000  0.000000E+000
-0.576603E+000  0.102665E+000  0.000000E+000
-0.553081E+000  0.979522E-001  0.000000E+000
-0.529559E+000  0.932391E-001  0.000000E+000
-0.506037E+000  0.885261E-001  0.000000E+000
-0.482515E+000  0.838131E-001  0.000000E+000
-0.458993E+000  0.791000E-001  0.000000E+000
-0.435471E+000  0.743870E-001  0.000000E+000
-0.411949E+000  0.696739E-001  0.000000E+000
-0.388426E+000  0.649609E-001  0.000000E+000
-0.364904E+000  0.602478E-001  0.000000E+000
-0.341382E+000  0.555348E-001  0.000000E+000
-0.317860E+000  0.508217E-001  0.000000E+000
-0.294338E+000  0.461087E-001  0.000000E+000
-0.270816E+000  0.413957E-001  0.000000E+000
-0.247294E+000  0.366826E-001  0.000000E+000
 0.218750E+000 -0.100000E+001  0.000000E+000
 0.213250E+000 -0.976447E+000  0.000000E+000
 0.207749E+000 -0.952895E+000  0.000000E+000
 0.202249E+000 -0.929342E+000  0.000000E+000
 0.196749E+000 -0.905790E+000  0.000000E+000
 0.191249E+000 -0.882237E+000  0.000000E+000
 0.185748E+000 -0.858685E+000  0.000000E+000
 0.180248E+000 -0.835132E+000  0.000000E+000
 0.174748E+000 -0.811580E+000  0.000000E+000
 0.169247E+000 -0.788027E+000  0.000000E+000
 0.163747E+000 -0.764475E+000  0.000000E+000
 0.158247E+000 -0.740922E+000  0.000000E+000
 0.152746E+000 -0.717370E+000  0.000000E+000
 0.147246E+000 -0.693817E+000  0.000000E+000
 0.141746E+000 -0.670265E+000  0.000000E+000
 0.136246E+000 -0.646712E+000  0.000000E+000
 0.130745E+000 -0.623160E+000  0.000000E+000
 0.125245E+000 -0.599607E+000  0.000000E+000
 0.119745E+000 -0.576055E+000  0.000000E+000
 0.114244E+000 -0.552502E+000  0.000000E+000
 0.108744E+000 -0.528950E+000  0.000000E+000
 0.103244E+000 -0.505397E+000  0.000000E+000
 0.977434E-001 -0.481845E+000  0.000000E+000
 0.922432E-001 -0.458292E+000  0.000000E+000
 0.867429E-001 -0.434740E+000  0.000000E+000
 0.812426E-001 -0.411187E+000  0.000000E+000
 0.757423E-001 -0.387635E+000  0.000000E+000
 0.702420E-001 -0.364082E+000  0.000000E+000
 0.647417E-001 -0.340529E+000  0.000000E+000
 0.592414E-001 -0.316977E+000  0.000000E+000
 0.537411E-001 -0.293424E+000  0.000000E+000
 0.482408E-001 -0.269872E+000  0.000000E+000
 0.427405E-001 -0.246319E+000  0.000000E+000
-0.100000E+001  0.218750E+000  0.000000E+000
-0.976447E+000  0.213250E+000  0.000000E+000
-0.952895E+000  0.207749E+000  0.000000E+000
-0.929342E+000  0.202249E+000  0.000000E+000
-0.905790E+000  0.196749E+000  0.000000E+000
-0.882237E+000  0.191249E+000  0.000000E+000
-0.858685E+000  0.185748E+000  0.000000E+000
-0.835132E+000  0.180248E+000  0.000000E+000
-0.811580E+000  0.174748E+000  0.000000E+000
-0.788027E+000  0.169247E+000  0.000000E+000
-0.764475E+000  0.163747E+000  0.000000E+000
-0.740922E+000  0.158247E+000  0.000000E+000
-0.717370E+000  0.152746E+000  0.000000E+000
-0.693817E+000  0.147246E+000  0.000000E+000
-0.670265E+000  0.141746E+000  0.000000E+000
-0.646712E+000  0.136246E+000  0.000000E+000
-0.623160E+000  0.130745E+000  0.000000E+000
-0.599607E+000  0.125245E+000  0.000000E+000
-0.576055E+000  0.119745E+000  0.000000E+000
-0.552502E+000  0.114244E+000  0.000000E+000
-0.528950E+000  0.108744E+000  0.000000E+000
-0.505397E+000  0.103244E+000  0.000000E+000
-0.481845E+000  0.977434E-001  0.000000E+000
-0.458292E+000  0.922432E-001  0.000000E+000
-0.434740E+000  0.867429E-001  0.000000E+000
-0.411187E+000  0.812426E-001  0.000000E+000
-0.387635E+000  0.757423E-001  0.000000E+000
-0.364082E+000  0.702420E-001  0.000000E+000
-0.340529E+000  0.647417E-001  0.000000E+000
-0.316977E+000  0.592414E-001  0.000000E+000
-0.293424E+000  0.537411E-001  0.000000E+000
-0.269872E+000  0.482408E-001  0.000000E+000
-0.246319E+000  0.427405E-001  0.000000E+000
 0.250000E+000 -0.100000E+001  0.000000E+000
 0.243712E+000 -0.976412E+000  0.000000E+000
 0.237423E+000 -0.952825E+000  0.000000E+000
 0.231135E+000 -0.929237E+000  0.000000E+000
 0.224847E+000 -0.905650E+000  0.000000E+000
 0.218558E+000 -0.882062E+000  0.000000E+000
 0.212270E+000 -0.858474E+000  0.000000E+000
 0.205982E+000 -0.834887E+000  0.000000E+000
 0.199693E+000 -0.811299E+000  0.000000E+000
 0.193405E+000 -0.787711E+000  0.000000E+000
 0.187116E+000 -0.764124E+000  0.000000E+000
 0.180828E+000 -0.740536E+000  0.000000E+000
 0.174540E+000 -0.716949E+000  0.000000E+000
 0.168251E+000 -0.693361E+000  0.000000E+000
 0.161963E+000 -0.669773E+000  0.000000E+000
 0.155675E+000 -0.646186E+000  0.000000E+000
 0.149386E+000 -0.622598E+000  0.000000E+000
 0.143098E+000 -0.599011E+000  0.000000E+000
 0.136810E+000 -0.575423E+000  0.000000E+000
 0.130521E+000 -0.551835E+000  0.000000E+000
 0.124233E+000 -0.528248E+000  0.000000E+000
 0.117945E+000 -0.504660E+000  0.000000E+000
 0.111656E+000 -0.481072E+000  0.000000E+000
 0.105368E+000 -0.457485E+000  0.000000E+000
 0.990794E-001 -0.433897E+000  0.000000E+000
 0.927911E-001 -0.410310E+000  0.000000E+000
 0.865027E-001 -0.386722E+000  0.000000E+000
 0.802144E-001 -0.363134E+000  0.000000E+000
 0.739260E-001 -0.339547E+000  0.000000E+000
 0.676377E-001 -0.315959E+000  0.000000E+000
 0.613493E-001 -0.292372E+000  0.000000E+000
 0.550609E-001 -0.268784E+000  0.000000E+000
 0.487726E-001 -0.245196E+000  0.000000E+000
-0.100000E+001  0.250000E+000  0.000000E+000
-0.976412E+000  0.243712E+000  0.000000E+000
-0.952825E+000  0.237423E+000  0.000000E+000
-0.929237E+000  0.231135E+000  0.000000E+000
-0.905650E+000  0.224847E+000  0.000000E+000
-0.882062E+000  0.218558E+000  0.000000E+000
-0.858474E+000  0.212270E+000  0.000000E+000
-0.834887E+000  0.205982E+000  0.000000E+000
-0.811299E+000  0.199693E+000  0.000000E+000
-0.787711E+000  0.193405E+000  0.000000E+000
-0.764124E+000  0.187116E+000  0.000000E+000
-0.740536E+000  0.180828E+000  0.000000E+000
-0.716949E+000  0.174540E+000  0.000000E+000
-0.693361E+000  0.168251E+000  0.000000E+000
-0.669773E+000  0.161963E+000  0.000000E+000
-0.646186E+000  0.155675E+000  0.000000E+000
-0.622598E+000  0.149386E+000  0.000000E+000
-0.599011E+000  0.143098E+000  0.000000E+000
-0.575423E+000  0.136810E+000  0.000000E+000
-0.551835E+000  0.130521E+000  0.000000E+000
-0.528248E+000  0.124233E+000  0.000000E+000
-0.504660E+000  0.117945E+000  0.000000E+000
-0.481072E+000  0.111656E+000  0.000000E+000
-0.457485E+000  0.105368E+000  0.000000E+000
-0.433897E+000  0.990794E-001  0.000000E+000
-0.410310E+000  0.927911E-001  0.000000E+000
-0.386722E+000  0.865027E-001  0.000000E+000
-0.363134E+000  0.802144E-001  0.000000E+000
-0.339547E+000  0.739260E-001  0.000000E+000
-0.315959E+000  0.676377E-001  0.000000E+000
-0.292372E+000  0.613493E-001  0.000000E+000
-0.268784E+000  0.550609E-001  0.000000E+000
-0.245196E+000  0.487726E-001  0.000000E+000
 0.281250E+000 -0.100000E+001  0.000000E+000
 0.274173E+000 -0.976373E+000  0.000000E+000
 0.267095E+000 -0.952745E+000  0.000000E+000
 0.260018E+000 -0.929118E+000  0.000000E+000
 0.252941E+000 -0.905491E+000  0.000000E+000
 0.245863E+000 -0.881863E+000  0.000000E+000
 0.238786E+000 -0.858236E+000  0.000000E+000
 0.231709E+000 -0.834609E+000  0.000000E+000
 0.224631E+000 -0.810981E+000  0.000000E+000
 0.217554E+000 -0.787354E+000  0.000000E+000
 0.210477E+000 -0.763727E+000  0.000000E+000
 0.203399E+000 -0.740099E+000  0.000000E+000
 0.196322E+000 -0.716472E+000  0.000000E+000
 0.189245E+000 -0.692845E+000  0.000000E+000
 0.182167E+000 -0.669217E+000  0.000000E+000
 0.175090E+000 -0.645590E+000  0.000000E+000
 0.168013E+000 -0.621963E+000  0.000000E+000
 0.160935E+000 -0.598335E+000  0.000000E+000
 0.153858E+000 -0.574708E+000  0.000000E+000
 0.146781E+000 -0.551081E+000  0.000000E+000
 0.139703E+000 -0.527453E+000  0.000000E+000
 0.132626E+000 -0.503826E+000  0.000000E+000
 0.125549E+000 -0.480199E+000  0.000000E+000
 0.118471E+000 -0.456571E+000  0.000000E+000
 0.111394E+000 -0.432944E+000  0.000000E+000
 0.104317E+000 -0.409317E+000  0.000000E+000
 0.972393E-001 -0.385689E+000  0.000000E+000
 0.901620E-001 -0.362062E+000  0.000000E+000
 0.830846E-001 -0.338435E+000  0.000000E+000
 0.760073E-001 -0.314808E+000  0.000000E+000
 0.689300E-001 -0.291180E+000  0.000000E+000
 0.618526E-001 -0.267553E+000  0.000000E+000
 0.547753E-001 -0.243926E+000  0.000000E+000
-0.100000E+001  0.281250E+000  0.000000E+000
-0.976373E+000  0.274173E+000  0.000000E+000
-0.952745E+000  0.267095E+000  0.000000E+000
-0.929118E+000  0.260018E+000  0.000000E+000
-0.905491E+000  0.252941E+000  0.000000E+000
-0.881863E+000  0.245863E+000  0.000000E+000
-0.858236E+000  0.238786E+000  0.000000E+000
-0.834609E+000  0.231709E+000  0.000000E+000
-0.810981E+000  0.224631E+000  0.000000E+000
-0.787354E+000  0.217554E+000  0.000000E+000
-0.763727E+000  0.210477E+000  0.000000E+000
-0.740099E+000  0.203399E+000  0.000000E+000
-0.716472E+000  0.196322E+000  0.000000E+000
-0.692845E+000  0.189245E+000  0.000000E+000
-0.669217E+000  0.182167E+000  0.000000E+000
-0.645590E+000  0.175090E+000  0.000000E+000
-0.621963E+000  0.168013E+000  0.000000E+000
-0.598335E+000  0.160935E+000  0.000000E+000
-0.574708E+000  0.153858E+000  0.000000E+000
-0.551081E+000  0.146781E+000  0.000000E+000
-0.527453E+000  0.139703E+000  0.000000E+000
-0.503826E+000  0.132626E+000  0.000000E+000
-0.480199E+000  0.125549E+000  0.000000E+000
-0.456571E+000  0.118471E+000  0.000000E+000
-0.432944E+000  0.111394E+000  0.000000E+000
-0.409317E+000  0.104317E+000  0.000000E+000
-0.385689E+000  0.972393E-001  0.000000E+000
-0.362062E+000  0.901620E-001  0.000000E+000
-0.338435E+000  0.830846E-001  0.000000E+000
-0.314808E+000  0.760073E-001  0.000000E+000
-0.291180E+000  0.689300E-001  0.000000E+000
-0.267553E+000  0.618526E-001  0.000000E+000
-0.243926E+000  0.547753E-001  0.000000E+000
 0.312500E+000 -0.100000E+001  0.000000E+000
 0.304633E+000 -0.976328E+000  0.000000E+000
 0.296765E+000 -0.952657E+000  0.000000E+000
 0.288898E+000 -0.928985E+000  0.000000E+000
 0.281031E+000 -0.905313E+000  0.000000E+000
 0.273163E+000 -0.881642E+000  0.000000E+000
 0.265296E+000 -0.857970E+000  0.000000E+000
 0.257429E+000 -0.834299E+000  0.000000E+000
 0.249561E+000 -0.810627E+000  0.000000E+000
 0.241694E+000 -0.786955E+000  0.000000E+000
 0.233827E+000 -0.763284E+000  0.000000E+000
 0.225959E+000 -0.739612E+000  0.000000E+000
 0.218092E+000 -0.715940E+000  0.000000E+000
 0.210225E+000 -0.692269E+000  0.000000E+000
 0.202357E+000 -0.668597E+000  0.000000E+000
 0.194490E+000 -0.644926E+000  0.000000E+000
 0.186623E+000 -0.621254E+000  0.000000E+000
 0.178755E+000 -0.597582E+000  0.000000E+000
 0.170888E+000 -0.573911E+000  0.000000E+000
 0.163020E+000 -0.550239E+000  0.000000E+000
 0.155153E+000 -0.526567E+000  0.000000E+000
 0.147286E+000 -0.502896E+000  0.000000E+000
 0.139418E+000 -0.479224E+000  0.000000E+000
 0.131551E+000 -0.455552E+000  0.000000E+000
 0.123684E+000 -0.431881E+000  0.000000E+000
 0.115816E+000 -0.408209E+000  0.000000E+000
 0.107949E+000 -0.384538E+000  0.000000E+000
 0.100082E+000 -0.360866E+000  0.000000E+000
 0.922144E-001 -0.337194E+000  0.000000E+000
 0.843471E-001 -0.313523E+000  0.000000E+000
 0.764797E-001 -0.289851E+000  0.000000E+000
 0.686124E-001 -0.266179E+000  0.000000E+000
 0.607450E-001 -0.242508E+000  0.000000E+000
-0.100000E+001  0.312500E+000  0.000000E+000
-0.976328E+000  0.304633E+000  0.000000E+000
-0.952657E+000  0.296765E+000  0.000000E+000
-0.928985E+000  0.288898E+000  0.000000E+000
-0.905313E+000  0.281031E+000  0.000000E+000
-0.881642E+000  0.273163E+000  0.000000E+000
-0.857970E+000  0.265296E+000  0.000000E+000
-0.834299E+000  0.257429E+000  0.000000E+000
-0.810627E+000  0.249561E+000  0.000000E+000
-0.786955E+000  0.241694E+000  0.000000E+000
-0.763284E+000  0.233827E+000  0.000000E+000
-0.739612E+000  0.225959E+000  0.000000E+000
-0.715940E+000  0.218092E+000  0.000000E+000
-0.692269E+000  0.210225E+000  0.000000E+000
-0.668597E+000  0.202357E+000  0.000000E+000
-0.644926E+000  0.194490E+000  0.000000E+000
-0.621254E+000  0.186623E+000  0.000000E+000
-0.597582E+000  0.178755E+000  0.000000E+000
-0.573911E+000  0.170888E+000  0.000000E+000
-0.550239E+000  0.163020E+000  0.000000E+000
-0.526567E+000  0.155153E+000  0.000000E+000
-0.502896E+000  0.147286E+000  0.000000E+000
-0.479224E+000  0.139418E+000  0.000000E+000
-0.455552E+000  0.131551E+000  0.000000E+000
-0.431881E+000  0.123684E+000  0.000000E+000
-0.408209E+000  0.115816E+000  0.000000E+000
-0.384538E+000  0.107949E+000  0.000000E+000
-0.360866E+000  0.100082E+000  0.000000E+000
-0.337194E+000  0.922144E-001  0.000000E+000
-0.313523E+000  0.843471E-001  0.000000E+000
-0.289851E+000  0.764797E-001  0.000000E+000
-0.266179E+000  0.686124E-001  0.000000E+000
-0.242508E+000  0.607450E-001  0.000000E+000
 0.343750E+000 -0.100000E+001  0.000000E+000
 0.335092E+000 -0.976280E+000  0.000000E+000
 0.326433E+000 -0.952559E+000  0.000000E+000
 0.317775E+000 -0.928839E+000  0.000000E+000
 0.309116E+000 -0.905118E+000  0.000000E+000
 0.300458E+000 -0.881398E+000  0.000000E+000
 0.291799E+000 -0.857677E+000  0.000000E+000
 0.283141E+000 -0.833957E+000  0.000000E+000
 0.274482E+000 -0.810236E+000  0.000000E+000
 0.265824E+000 -0.786516E+000  0.000000E+000
 0.257165E+000 -0.762795E+000  0.000000E+000
 0.248507E+000 -0.739075E+000  0.000000E+000
 0.239848E+000 -0.715354E+000  0.000000E+000
 0.231190E+000 -0.691634E+000  0.000000E+000
 0.222531E+000 -0.667913E+000  0.000000E+000
 0.213873E+000 -0.644193E+000  0.000000E+000
 0.205214E+000 -0.620472E+000  0.000000E+000
 0.196556E+000 -0.596752E+000  0.000000E+000
 0.187897E+000 -0.573031E+000  0.000000E+000
 0.179239E+000 -0.549311E+000  0.000000E+000
 0.170580E+000 -0.525590E+000  0.000000E+000
 0.161922E+000 -0.501870E+000  0.000000E+000
 0.153263E+000 -0.478149E+000  0.000000E+000
 0.144605E+000 -0.454429E+000  0.000000E+000
 0.135946E+000 -0.430708E+000  0.000000E+000
 0.127288E+000 -0.406988E+000  0.000000E+000
 0.118629E+000 -0.383267E+000  0.000000E+000
 0.109971E+000 -0.359547E+000  0.000000E+000
 0.101312E+000 -0.335826E+000  0.000000E+000
 0.926537E-001 -0.312106E+000  0.000000E+000
 0.839952E-001 -0.288385E+000  0.000000E+000
 0.753367E-001 -0.264665E+000  0.000000E+000
 0.666782E-001 -0.240944E+000  0.000000E+000
-0.100000E+001  0.343750E+000  0.000000E+000
-0.976280E+000  0.335092E+000  0.000000E+000
-0.952559E+000  0.326433E+000  0.000000E+000
-0.928839E+000  0.317775E+000  0.000000E+000
-0.905118E+000  0.309116E+000  0.000000E+000
-0.881398E+000  0.300458E+000  0.000000E+000
-0.857677E+000  0.291799E+000  0.000000E+000
-0.833957E+000  0.283141E+000  0.000000E+000
-0.810236E+000  0.274482E+000  0.000000E+000
-0.786516E+000  0.265824E+000  0.000000E+000
-0.762795E+000  0.257165E+000  0.000000E+000
-0.739075E+000  0.248507E+000  0.000000E+000
-0.715354E+000  0.239848E+000  0.000000E+000
-0.691634E+000  0.231190E+000  0.000000E+000
-0.667913E+000  0.222531E+000  0.000000E+000
-0.644193E+000  0.213873E+000  0.000000E+000
-0.620472E+000  0.205214E+000  0.000000E+000
-0.596752E+000  0.196556E+000  0.000000E+000
-0.573031E+000  0.187897E+000  0.000000E+000
-0.549311E+000  0.179239E+000  0.000000E+000
-0.525590E+000  0.170580E+000  0.000000E+000
-0.501870E+000  0.161922E+000  0.000000E+000
-0.478149E+000  0.153263E+000  0.000000E+000
-0.454429E+000  0.144605E+000  0.000000E+000
-0.430708E+000  0.135946E+000  0.000000E+000
-0.406988E+000  0.127288E+000  0.000000E+000
-0.383267E+000  0.118629E+000  0.000000E+000
-0.359547E+000  0.109971E+000  0.000000E+000
-0.335826E+000  0.101312E+000  0.000000E+000
-0.312106E+000  0.926537E-001  0.000000E+000
-0.288385E+000  0.839952E-001  0.000000E+000
-0.264665E+000  0.753367E-001  0.000000E+000
-0.240944E+000  0.666782E-001  0.000000E+000
 0.375000E+000 -0.100000E+001  0.000000E+000
 0.365549E+000 -0.976226E+000  0.000000E+000
 0.356098E+000 -0.952452E+000  0.000000E+000
 0.346647E+000 -0.928678E+000  0.000000E+000
 0.337196E+000 -0.904904E+000  0.000000E+000
 0.327745E+000 -0.881130E+000  0.000000E+000
 0.318295E+000 -0.857357E+000  0.000000E+000
 0.308844E+000 -0.833583E+000  0.000000E+000
 0.299393E+000 -0.809809E+000  0.000000E+000
 0.289942E+000 -0.786035E+000  0.000000E+000
 0.280491E+000 -0.762261E+000  0.000000E+000
 0.271040E+000 -0.738487E+000  0.000000E+000
 0.261589E+000 -0.714713E+000  0.000000E+000
 0.252138E+000 -0.690939E+000  0.000000E+000
 0.242687E+000 -0.667165E+000  0.000000E+000
 0.233236E+000 -0.643391E+000  0.000000E+000
 0.223786E+000 -0.619618E+000  0.000000E+000
 0.214335E+000 -0.595844E+000  0.000000E+000
 0.204884E+000 -0.572070E+000  0.000000E+000
 0.195433E+000 -0.548296E+000  0.000000E+000
 0.185982E+000 -0.524522E+000  0.000000E+000
 0.176531E+000 -0.500748E+000  0.000000E+000
 0.167080E+000 -0.476974E+000  0.000000E+000
 0.157629E+000 -0.453200E+000  0.000000E+000
 0.148178E+000 -0.429426E+000  0.000000E+000
 0.138727E+000 -0.405652E+000  0.000000E+000
 0.129277E+000 -0.381879E+000  0.000000E+000
 0.119826E+000 -0.358105E+000  0.000000E+000
 0.110375E+000 -0.334331E+000  0.000000E+000
 0.100924E+000 -0.310557E+000  0.000000E+000
 0.914730E-001 -0.286783E+000  0.000000E+000
 0.820221E-001 -0.263009E+000  0.000000E+000
 0.725712E-001 -0.239235E+000  0.000000E+000
-0.100000E+001  0.375000E+000  0.000000E+000
-0.976226E+000  0.365549E+000  0.000000E+000
-0.952452E+000  0.356098E+000  0.000000E+000
-0.928678E+000  0.346647E+000  0.000000E+000
-0.904904E+000  0.337196E+000  0.000000E+000
-0.881130E+000  0.327745E+000  0.000000E+000
-0.857357E+000  0.318295E+000  0.000000E+000
-0.833583E+000  0.308844E+000  0.000000E+000
-0.809809E+000  0.299393E+000  0.000000E+000
-0.786035E+000  0.289942E+000  0.000000E+000
-0.762261E+000  0.280491E+000  0.000000E+000
-0.738487E+000  0.271040E+000  0.000000E+000
-0.714713E+000  0.261589E+000  0.000000E+000
-0.690939E+000  0.252138E+000  0.000000E+000
-0.667165E+000  0.242687E+000  0.000000E+000
-0.643391E+000  0.233236E+000  0.000000E+000
-0.619618E+000  0.223786E+000  0.000000E+000
-0.595844E+000  0.214335E+000  0.000000E+000
-0.572070E+000  0.204884E+000  0.000000E+000
-0.548296E+000  0.195433E+000  0.000000E+000
-0.524522E+000  0.185982E+000  0.000000E+000
-0.500748E+000  0.176531E+000  0.000000E+000
-0.476974E+000  0.167080E+000  0.000000E+000
-0.453200E+000  0.157629E+000  0.000000E+000
-0.429426E+000  0.148178E+000  0.000000E+000
-0.405652E+000  0.138727E+000  0.000000E+000
-0.381879E+000  0.129277E+000  0.000000E+000
-0.358105E+000  0.119826E+000  0.000000E+000
-0.334331E+000  0.110375E+000  0.000000E+000
-0.310557E+000  0.100924E+000  0.000000E+000
-0.286783E+000  0.914730E-001  0.000000E+000
-0.263009E+000  0.820221E-001  0.000000E+000
-0.239235E+000  0.725712E-001  0.000000E+000
 0.406250E+000 -0.100000E+001  0.000000E+000
 0.396005E+000 -0.976168E+000  0.000000E+000
 0.385761E+000 -0.952336E+000  0.000000E+000
 0.375516E+000 -0.928505E+000  0.000000E+000
 0.365271E+000 -0.904673E+000  0.000000E+000
 0.355027E+000 -0.880841E+000  0.000000E+000
 0.344782E+000 -0.857009E+000  0.000000E+000
 0.334537E+000 -0.833177E+000  0.000000E+000
 0.324293E+000 -0.809346E+000  0.000000E+000
 0.314048E+000 -0.785514E+000  0.000000E+000
 0.303803E+000 -0.761682E+000  0.000000E+000
 0.293559E+000 -0.737850E+000  0.000000E+000
 0.283314E+000 -0.714018E+000  0.000000E+000
 0.273069E+000 -0.690186E+000  0.000000E+000
 0.262825E+000 -0.666355E+000  0.000000E+000
 0.252580E+000 -0.642523E+000  0.000000E+000
 0.242335E+000 -0.618691E+000  0.000000E+000
 0.232091E+000 -0.594859E+000  0.000000E+000
 0.221846E+000 -0.571027E+000  0.000000E+000
 0.211601E+000 -0.547196E+000  0.000000E+000
 0.201357E+000 -0.523364E+000  0.000000E+000
 0.191112E+000 -0.499532E+000  0.000000E+000
 0.180867E+000 -0.475700E+000  0.000000E+000
 0.170623E+000 -0.451868E+000  0.000000E+000
 0.160378E+000 -0.428037E+000  0.000000E+000
 0.150133E+000 -0.404205E+000  0.000000E+000
 0.139888E+000 -0.380373E+000  0.000000E+000
 0.129644E+000 -0.356541E+000  0.000000E+000
 0.119399E+000 -0.332709E+000  0.000000E+000
 0.109154E+000 -0.308877E+000  0.000000E+000
 0.989098E-001 -0.285046E+000  0.000000E+000
 0.886651E-001 -0.261214E+000  0.000000E+000
 0.784204E-001 -0.237382E+000  0.000000E+000
-0.100000E+001  0.406250E+000  0.000000E+000
-0.976168E+000  0.396005E+000  0.000000E+000
-0.952336E+000  0.385761E+000  0.000000E+000
-0.928505E+000  0.375516E+000  0.000000E+000
-0.904673E+000  0.365271E+000  0.000000E+000
-0.880841E+000  0.355027E+000  0.000000E+000
-0.857009E+000  0.344782E+000  0.000000E+000
-0.833177E+000  0.334537E+000  0.000000E+000
-0.809346E+000  0.324293E+000  0.000000E+000
-0.785514E+000  0.314048E+000  0.000000E+000
-0.761682E+000  0.303803E+000  0.000000E+000
-0.737850E+000  0.293559E+000  0.000000E+000
-0.714018E+000  0.283314E+000  0.000000E+000
-0.690186E+000  0.273069E+000  0.000000E+000
-0.666355E+000  0.262825E+000  0.000000E+000
-0.642523E+000  0.252580E+000  0.000000E+000
-0.618691E+000  0.242335E+000  0.000000E+000
-0.594859E+000  0.232091E+000  0.000000E+000
-0.571027E+000  0.221846E+000  0.000000E+000
-0.547196E+000  0.211601E+000  0.000000E+000
-0.523364E+000  0.201357E+000  0.000000E+000
-0.499532E+000  0.191112E+000  0.000000E+000
-0.475700E+000  0.180867E+000  0.000000E+000
-0.451868E+000  0.170623E+000  0.000000E+000
-0.428037E+000  0.160378E+000  0.000000E+000
-0.404205E+000  0.150133E+000  0.000000E+000
-0.380373E+000  0.139888E+000  0.000000E+000
-0.356541E+000  0.129644E+000  0.000000E+000
-0.332709E+000  0.119399E+000  0.000000E+000
-0.308877E+000  0.109154E+000  0.000000E+000
-0.285046E+000  0.989098E-001  0.000000E+000
-0.261214E+000  0.886651E-001  0.000000E+000
-0.237382E+000  0.784204E-001  0.000000E+000
 0.437500E+000 -0.100000E+001  0.000000E+000
 0.426460E+000 -0.976106E+000  0.000000E+000
 0.415420E+000 -0.952212E+000  0.000000E+000
 0.404380E+000 -0.928317E+000  0.000000E+000
 0.393340E+000 -0.904423E+000  0.000000E+000
 0.382300E+000 -0.880529E+000  0.000000E+000
 0.371260E+000 -0.856635E+000  0.000000E+000
 0.360221E+000 -0.832741E+000  0.000000E+000
 0.349181E+000 -0.808847E+000  0.000000E+000
 0.338141E+000 -0.784952E+000  0.000000E+000
 0.327101E+000 -0.761058E+000  0.000000E+000
 0.316061E+000 -0.737164E+000  0.000000E+000
 0.305021E+000 -0.713270E+000  0.000000E+000
 0.293981E+000 -0.689376E+000  0.000000E+000
 0.282941E+000 -0.665481E+000  0.000000E+000
 0.271901E+000 -0.641587E+000  0.000000E+000
 0.260861E+000 -0.617693E+000  0.000000E+000
 0.249821E+000 -0.593799E+000  0.000000E+000
 0.238781E+000 -0.569905E+000  0.000000E+000
 0.227741E+000 -0.546010E+000  0.000000E+000
 0.216702E+000 -0.522116E+000  0.000000E+000
 0.205662E+000 -0.498222E+000  0.000000E+000
 0.194622E+000 -0.474328E+000  0.000000E+000
 0.183582E+000 -0.450434E+000  0.000000E+000
 0.172542E+000 -0.426540E+000  0.000000E+000
 0.161502E+000 -0.402645E+000  0.000000E+000
 0.150462E+000 -0.378751E+000  0.000000E+000
 0.139422E+000 -0.354857E+000  0.000000E+000
 0.128382E+000 -0.330963E+000  0.000000E+000
 0.117342E+000 -0.307069E+000  0.000000E+000
 0.106302E+000 -0.283174E+000  0.000000E+000
 0.952624E-001 -0.259280E+000  0.000000E+000
 0.842225E-001 -0.235386E+000  0.000000E+000
-0.100000E+001  0.437500E+000  0.000000E+000
-0.976106E+000  0.426460E+000  0.000000E+000
-0.952212E+000  0.415420E+000  0.000000E+000
-0.928317E+000  0.404380E+000  0.000000E+000
-0.904423E+000  0.393340E+000  0.000000E+000
-0.880529E+000  0.382300E+000  0.000000E+000
-0.856635E+000  0.371260E+000  0.000000E+000
-0.832741E+000  0.360221E+000  0.000000E+000
-0.808847E+000  0.349181E+000  0.000000E+000
-0.784952E+000  0.338141E+000  0.000000E+000
-0.761058E+000  0.327101E+000  0.000000E+000
-0.737164E+000  0.316061E+000  0.000000E+000
-0.713270E+000  0.305021E+000  0.000000E+000
-0.689376E+000  0.293981E+000  0.000000E+000
-0.665481E+000  0.282941E+000  0.000000E+000
-0.641587E+000  0.271901E+000  0.000000E+000
-0.617693E+000  0.260861E+000  0.000000E+000
-0.593799E+000  0.249821E+000  0.000000E+000
-0.569905E+000  0.238781E+000  0.000000E+000
-0.546010E+000  0.227741E+000  0.000000E+000
-0.522116E+000  0.216702E+000  0.000000E+000
-0.498222E+000  0.205662E+000  0.000000E+000
-0.474328E+000  0.194622E+000  0.000000E+000
-0.450434E+000  0.183582E+000  0.000000E+000
-0.426540E+000  0.172542E+000  0.000000E+000
-0.402645E+000  0.161502E+000  0.000000E+000
-0.378751E+000  0.150462E+000  0.000000E+000
-0.354857E+000  0.139422E+000  0.000000E+000
-0.330963E+000  0.128382E+000  0.000000E+000
-0.307069E+000  0.117342E+000  0.000000E+000
-0.283174E+000  0.106302E+000  0.000000E+000
-0.259280E+000  0.952624E-001  0.000000E+000
-0.235386E+000  0.842225E-001  0.000000E+000
 0.468750E+000 -0.100000E+001  0.000000E+000
 0.456913E+000 -0.976039E+000  0.000000E+000
 0.445076E+000 -0.952078E+000  0.000000E+000
 0.433240E+000 -0.928117E+000  0.000000E+000
 0.421403E+000 -0.904156E+000  0.000000E+000
 0.409566E+000 -0.880195E+000  0.000000E+000
 0.397729E+000 -0.856234E+000  0.000000E+000
 0.385893E+000 -0.832273E+000  0.000000E+000
 0.374056E+000 -0.808312E+000  0.000000E+000
 0.362219E+000 -0.784351E+000  0.000000E+000
 0.350382E+000 -0.760390E+000  0.000000E+000
 0.338546E+000 -0.736429E+000  0.000000E+000
 0.326709E+000 -0.712468E+000  0.000000E+000
 0.314872E+000 -0.688507E+000  0.000000E+000
 0.303035E+000 -0.664546E+000  0.000000E+000
 0.291199E+000 -0.640585E+000  0.000000E+000
 0.279362E+000 -0.616624E+000  0.000000E+000
 0.267525E+000 -0.592663E+000  0.000000E+000
 0.255688E+000 -0.568702E+000  0.000000E+000
 0.243852E+000 -0.544741E+000  0.000000E+000
 0.232015E+000 -0.520780E+000  0.000000E+000
 0.220178E+000 -0.496819E+000  0.000000E+000
 0.208341E+000 -0.472858E+000  0.000000E+000
 0.196505E+000 -0.448897E+000  0.000000E+000
 0.184668E+000 -0.424936E+000  0.000000E+000
 0.172831E+000 -0.400975E+000  0.000000E+000
 0.160994E+000 -0.377014E+000  0.000000E+000
 0.149158E+000 -0.353053E+000  0.000000E+000
 0.137321E+000 -0.329092E+000  0.000000E+000
 0.125484E+000 -0.305131E+000  0.000000E+000
 0.113647E+000 -0.281170E+000  0.000000E+000
 0.101811E+000 -0.257209E+000  0.000000E+000
 0.899738E-001 -0.233248E+000  0.000000E+000
-0.100000E+001  0.468750E+000  0.000000E+000
-0.976039E+000  0.456913E+000  0.000000E+000
-0.952078E+000  0.445076E+000  0.000000E+000
-0.928117E+000  0.433240E+000  0.000000E+000
-0.904156E+000  0.421403E+000  0.000000E+000
-0.880195E+000  0.409566E+000  0.000000E+000
-0.856234E+000  0.397729E+000  0.000000E+000
-0.832273E+000  0.385893E+000  0.000000E+000
-0.808312E+000  0.374056E+000  0.000000E+000
-0.784351E+000  0.362219E+000  0.000000E+000
-0.760390E+000  0.350382E+000  0.000000E+000
-0.736429E+000  0.338546E+000  0.000000E+000
-0.712468E+000  0.326709E+000  0.000000E+000
-0.688507E+000  0.314872E+000  0.000000E+000
-0.664546E+000  0.303035E+000  0.000000E+000
-0.640585E+000  0.291199E+000  0.000000E+000
-0.616624E+000  0.279362E+000  0.000000E+000
-0.592663E+000  0.267525E+000  0.000000E+000
-0.568702E+000  0.255688E+000  0.000000E+000
-0.544741E+000  0.243852E+000  0.000000E+000
-0.520780E+000  0.232015E+000  0.000000E+000
-0.496819E+000  0.220178E+000  0.000000E+000
-0.472858E+000  0.208341E+000  0.000000E+000
-0.448897E+000  0.196505E+000  0.000000E+000
-0.424936E+000  0.184668E+000  0.000000E+000
-0.400975E+000  0.172831E+000  0.000000E+000
-0.377014E+000  0.160994E+000  0.000000E+000
-0.353053E+000  0.149158E+000  0.000000E+000
-0.329092E+000  0.137321E+000  0.000000E+000
-0.305131E+000  0.125484E+000  0.000000E+000
-0.281170E+000  0.113647E+000  0.000000E+000
-0.257209E+000  0.101811E+000  0.000000E+000
-0.233248E+000  0.899738E-001  0.000000E+000
 0.500000E+000 -0.100000E+001  0.000000E+000
 0.487365E+000 -0.975968E+000  0.000000E+000
 0.474729E+000 -0.951936E+000  0.000000E+000
 0.462094E+000 -0.927903E+000  0.000000E+000
 0.449459E+000 -0.903871E+000  0.000000E+000
 0.436824E+000 -0.879839E+000  0.000000E+000
 0.424188E+000 -0.855807E+000  0.000000E+000
 0.411553E+000 -0.831775E+000  0.000000E+000
 0.398918E+000 -0.807742E+000  0.000000E+000
 0.386282E+000 -0.783710E+000  0.000000E+000
 0.373647E+000 -0.759678E+000  0.000000E+000
 0.361012E+000 -0.735646E+000  0.000000E+000
 0.348377E+000 -0.711614E+000  0.000000E+000
 0.335741E+000 -0.687582E+000  0.000000E+000
 0.323106E+000 -0.663549E+000  0.000000E+000
 0.310471E+000 -0.639517E+000  0.000000E+000
 0.297835E+000 -0.615485E+000  0.000000E+000
 0.285200E+000 -0.591453E+000  0.000000E+000
 0.272565E+000 -0.567421E+000  0.000000E+000
 0.259930E+000 -0.543388E+000  0.000000E+000
 0.247294E+000 -0.519356E+000  0.000000E+000
 0.234659E+000 -0.495324E+000  0.000000E+000
 0.222024E+000 -0.471292E+000  0.000000E+000
 0.209388E+000 -0.447260E+000  0.000000E+000
 0.196753E+000 -0.423227E+000  0.000000E+000
 0.184118E+000 -0.399195E+000  0.000000E+000
 0.171483E+000 -0.375163E+000  0.000000E+000
 0.158847E+000 -0.351131E+000  0.000000E+000
 0.146212E+000 -0.327099E+000  0.000000E+000
 0.133577E+000 -0.303066E+000  0.000000E+000
 0.120941E+000 -0.279034E+000  0.000000E+000
 0.108306E+000 -0.255002E+000  0.000000E+000
 0.956709E-001 -0.230970E+000  0.000000E+000
-0.100000E+001  0.500000E+000  0.000000E+000
-0.975968E+000  0.487365E+000  0.000000E+000
-0.951936E+000  0.474729E+000  0.000000E+000
-0.927903E+000  0.462094E+000  0.000000E+000
-0.903871E+000  0.449459E+000  0.000000E+000
-0.879839E+000  0.436824E+000  0.000000E+000
-0.855807E+000  0.424188E+000  0.000000E+000
-0.831775E+000  0.411553E+000  0.000000E+000
-0.807742E+000  0.398918E+000  0.000000E+000
-0.783710E+000  0.386282E+000  0.000000E+000
-0.759678E+000  0.373647E+000  0.000000E+000
-0.735646E+000  0.361012E+000  0.000000E+000
-0.711614E+000  0.348377E+000  0.000000E+000
-0.687582E+000  0.335741E+000  0.000000E+000
-0.663549E+000  0.323106E+000  0.000000E+000
-0.639517E+000  0.310471E+000  0.000000E+000
-0.615485E+000  0.297835E+000  0.000000E+000
-0.591453E+000  0.285200E+000  0.000000E+000
-0.567421E+000  0.272565E+000  0.000000E+000
-0.543388E+000  0.259930E+000  0.000000E+000
-0.519356E+000  0.247294E+000  0.000000E+000
-0.495324E+000  0.234659E+000  0.000000E+000
-0.471292E+000  0.222024E+000  0.000000E+000
-0.447260E+000  0.209388E+000  0.000000E+000
-0.423227E+000  0.196753E+000  0.000000E+000
-0.399195E+000  0.184118E+000  0.000000E+000
-0.375163E+000  0.171483E+000  0.000000E+000
-0.351131E+000  0.158847E+000  0.000000E+000
-0.327099E+000  0.146212E+000  0.000000E+000
-0.303066E+000  0.133577E+000  0.000000E+000
-0.279034E+000  0.120941E+000  0.000000E+000
-0.255002E+000  0.108306E+000  0.000000E+000
-0.230970E+000  0.956709E-001  0.000000E+000
 0.531250E+000 -0.100000E+001  0.000000E+000
 0.517814E+000 -0.975892E+000  0.000000E+000
 0.504379E+000 -0.951785E+000  0.000000E+000
 0.490943E+000 -0.927677E+000  0.000000E+000
 0.477508E+000 -0.903569E+000  0.000000E+000
 0.464072E+000 -0.879461E+000  0.000000E+000
 0.450636E+000 -0.855354E+000  0.000000E+000
 0.437201E+000 -0.831246E+000  0.000000E+000
 0.423765E+000 -0.807138E+000  0.000000E+000
 0.410329E+000 -0.783030E+000  0.000000E+000
 0.396894E+000 -0.758923E+000  0.000000E+000
 0.383458E+000 -0.734815E+000  0.000000E+000
 0.370023E+000 -0.710707E+000  0.000000E+000
 0.356587E+000 -0.686599E+000  0.000000E+000
 0.343151E+000 -0.662492E+000  0.000000E+000
 0.329716E+000 -0.638384E+000  0.000000E+000
 0.316280E+000 -0.614276E+000  0.000000E+000
 0.302845E+000 -0.590168E+000  0.000000E+000
 0.289409E+000 -0.566061E+000  0.000000E+000
 0.275973E+000 -0.541953E+000  0.000000E+000
 0.262538E+000 -0.517845E+000  0.000000E+000
 0.249102E+000 -0.493738E+000  0.000000E+000
 0.235666E+000 -0.469630E+000  0.000000E+000
 0.222231E+000 -0.445522E+000  0.000000E+000
 0.208795E+000 -0.421414E+000  0.000000E+000
 0.195360E+000 -0.397307E+000  0.000000E+000
 0.181924E+000 -0.373199E+000  0.000000E+000
 0.168488E+000 -0.349091E+000  0.000000E+000
 0.155053E+000 -0.324983E+000  0.000000E+000
 0.141617E+000 -0.300876E+000  0.000000E+000
 0.128182E+000 -0.276768E+000  0.000000E+000
 0.114746E+000 -0.252660E+000  0.000000E+000
 0.101310E+000 -0.228552E+000  0.000000E+000
-0.100000E+001  0.531250E+000  0.000000E+000
-0.975892E+000  0.517814E+000  0.000000E+000
-0.951785E+000  0.504379E+000  0.000000E+000
-0.927677E+000  0.490943E+000  0.000000E+000
-0.903569E+000  0.477508E+000  0.000000E+000
-0.879461E+000  0.464072E+000  0.000000E+000
-0.855354E+000  0.450636E+000  0.000000E+000
-0.831246E+000  0.437201E+000  0.000000E+000
-0.807138E+000  0.423765E+000  0.000000E+000
-0.783030E+000  0.410329E+000  0.000000E+000
-0.758923E+000  0.396894E+000  0.000000E+000
-0.734815E+000  0.383458E+000  0.000000E+000
-0.710707E+000  0.370023E+000  0.000000E+000
-0.686599E+000  0.356587E+000  0.000000E+000
-0.662492E+000  0.343151E+000  0.000000E+000
-0.638384E+000  0.329716E+000  0.000000E+000
-0.614276E+000  0.316280E+000  0.000000E+000
-0.590168E+000  0.302845E+000  0.000000E+000
-0.566061E+000  0.289409E+000  0.000000E+000
-0.541953E+000  0.275973E+000  0.000000E+000
-0.517845E+000  0.262538E+000  0.000000E+000
-0.493738E+000  0.249102E+000  0.000000E+000
-0.469630E+000  0.235666E+000  0.000000E+000
-0.445522E+000  0.222231E+000  0.000000E+000
-0.421414E+000  0.208795E+000  0.000000E+000
-0.397307E+000  0.195360E+000  0.000000E+000
-0.373199E+000  0.181924E+000  0.000000E+000
-0.349091E+000  0.168488E+000  0.000000E+000
-0.324983E+000  0.155053E+000  0.000000E+000
-0.300876E+000  0.141617E+000  0.000000E+000
-0.276768E+000  0.128182E+000  0.000000E+000
-0.252660E+000  0.114746E+000  0.000000E+000
-0.228552E+000  0.101310E+000  0.000000E+000
 0.562500E+000 -0.100000E+001  0.000000E+000
 0.548262E+000 -0.975812E+000  0.000000E+000
 0.534024E+000 -0.951625E+000  0.000000E+000
 0.519786E+000 -0.927437E+000  0.000000E+000
 0.505549E+000 -0.903250E+000  0.000000E+000
 0.491311E+000 -0.879062E+000  0.000000E+000
 0.477073E+000 -0.854874E+000  0.000000E+000
 0.462835E+000 -0.830687E+000  0.000000E+000
 0.448597E+000 -0.806499E+000  0.000000E+000
 0.434359E+000 -0.782312E+000  0.000000E+000
 0.420121E+000 -0.758124E+000  0.000000E+000
 0.405884E+000 -0.733937E+000  0.000000E+000
 0.391646E+000 -0.709749E+000  0.000000E+000
 0.377408E+000 -0.685561E+000  0.000000E+000
 0.363170E+000 -0.661374E+000  0.000000E+000
 0.348932E+000 -0.637186E+000  0.000000E+000
 0.334694E+000 -0.612999E+000  0.000000E+000
 0.320457E+000 -0.588811E+000  0.000000E+000
 0.306219E+000 -0.564623E+000  0.000000E+000
 0.291981E+000 -0.540436E+000  0.000000E+000
 0.277743E+000 -0.516248E+000  0.000000E+000
 0.263505E+000 -0.492061E+000  0.000000E+000
 0.249267E+000 -0.467873E+000  0.000000E+000
 0.235029E+000 -0.443686E+000  0.000000E+000
 0.220792E+000 -0.419498E+000  0.000000E+000
 0.206554E+000 -0.395310E+000  0.000000E+000
 0.192316E+000 -0.371123E+000  0.000000E+000
 0.178078E+000 -0.346935E+000  0.000000E+000
 0.163840E+000 -0.322748E+000  0.000000E+000
 0.149602E+000 -0.298560E+000  0.000000E+000
 0.135364E+000 -0.274372E+000  0.000000E+000
 0.121127E+000 -0.250185E+000  0.000000E+000
 0.106889E+000 -0.225997E+000  0.000000E+000
-0.100000E+001  0.562500E+000  0.000000E+000
-0.975812E+000  0.548262E+000  0.000000E+000
-0.951625E+000  0.534024E+000  0.000000E+000
-0.927437E+000  0.519786E+000  0.000000E+000
-0.903250E+000  0.505549E+000  0.000000E+000
-0.879062E+000  0.491311E+000  0.000000E+000
-0.854874E+000  0.477073E+000  0.000000E+000
-0.830687E+000  0.462835E+000  0.000000E+000
-0.806499E+000  0.448597E+000  0.000000E+000
-0.782312E+000  0.434359E+000  0.000000E+000
-0.758124E+000  0.420121E+000  0.000000E+000
-0.733937E+000  0.405884E+000  0.000000E+000
-0.709749E+000  0.391646E+000  0.000000E+000
-0.685561E+000  0.377408E+000  0.000000E+000
-0.661374E+000  0.363170E+000  0.000000E+000
-0.637186E+000  0.348932E+000  0.000000E+000
-0.612999E+000  0.334694E+000  0.000000E+000
-0.588811E+000  0.320457E+000  0.000000E+000
-0.564623E+000  0.306219E+000  0.000000E+000
-0.540436E+000  0.291981E+000  0.000000E+000
-0.516248E+000  0.277743E+000  0.000000E+000
-0.492061E+000  0.263505E+000  0.000000E+000
-0.467873E+000  0.249267E+000  0.000000E+000
-0.443686E+000  0.235029E+000  0.000000E+000
-0.419498E+000  0.220792E+000  0.000000E+000
-0.395310E+000  0.206554E+000  0.000000E+000
-0.371123E+000  0.192316E+000  0.000000E+000
-0.346935E+000  0.178078E+000  0.000000E+000
-0.322748E+000  0.163840E+000  0.000000E+000
-0.298560E+000  0.149602E+000  0.000000E+000
-0.274372E+000  0.135364E+000  0.000000E+000
-0.250185E+000  0.121127E+000  0.000000E+000
-0.225997E+000  0.106889E+000  0.000000E+000
 0.593750E+000 -0.100000E+001  0.000000E+000
 0.578708E+000 -0.975728E+000  0.000000E+000
 0.563666E+000 -0.951457E+000  0.000000E+000
 0.548624E+000 -0.927185E+000  0.000000E+000
 0.533582E+000 -0.902913E+000  0.000000E+000
 0.518540E+000 -0.878642E+000  0.000000E+000
 0.503497E+000 -0.854370E+000  0.000000E+000
 0.488455E+000 -0.830098E+000  0.000000E+000
 0.473413E+000 -0.805827E+000  0.000000E+000
 0.458371E+000 -0.781555E+000  0.000000E+000
 0.443329E+000 -0.757283E+000  0.000000E+000
 0.428287E+000 -0.733011E+000  0.000000E+000
 0.413245E+000 -0.708740E+000  0.000000E+000
 0.398203E+000 -0.684468E+000  0.000000E+000
 0.383161E+000 -0.660196E+000  0.000000E+000
 0.368119E+000 -0.635925E+000  0.000000E+000
 0.353076E+000 -0.611653E+000  0.000000E+000
 0.338034E+000 -0.587381E+000  0.000000E+000
 0.322992E+000 -0.563110E+000  0.000000E+000
 0.307950E+000 -0.538838E+000  0.000000E+000
 0.292908E+000 -0.514566E+000  0.000000E+000
 0.277866E+000 -0.490295E+000  0.000000E+000
 0.262824E+000 -0.466023E+000  0.000000E+000
 0.247782E+000 -0.441751E+000  0.000000E+000
 0.232740E+000 -0.417480E+000  0.000000E+000
 0.217698E+000 -0.393208E+000  0.000000E+000
 0.202655E+000 -0.368936E+000  0.000000E+000
 0.187613E+000 -0.344665E+000  0.000000E+000
 0.172571E+000 -0.320393E+000  0.000000E+000
 0.157529E+000 -0.296121E+000  0.000000E+000
 0.142487E+000 -0.271849E+000  0.000000E+000
 0.127445E+000 -0.247578E+000  0.000000E+000
 0.112403E+000 -0.223306E+000  0.000000E+000
-0.100000E+001  0.593750E+000  0.000000E+000
-0.975728E+000  0.578708E+000  0.000000E+000
-0.951457E+000  0.563666E+000  0.000000E+000
-0.927185E+000  0.548624E+000  0.000000E+000
-0.902913E+000  0.533582E+000  0.000000E+000
-0.878642E+000  0.518540E+000  0.000000E+000
-0.854370E+000  0.503497E+000  0.000000E+000
-0.830098E+000  0.488455E+000  0.000000E+000
-0.805827E+000  0.473413E+000  0.000000E+000
-0.781555E+000  0.458371E+000  0.000000E+000
-0.757283E+000  0.443329E+000  0.000000E+000
-0.733011E+000  0.428287E+000  0.000000E+000
-0.708740E+000  0.413245E+000  0.000000E+000
-0.684468E+000  0.398203E+000  0.000000E+000
-0.660196E+000  0.383161E+000  0.000000E+000
-0.635925E+000  0.368119E+000  0.000000E+000
-0.611653E+000  0.353076E+000  0.000000E+000
-0.587381E+000  0.338034E+000  0.000000E+000
-0.563110E+000  0.322992E+000  0.000000E+000
-0.538838E+000  0.307950E+000  0.000000E+000
-0.514566E+000  0.292908E+000  0.000000E+000
-0.490295E+000  0.277866E+000  0.000000E+000
-0.466023E+000  0.262824E+000  0.000000E+000
-0.441751E+000  0.247782E+000  0.000000E+000
-0.417480E+000  0.232740E+000  0.000000E+000
-0.393208E+000  0.217698E+000  0.000000E+000
-0.368936E+000  0.202655E+000  0.000000E+000
-0.344665E+000  0.187613E+000  0.000000E+000
-0.320393E+000  0.172571E+000  0.000000E+000
-0.296121E+000  0.157529E+000  0.000000E+000
-0.271849E+000  0.142487E+000  0.000000E+000
-0.247578E+000  0.127445E+000  0.000000E+000
-0.223306E+000  0.112403E+000  0.000000E+000
 0.625000E+000 -0.100000E+001  0.000000E+000
 0.609152E+000 -0.975640E+000  0.000000E+000
 0.593303E+000 -0.951280E+000  0.000000E+000
 0.577455E+000 -0.926920E+000  0.000000E+000
 0.561606E+000 -0.902560E+000  0.000000E+000
 0.545758E+000 -0.878200E+000  0.000000E+000
 0.529909E+000 -0.853840E+000  0.000000E+000
 0.514061E+000 -0.829480E+000  0.000000E+000
 0.498212E+000 -0.805120E+000  0.000000E+000
 0.482364E+000 -0.780760E+000  0.000000E+000
 0.466515E+000 -0.756400E+000  0.000000E+000
 0.450667E+000 -0.732040E+000  0.000000E+000
 0.434818E+000 -0.707680E+000  0.000000E+000
 0.418970E+000 -0.683320E+000  0.000000E+000
 0.403122E+000 -0.658960E+000  0.000000E+000
 0.387273E+000 -0.634600E+000  0.000000E+000
 0.371425E+000 -0.610240E+000  0.000000E+000
 0.355576E+000 -0.585880E+000  0.000000E+000
 0.339728E+000 -0.561520E+000  0.000000E+000
 0.323879E+000 -0.537160E+000  0.000000E+000
 0.308031E+000 -0.512800E+000  0.000000E+000
 0.292182E+000 -0.488440E+000  0.000000E+000
 0.276334E+000 -0.464080E+000  0.000000E+000
 0.260485E+000 -0.439720E+000  0.000000E+000
 0.244637E+000 -0.415360E+000  0.000000E+000
 0.228788E+000 -0.391000E+000  0.000000E+000
 0.212940E+000 -0.366640E+000  0.000000E+000
 0.197091E+000 -0.342280E+000  0.000000E+000
 0.181243E+000 -0.317920E+000  0.000000E+000
 0.165395E+000 -0.293560E+000  0.000000E+000
 0.149546E+000 -0.269200E+000  0.000000E+000
 0.133698E+000 -0.244840E+000  0.000000E+000
 0.117849E+000 -0.220480E+000  0.000000E+000
-0.100000E+001  0.625000E+000  0.000000E+000
-0.975640E+000  0.609152E+000  0.000000E+000
-0.951280E+000  0.593303E+000  0.000000E+000
-0.926920E+000  0.577455E+000  0.000000E+000
-0.902560E+000  0.561606E+000  0.000000E+000
-0.878200E+000  0.545758E+000  0.000000E+000
-0.853840E+000  0.529909E+000  0.000000E+000
-0.829480E+000  0.514061E+000  0.000000E+000
-0.805120E+000  0.498212E+000  0.000000E+000
-0.780760E+000  0.482364E+000  0.000000E+000
-0.756400E+000  0.466515E+000  0.000000E+000
-0.732040E+000  0.450667E+000  0.000000E+000
-0.707680E+000  0.434818E+000  0.000000E+000
-0.683320E+000  0.418970E+000  0.000000E+000
-0.658960E+000  0.403122E+000  0.000000E+000
-0.634600E+000  0.387273E+000  0.000000E+000
-0.610240E+000  0.371425E+000  0.000000E+000
-0.585880E+000  0.355576E+000  0.000000E+000
-0.561520E+000  0.339728E+000  0.000000E+000
-0.537160E+000  0.323879E+000  0.000000E+000
-0.512800E+000  0.308031E+000  0.000000E+000
-0.488440E+000  0.292182E+000  0.000000E+000
-0.464080E+000  0.276334E+000  0.000000E+000
-0.439720E+000  0.260485E+000  0.000000E+000
-0.415360E+000  0.244637E+000  0.000000E+000
-0.391000E+000  0.228788E+000  0.000000E+000
-0.366640E+000  0.212940E+000  0.000000E+000
-0.342280E+000  0.197091E+000  0.000000E+000
-0.317920E+000  0.181243E+000  0.000000E+000
-0.293560E+000  0.165395E+000  0.000000E+000
-0.269200E+000  0.149546E+000  0.000000E+000
-0.244840E+000  0.133698E+000  0.000000E+000
-0.220480E+000  0.117849E+000  0.000000E+000
 0.656250E+000 -0.100000E+001  0.000000E+000
 0.639593E+000 -0.975548E+000  0.000000E+000
 0.622936E+000 -0.951095E+000  0.000000E+000
 0.606279E+000 -0.926643E+000  0.000000E+000
 0.589622E+000 -0.902190E+000  0.000000E+000
 0.572965E+000 -0.877738E+000  0.000000E+000
 0.556308E+000 -0.853285E+000  0.000000E+000
 0.539651E+000 -0.828833E+000  0.000000E+000
 0.522994E+000 -0.804380E+000  0.000000E+000
 0.506337E+000 -0.779928E+000  0.000000E+000
 0.489680E+000 -0.755476E+000  0.000000E+000
 0.473023E+000 -0.731023E+000  0.000000E+000
 0.456365E+000 -0.706571E+000  0.000000E+000
 0.439708E+000 -0.682118E+000  0.000000E+000
 0.423051E+000 -0.657666E+000  0.000000E+000
 0.406394E+000 -0.633213E+000  0.000000E+000
 0.389737E+000 -0.608761E+000  0.000000E+000
 0.373080E+000 -0.584308E+000  0.000000E+000
 0.356423E+000 -0.559856E+000  0.000000E+000
 0.339766E+000 -0.535404E+000  0.000000E+000
 0.323109E+000 -0.510951E+000  0.000000E+000
 0.306452E+000 -0.486499E+000  0.000000E+000
 0.289795E+000 -0.462046E+000  0.000000E+000
 0.273138E+000 -0.437594E+000  0.000000E+000
 0.256481E+000 -0.413141E+000  0.000000E+000
 0.239824E+000 -0.388689E+000  0.000000E+000
 0.223167E+000 -0.364236E+000  0.000000E+000
 0.206510E+000 -0.339784E+000  0.000000E+000
 0.189853E+000 -0.315332E+000  0.000000E+000
 0.173196E+000 -0.290879E+000  0.000000E+000
 0.156539E+000 -0.266427E+000  0.000000E+000
 0.139882E+000 -0.241974E+000  0.000000E+000
 0.123225E+000 -0.217522E+000  0.000000E+000
-0.100000E+001  0.656250E+000  0.000000E+000
-0.975548E+000  0.639593E+000  0.000000E+000
-0.951095E+000  0.622936E+000  0.000000E+000
-0.926643E+000  0.606279E+000  0.000000E+000
-0.902190E+000  0.589622E+000  0.000000E+000
-0.877738E+000  0.572965E+000  0.000000E+000
-0.853285E+000  0.556308E+000  0.000000E+000
-0.828833E+000  0.539651E+000  0.000000E+000
-0.804380E+000  0.522994E+000  0.000000E+000
-0.779928E+000  0.506337E+000  0.000000E+000
-0.755476E+000  0.489680E+000  0.000000E+000
-0.731023E+000  0.473023E+000  0.000000E+000
-0.706571E+000  0.456365E+000  0.000000E+000
-0.682118E+000  0.439708E+000  0.000000E+000
-0.657666E+000  0.423051E+000  0.000000E+000
-0.633213E+000  0.406394E+000  0.000000E+000
-0.608761E+000  0.389737E+000  0.000000E+000
-0.584308E+000  0.373080E+000  0.000000E+000
-0.559856E+000  0.356423E+000  0.000000E+000
-0.535404E+000  0.339766E+000  0.000000E+000
-0.510951E+000  0.323109E+000  0.000000E+000
-0.486499E+000  0.306452E+000  0.000000E+000
-0.462046E+000  0.289795E+000  0.000000E+000
-0.437594E+000  0.273138E+000  0.000000E+000
-0.413141E+000  0.256481E+000  0.000000E+000
-0.388689E+000  0.239824E+000  0.000000E+000
-0.364236E+000  0.223167E+000  0.000000E+000
-0.339784E+000  0.206510E+000  0.000000E+000
-0.315332E+000  0.189853E+000  0.000000E+000
-0.290879E+000  0.173196E+000  0.000000E+000
-0.266427E+000  0.156539E+000  0.000000E+000
-0.241974E+000  0.139882E+000  0.000000E+000
-0.217522E+000  0.123225E+000  0.000000E+000
 0.687500E+000 -0.100000E+001  0.000000E+000
 0.670032E+000 -0.975451E+000  0.000000E+000
 0.652564E+000 -0.950902E+000  0.000000E+000
 0.635096E+000 -0.926353E+000  0.000000E+000
 0.617628E+000 -0.901804E+000  0.000000E+000
 0.600160E+000 -0.877255E+000  0.000000E+000
 0.582692E+000 -0.852706E+000  0.000000E+000
 0.565224E+000 -0.828157E+000  0.000000E+000
 0.547756E+000 -0.803608E+000  0.000000E+000
 0.530288E+000 -0.779059E+000  0.000000E+000
 0.512821E+000 -0.754510E+000  0.000000E+000
 0.495353E+000 -0.729961E+000  0.000000E+000
 0.477885E+000 -0.705412E+000  0.000000E+000
 0.460417E+000 -0.680863E+000  0.000000E+000
 0.442949E+000 -0.656314E+000  0.000000E+000
 0.425481E+000 -0.631765E+000  0.000000E+000
 0.408013E+000 -0.607216E+000  0.000000E+000
 0.390545E+000 -0.582667E+000  0.000000E+000
 0.373077E+000 -0.558118E+000  0.000000E+000
 0.355609E+000 -0.533569E+000  0.000000E+000
 0.338141E+000 -0.509020E+000  0.000000E+000
 0.320673E+000 -0.484471E+000  0.000000E+000
 0.303205E+000 -0.459922E+000  0.000000E+000
 0.285737E+000 -0.435373E+000  0.000000E+000
 0.268269E+000 -0.410824E+000  0.000000E+000
 0.250801E+000 -0.386275E+000  0.000000E+000
 0.233333E+000 -0.361726E+000  0.000000E+000
 0.215865E+000 -0.337177E+000  0.000000E+000
 0.198397E+000 -0.312628E+000  0.000000E+000
 0.180930E+000 -0.288079E+000  0.000000E+000
 0.163462E+000 -0.263530E+000  0.000000E+000
 0.145994E+000 -0.238981E+000  0.000000E+000
 0.128526E+000 -0.214432E+000  0.000000E+000
-0.100000E+001  0.687500E+000  0.000000E+000
-0.975451E+000  0.670032E+000  0.000000E+000
-0.950902E+000  0.652564E+000  0.000000E+000
-0.926353E+000  0.635096E+000  0.000000E+000
-0.901804E+000  0.617628E+000  0.000000E+000
-0.877255E+000  0.600160E+000  0.000000E+000
-0.852706E+000  0.582692E+000  0.000000E+000
-0.828157E+000  0.565224E+000  0.000000E+000
-0.803608E+000  0.547756E+000  0.000000E+000
-0.779059E+000  0.530288E+000  0.000000E+000
-0.754510E+000  0.512821E+000  0.000000E+000
-0.729961E+000  0.495353E+000  0.000000E+000
-0.705412E+000  0.477885E+000  0.000000E+000
-0.680863E+000  0.460417E+000  0.000000E+000
-0.656314E+000  0.442949E+000  0.000000E+000
-0.631765E+000  0.425481E+000  0.000000E+000
-0.607216E+000  0.408013E+000  0.000000E+000
-0.582667E+000  0.390545E+000  0.000000E+000
-0.558118E+000  0.373077E+000  0.000000E+000
-0.533569E+000  0.355609E+000  0.000000E+000
-0.509020E+000  0.338141E+000  0.000000E+000
-0.484471E+000  0.320673E+000  0.000000E+000
-0.459922E+000  0.303205E+000  0.000000E+000
-0.435373E+000  0.285737E+000  0.000000E+000
-0.410824E+000  0.268269E+000  0.000000E+000
-0.386275E+000  0.250801E+000  0.000000E+000
-0.361726E+000  0.233333E+000  0.000000E+000
-0.337177E+000  0.215865E+000  0.000000E+000
-0.312628E+000  0.198397E+000  0.000000E+000
-0.288079E+000  0.180930E+000  0.000000E+000
-0.263530E+000  0.163462E+000  0.000000E+000
-0.238981E+000  0.145994E+000  0.000000E+000
-0.214432E+000  0.128526E+000  0.000000E+000
 0.718750E+000 -0.100000E+001  0.000000E+000
 0.700469E+000 -0.975350E+000  0.000000E+000
 0.682187E+000 -0.950701E+000  0.000000E+000
 0.663906E+000 -0.926051E+000  0.000000E+000
 0.645625E+000 -0.901402E+000  0.000000E+000
 0.627344E+000 -0.876752E+000  0.000000E+000
 0.609062E+000 -0.852103E+000  0.000000E+000
 0.590781E+000 -0.827453E+000  0.000000E+000
 0.572500E+000 -0.802803E+000  0.000000E+000
 0.554219E+000 -0.778154E+000  0.000000E+000
 0.535937E+000 -0.753504E+000  0.000000E+000
 0.517656E+000 -0.728855E+000  0.000000E+000
 0.499375E+000 -0.704205E+000  0.000000E+000
 0.481094E+000 -0.679555E+000  0.000000E+000
 0.462812E+000 -0.654906E+000  0.000000E+000
 0.444531E+000 -0.630256E+000  0.000000E+000
 0.426250E+000 -0.605607E+000  0.000000E+000
 0.407968E+000 -0.580957E+000  0.000000E+000
 0.389687E+000 -0.556308E+000  0.000000E+000
 0.371406E+000 -0.531658E+000  0.000000E+000
 0.353125E+000 -0.507008E+000  0.000000E+000
 0.334843E+000 -0.482359E+000  0.000000E+000
 0.316562E+000 -0.457709E+000  0.000000E+000
 0.298281E+000 -0.433060E+000  0.000000E+000
 0.280000E+000 -0.408410E+000  0.000000E+000
 0.261718E+000 -0.383760E+000  0.000000E+000
 0.243437E+000 -0.359111E+000  0.000000E+000
 0.225156E+000 -0.334461E+000  0.000000E+000
 0.206874E+000 -0.309812E+000  0.000000E+000
 0.188593E+000 -0.285162E+000  0.000000E+000
 0.170312E+000 -0.260513E+000  0.000000E+000
 0.152031E+000 -0.235863E+000  0.000000E+000
 0.133749E+000 -0.211213E+000  0.000000E+000
-0.100000E+001  0.718750E+000  0.000000E+000
-0.975350E+000  0.700469E+000  0.000000E+000
-0.950701E+000  0.682187E+000  0.000000E+000
-0.926051E+000  0.663906E+000  0.000000E+000
-0.901402E+000  0.645625E+000  0.000000E+000
-0.876752E+000  0.627344E+000  0.000000E+000
-0.852103E+000  0.609062E+000  0.000000E+000
-0.827453E+000  0.590781E+000  0.000000E+000
-0.802803E+000  0.572500E+000  0.000000E+000
-0.778154E+000  0.554219E+000  0.000000E+000
-0.753504E+000  0.535937E+000  0.000000E+000
-0.728855E+000  0.517656E+000  0.000000E+000
-0.704205E+000  0.499375E+000  0.000000E+000
-0.679555E+000  0.481094E+000  0.000000E+000
-0.654906E+000  0.462812E+000  0.000000E+000
-0.630256E+000  0.444531E+000  0.000000E+000
-0.605607E+000  0.426250E+000  0.000000E+000
-0.580957E+000  0.407968E+000  0.000000E+000
-0.556308E+000  0.389687E+000  0.000000E+000
-0.531658E+000  0.371406E+000  0.000000E+000
-0.507008E+000  0.353125E+000  0.000000E+000
-0.482359E+000  0.334843E+000  0.000000E+000
-0.457709E+000  0.316562E+000  0.000000E+000
-0.433060E+000  0.298281E+000  0.000000E+000
-0.408410E+000  0.280000E+000  0.000000E+000
-0.383760E+000  0.261718E+000  0.000000E+000
-0.359111E+000  0.243437E+000  0.000000E+000
-0.334461E+000  0.225156E+000  0.000000E+000
-0.309812E+000  0.206874E+000  0.000000E+000
-0.285162E+000  0.188593E+000  0.000000E+000
-0.260513E+000  0.170312E+000  0.000000E+000
-0.235863E+000  0.152031E+000  0.000000E+000
-0.211213E+000  0.133749E+000  0.000000E+000
 0.750000E+000 -0.100000E+001  0.000000E+000
 0.730903E+000 -0.975246E+000  0.000000E+000
 0.711806E+000 -0.950492E+000  0.000000E+000
 0.692709E+000 -0.925738E+000  0.000000E+000
 0.673612E+000 -0.900983E+000  0.000000E+000
 0.654514E+000 -0.876229E+000  0.000000E+000
 0.635417E+000 -0.851475E+000  0.000000E+000
 0.616320E+000 -0.826721E+000  0.000000E+000
 0.597223E+000 -0.801967E+000  0.000000E+000
 0.578126E+000 -0.777213E+000  0.000000E+000
 0.559029E+000 -0.752459E+000  0.000000E+000
 0.539932E+000 -0.727704E+000  0.000000E+000
 0.520835E+000 -0.702950E+000  0.000000E+000
 0.501738E+000 -0.678196E+000  0.000000E+000
 0.482640E+000 -0.653442E+000  0.000000E+000
 0.463543E+000 -0.628688E+000  0.000000E+000
 0.444446E+000 -0.603934E+000  0.000000E+000
 0.425349E+000 -0.579180E+000  0.000000E+000
 0.406252E+000 -0.554425E+000  0.000000E+000
 0.387155E+000 -0.529671E+000  0.000000E+000
 0.368058E+000 -0.504917E+000  0.000000E+000
 0.348961E+000 -0.480163E+000  0.000000E+000
 0.329864E+000 -0.455409E+000  0.000000E+000
 0.310767E+000 -0.430655E+000  0.000000E+000
 0.291669E+000 -0.405901E+000  0.000000E+000
 0.272572E+000 -0.381146E+000  0.000000E+000
 0.253475E+000 -0.356392E+000  0.000000E+000
 0.234378E+000 -0.331638E+000  0.000000E+000
 0.215281E+000 -0.306884E+000  0.000000E+000
 0.196184E+000 -0.282130E+000  0.000000E+000
 0.177087E+000 -0.257376E+000  0.000000E+000
 0.157990E+000 -0.232622E+000  0.000000E+000
 0.138893E+000 -0.207867E+000  0.000000E+000
-0.100000E+001  0.750000E+000  0.000000E+000
-0.975246E+000  0.730903E+000  0.000000E+000
-0.950492E+000  0.711806E+000  0.000000E+000
-0.925738E+000  0.692709E+000  0.000000E+000
-0.900983E+000  0.673612E+000  0.000000E+000
-0.876229E+000  0.654514E+000  0.000000E+000
-0.851475E+000  0.635417E+000  0.000000E+000
-0.826721E+000  0.616320E+000  0.000000E+000
-0.801967E+000  0.597223E+000  0.000000E+000
-0.777213E+000  0.578126E+000  0.000000E+000
-0.752459E+000  0.559029E+000  0.000000E+000
-0.727704E+000  0.539932E+000  0.000000E+000
-0.702950E+000  0.520835E+000  0.000000E+000
-0.678196E+000  0.501738E+000  0.000000E+000
-0.653442E+000  0.482640E+000  0.000000E+000
-0.628688E+000  0.463543E+000  0.000000E+000
-0.603934E+000  0.444446E+000  0.000000E+000
-0.579180E+000  0.425349E+000  0.000000E+000
-0.554425E+000  0.406252E+000  0.000000E+000
-0.529671E+000  0.387155E+000  0.000000E+000
-0.504917E+000  0.368058E+000  0.000000E+000
-0.480163E+000  0.348961E+000  0.000000E+000
-0.455409E+000  0.329864E+000  0.000000E+000
-0.430655E+000  0.310767E+000  0.000000E+000
-0.405901E+000  0.291669E+000  0.000000E+000
-0.381146E+000  0.272572E+000  0.000000E+000
-0.356392E+000  0.253475E+000  0.000000E+000
-0.331638E+000  0.234378E+000  0.000000E+000
-0.306884E+000  0.215281E+000  0.000000E+000
-0.282130E+000  0.196184E+000  0.000000E+000
-0.257376E+000  0.177087E+000  0.000000E+000
-0.232622E+000  0.157990E+000  0.000000E+000
-0.207867E+000  0.138893E+000  0.000000E+000
 0.781250E+000 -0.100000E+001  0.000000E+000
 0.761334E+000 -0.975137E+000  0.000000E+000
 0.741419E+000 -0.950275E+000  0.000000E+000
 0.721503E+000 -0.925412E+000  0.000000E+000
 0.701588E+000 -0.900550E+000  0.000000E+000
 0.681672E+000 -0.875687E+000  0.000000E+000
 0.661757E+000 -0.850824E+000  0.000000E+000
 0.641841E+000 -0.825962E+000  0.000000E+000
 0.621926E+000 -0.801099E+000  0.000000E+000
 0.602010E+000 -0.776236E+000  0.000000E+000
 0.582094E+000 -0.751374E+000  0.000000E+000
 0.562179E+000 -0.726511E+000  0.000000E+000
 0.542263E+000 -0.701649E+000  0.000000E+000
 0.522348E+000 -0.676786E+000  0.000000E+000
 0.502432E+000 -0.651923E+000  0.000000E+000
 0.482517E+000 -0.627061E+000  0.000000E+000
 0.462601E+000 -0.602198E+000  0.000000E+000
 0.442685E+000 -0.577335E+000  0.000000E+000
 0.422770E+000 -0.552473E+000  0.000000E+000
 0.402854E+000 -0.527610E+000  0.000000E+000
 0.382939E+000 -0.502748E+000  0.000000E+000
 0.363023E+000 -0.477885E+000  0.000000E+000
 0.343108E+000 -0.453022E+000  0.000000E+000
 0.323192E+000 -0.428160E+000  0.000000E+000
 0.303277E+000 -0.403297E+000  0.000000E+000
 0.283361E+000 -0.378435E+000  0.000000E+000
 0.263445E+000 -0.353572E+000  0.000000E+000
 0.243530E+000 -0.328709E+000  0.000000E+000
 0.223614E+000 -0.303847E+000  0.000000E+000
 0.203699E+000 -0.278984E+000  0.000000E+000
 0.183783E+000 -0.254121E+000  0.000000E+000
 0.163868E+000 -0.229259E+000  0.000000E+000
 0.143952E+000 -0.204396E+000  0.000000E+000
-0.100000E+001  0.781250E+000  0.000000E+000
-0.975137E+000  0.761334E+000  0.000000E+000
-0.950275E+000  0.741419E+000  0.000000E+000
-0.925412E+000  0.721503E+000  0.000000E+000
-0.900550E+000  0.701588E+000  0.000000E+000
-0.875687E+000  0.681672E+000  0.000000E+000
-0.850824E+000  0.661757E+000  0.000000E+000
-0.825962E+000  0.641841E+000  0.000000E+000
-0.801099E+000  0.621926E+000  0.000000E+000
-0.776236E+000  0.602010E+000  0.000000E+000
-0.751374E+000  0.582094E+000  0.000000E+000
-0.726511E+000  0.562179E+000  0.000000E+000
-0.701649E+000  0.542263E+000  0.000000E+000
-0.676786E+000  0.522348E+000  0.000000E+000
-0.651923E+000  0.502432E+000  0.000000E+000
-0.627061E+000  0.482517E+000  0.000000E+000
-0.602198E+000  0.462601E+000  0.000000E+000
-0.577335E+000  0.442685E+000  0.000000E+000
-0.552473E+000  0.422770E+000  0.000000E+000
-0.527610E+000  0.402854E+000  0.000000E+000
-0.502748E+000  0.382939E+000  0.000000E+000
-0.477885E+000  0.363023E+000  0.000000E+000
-0.453022E+000  0.343108E+000  0.000000E+000
-0.428160E+000  0.323192E+000  0.000000E+000
-0.403297E+000  0.303277E+000  0.000000E+000
-0.378435E+000  0.283361E+000  0.000000E+000
-0.353572E+000  0.263445E+000  0.000000E+000
-0.328709E+000  0.243530E+000  0.000000E+000
-0.303847E+000  0.223614E+000  0.000000E+000
-0.278984E+000  0.203699E+000  0.000000E+000
-0.254121E+000  0.183783E+000  0.000000E+000
-0.229259E+000  0.163868E+000  0.000000E+000
-0.204396E+000  0.143952E+000  0.000000E+000
 0.812500E+000 -0.100000E+001  0.000000E+000
 0.791763E+000 -0.975025E+000  0.000000E+000
 0.771027E+000 -0.950050E+000  0.000000E+000
 0.750290E+000 -0.925075E+000  0.000000E+000
 0.729553E+000 -0.900100E+000  0.000000E+000
 0.708816E+000 -0.875125E+000  0.000000E+000
 0.688080E+000 -0.850150E+000  0.000000E+000
 0.667343E+000 -0.825175E+000  0.000000E+000
 0.646606E+000 -0.800200E+000  0.000000E+000
 0.625869E+000 -0.775226E+000  0.000000E+000
 0.605133E+000 -0.750251E+000  0.000000E+000
 0.584396E+000 -0.725276E+000  0.000000E+000
 0.563659E+000 -0.700301E+000  0.000000E+000
 0.542923E+000 -0.675326E+000  0.000000E+000
 0.522186E+000 -0.650351E+000  0.000000E+000
 0.501449E+000 -0.625376E+000  0.000000E+000
 0.480712E+000 -0.600401E+000  0.000000E+000
 0.459976E+000 -0.575426E+000  0.000000E+000
 0.439239E+000 -0.550451E+000  0.000000E+000
 0.418502E+000 -0.525476E+000  0.000000E+000
 0.397766E+000 -0.500501E+000  0.000000E+000
 0.377029E+000 -0.475526E+000  0.000000E+000
 0.356292E+000 -0.450551E+000  0.000000E+000
 0.335555E+000 -0.425576E+000  0.000000E+000
 0.314819E+000 -0.400601E+000  0.000000E+000
 0.294082E+000 -0.375626E+000  0.000000E+000
 0.273345E+000 -0.350652E+000  0.000000E+000
 0.252608E+000 -0.325677E+000  0.000000E+000
 0.231872E+000 -0.300702E+000  0.000000E+000
 0.211135E+000 -0.275727E+000  0.000000E+000
 0.190398E+000 -0.250752E+000  0.000000E+000
 0.169662E+000 -0.225777E+000  0.000000E+000
 0.148925E+000 -0.200802E+000  0.000000E+000
-0.100000E+001  0.812500E+000  0.000000E+000
-0.975025E+000  0.791763E+000  0.000000E+000
-0.950050E+000  0.771027E+000  0.000000E+000
-0.925075E+000  0.750290E+000  0.000000E+000
-0.900100E+000  0.729553E+000  0.000000E+000
-0.875125E+000  0.708816E+000  0.000000E+000
-0.850150E+000  0.688080E+000  0.000000E+000
-0.825175E+000  0.667343E+000  0.000000E+000
-0.800200E+000  0.646606E+000  0.000000E+000
-0.775226E+000  0.625869E+000  0.000000E+000
-0.750251E+000  0.605133E+000  0.000000E+000
-0.725276E+000  0.584396E+000  0.000000E+000
-0.700301E+000  0.563659E+000  0.000000E+000
-0.675326E+000  0.542923E+000  0.000000E+000
-0.650351E+000  0.522186E+000  0.000000E+000
-0.625376E+000  0.501449E+000  0.000000E+000
-0.600401E+000  0.480712E+000  0.000000E+000
-0.575426E+000  0.459976E+000  0.000000E+000
-0.550451E+000  0.439239E+000  0.000000E+000
-0.525476E+000  0.418502E+000  0.000000E+000
-0.500501E+000  0.397766E+000  0.000000E+000
-0.475526E+000  0.377029E+000  0.000000E+000
-0.450551E+000  0.356292E+000  0.000000E+000
-0.425576E+000  0.335555E+000  0.000000E+000
-0.400601E+000  0.314819E+000  0.000000E+000
-0.375626E+000  0.294082E+000  0.000000E+000
-0.350652E+000  0.273345E+000  0.000000E+000
-0.325677E+000  0.252608E+000  0.000000E+000
-0.300702E+000  0.231872E+000  0.000000E+000
-0.275727E+000  0.211135E+000  0.000000E+000
-0.250752E+000  0.190398E+000  0.000000E+000
-0.225777E+000  0.169662E+000  0.000000E+000
-0.200802E+000  0.148925E+000  0.000000E+000
 0.843750E+000 -0.100000E+001  0.000000E+000
 0.822189E+000 -0.974909E+000  0.000000E+000
 0.800629E+000 -0.949818E+000  0.000000E+000
 0.779068E+000 -0.924727E+000  0.000000E+000
 0.757507E+000 -0.899636E+000  0.000000E+000
 0.735947E+000 -0.874545E+000  0.000000E+000
 0.714386E+000 -0.849454E+000  0.000000E+000
 0.692825E+000 -0.824363E+000  0.000000E+000
 0.671264E+000 -0.799272E+000  0.000000E+000
 0.649704E+000 -0.774181E+000  0.000000E+000
 0.628143E+000 -0.749090E+000  0.000000E+000
 0.606582E+000 -0.723999E+000  0.000000E+000
 0.585022E+000 -0.698907E+000  0.000000E+000
 0.563461E+000 -0.673816E+000  0.000000E+000
 0.541900E+000 -0.648725E+000  0.000000E+000
 0.520340E+000 -0.623634E+000  0.000000E+000
 0.498779E+000 -0.598543E+000  0.000000E+000
 0.477218E+000 -0.573452E+000  0.000000E+000
 0.455658E+000 -0.548361E+000  0.000000E+000
 0.434097E+000 -0.523270E+000  0.000000E+000
 0.412536E+000 -0.498179E+000  0.000000E+000
 0.390975E+000 -0.473088E+000  0.000000E+000
 0.369415E+000 -0.447997E+000  0.000000E+000
 0.347854E+000 -0.422906E+000  0.000000E+000
 0.326293E+000 -0.397815E+000  0.000000E+000
 0.304733E+000 -0.372724E+000  0.000000E+000
 0.283172E+000 -0.347633E+000  0.000000E+000
 0.261611E+000 -0.322542E+000  0.000000E+000
 0.240051E+000 -0.297451E+000  0.000000E+000
 0.218490E+000 -0.272360E+000  0.000000E+000
 0.196929E+000 -0.247269E+000  0.000000E+000
 0.175369E+000 -0.222178E+000  0.000000E+000
 0.153808E+000 -0.197087E+000  0.000000E+000
-0.100000E+001  0.843750E+000  0.000000E+000
-0.974909E+000  0.822189E+000  0.000000E+000
-0.949818E+000  0.800629E+000  0.000000E+000
-0.924727E+000  0.779068E+000  0.000000E+000
-0.899636E+000  0.757507E+000  0.000000E+000
-0.874545E+000  0.735947E+000  0.000000E+000
-0.849454E+000  0.714386E+000  0.000000E+000
-0.824363E+000  0.692825E+000  0.000000E+000
-0.799272E+000  0.671264E+000  0.000000E+000
-0.774181E+000  0.649704E+000  0.000000E+000
-0.749090E+000  0.628143E+000  0.000000E+000
-0.723999E+000  0.606582E+000  0.000000E+000
-0.698907E+000  0.585022E+000  0.000000E+000
-0.673816E+000  0.563461E+000  0.000000E+000
-0.648725E+000  0.541900E+000  0.000000E+000
-0.623634E+000  0.520340E+000  0.000000E+000
-0.598543E+000  0.498779E+000  0.000000E+000
-0.573452E+000  0.477218E+000  0.000000E+000
-0.548361E+000  0.455658E+000  0.000000E+000
-0.523270E+000  0.434097E+000  0.000000E+000
-0.498179E+000  0.412536E+000  0.000000E+000
-0.473088E+000  0.390975E+000  0.000000E+000
-0.447997E+000  0.369415E+000  0.000000E+000
-0.422906E+000  0.347854E+000  0.000000E+000
-0.397815E+000  0.326293E+000  0.000000E+000
-0.372724E+000  0.304733E+000  0.000000E+000
-0.347633E+000  0.283172E+000  0.000000E+000
-0.322542E+000  0.261611E+000  0.000000E+000
-0.297451E+000  0.240051E+000  0.000000E+000
-0.272360E+000  0.218490E+000  0.000000E+000
-0.247269E+000  0.196929E+000  0.000000E+000
-0.222178E+000  0.175369E+000  0.000000E+000
-0.197087E+000  0.153808E+000  0.000000E+000
 0.875000E+000 -0.100000E+001  0.000000E+000
 0.852612E+000 -0.974789E+000  0.000000E+000
 0.830225E+000 -0.949578E+000  0.000000E+000
 0.807837E+000 -0.924367E+000  0.000000E+000
 0.785450E+000 -0.899157E+000  0.000000E+000
 0.763062E+000 -0.873946E+000  0.000000E+000
 0.740675E+000 -0.848735E+000  0.000000E+000
 0.718287E+000 -0.823524E+000  0.000000E+000
 0.695900E+000 -0.798313E+000  0.000000E+000
 0.673512E+000 -0.773102E+000  0.000000E+000
 0.651124E+000 -0.747891E+000  0.000000E+000
 0.628737E+000 -0.722681E+000  0.000000E+000
 0.606349E+000 -0.697470E+000  0.000000E+000
 0.583962E+000 -0.672259E+000  0.000000E+000
 0.561574E+000 -0.647048E+000  0.000000E+000
 0.539187E+000 -0.621837E+000  0.000000E+000
 0.516799E+000 -0.596626E+000  0.000000E+000
 0.494412E+000 -0.571415E+000  0.000000E+000
 0.472024E+000 -0.546205E+000  0.000000E+000
 0.449637E+000 -0.520994E+000  0.000000E+000
 0.427249E+000 -0.495783E+000  0.000000E+000
 0.404861E+000 -0.470572E+000  0.000000E+000
 0.382474E+000 -0.445361E+000  0.000000E+000
 0.360086E+000 -0.420150E+000  0.000000E+000
 0.337699E+000 -0.394939E+000  0.000000E+000
 0.315311E+000 -0.369729E+000  0.000000E+000
 0.292924E+000 -0.344518E+000  0.000000E+000
 0.270536E+000 -0.319307E+000  0.000000E+000
 0.248149E+000 -0.294096E+000  0.000000E+000
 0.225761E+000 -0.268885E+000  0.000000E+000
 0.203373E+000 -0.243674E+000  0.000000E+000
 0.180986E+000 -0.218463E+000  0.000000E+000
 0.158598E+000 -0.193253E+000  0.000000E+000
-0.100000E+001  0.875000E+000  0.000000E+000
-0.974789E+000  0.852612E+000  0.000000E+000
-0.949578E+000  0.830225E+000  0.000000E+000
-0.924367E+000  0.807837E+000  0.000000E+000
-0.899157E+000  0.785450E+000  0.000000E+000
-0.873946E+000  0.763062E+000  0.000000E+000
-0.848735E+000  0.740675E+000  0.000000E+000
-0.823524E+000  0.718287E+000  0.000000E+000
-0.798313E+000  0.695900E+000  0.000000E+000
-0.773102E+000  0.673512E+000  0.000000E+000
-0.747891E+000  0.651124E+000  0.000000E+000
-0.722681E+000  0.628737E+000  0.000000E+000
-0.697470E+000  0.606349E+000  0.000000E+000
-0.672259E+000  0.583962E+000  0.000000E+000
-0.647048E+000  0.561574E+000  0.000000E+000
-0.621837E+000  0.539187E+000  0.000000E+000
-0.596626E+000  0.516799E+000  0.000000E+000
-0.571415E+000  0.494412E+000  0.000000E+000
-0.546205E+000  0.472024E+000  0.000000E+000
-0.520994E+000  0.449637E+000  0.000000E+000
-0.495783E+000  0.427249E+000  0.000000E+000
-0.470572E+000  0.404861E+000  0.000000E+000
-0.445361E+000  0.382474E+000  0.000000E+000
-0.420150E+000  0.360086E+000  0.000000E+000
-0.394939E+000  0.337699E+000  0.000000E+000
-0.369729E+000  0.315311E+000  0.000000E+000
-0.344518E+000  0.292924E+000  0.000000E+000
-0.319307E+000  0.270536E+000  0.000000E+000
-0.294096E+000  0.248149E+000  0.000000E+000
-0.268885E+000  0.225761E+000  0.000000E+000
-0.243674E+000  0.203373E+000  0.000000E+000
-0.218463E+000  0.180986E+000  0.000000E+000
-0.193253E+000  0.158598E+000  0.000000E+000
 0.906250E+000 -0.100000E+001  0.000000E+000
 0.883033E+000 -0.974666E+000  0.000000E+000
 0.859815E+000 -0.949331E+000  0.000000E+000
 0.836598E+000 -0.923997E+000  0.000000E+000
 0.813380E+000 -0.898663E+000  0.000000E+000
 0.790163E+000 -0.873328E+000  0.000000E+000
 0.766946E+000 -0.847994E+000  0.000000E+000
 0.743728E+000 -0.822660E+000  0.000000E+000
 0.720511E+000 -0.797326E+000  0.000000E+000
 0.697293E+000 -0.771991E+000  0.000000E+000
 0.674076E+000 -0.746657E+000  0.000000E+000
 0.650859E+000 -0.721323E+000  0.000000E+000
 0.627641E+000 -0.695988E+000  0.000000E+000
 0.604424E+000 -0.670654E+000  0.000000E+000
 0.581206E+000 -0.645320E+000  0.000000E+000
 0.557989E+000 -0.619985E+000  0.000000E+000
 0.534772E+000 -0.594651E+000  0.000000E+000
 0.511554E+000 -0.569317E+000  0.000000E+000
 0.488337E+000 -0.543982E+000  0.000000E+000
 0.465119E+000 -0.518648E+000  0.000000E+000
 0.441902E+000 -0.493314E+000  0.000000E+000
 0.418685E+000 -0.467980E+000  0.000000E+000
 0.395467E+000 -0.442645E+000  0.000000E+000
 0.372250E+000 -0.417311E+000  0.000000E+000
 0.349032E+000 -0.391977E+000  0.000000E+000
 0.325815E+000 -0.366642E+000  0.000000E+000
 0.302598E+000 -0.341308E+000  0.000000E+000
 0.279380E+000 -0.315974E+000  0.000000E+000
 0.256163E+000 -0.290639E+000  0.000000E+000
 0.232945E+000 -0.265305E+000  0.000000E+000
 0.209728E+000 -0.239971E+000  0.000000E+000
 0.186511E+000 -0.214637E+000  0.000000E+000
 0.163293E+000 -0.189302E+000  0.000000E+000
-0.100000E+001  0.906250E+000  0.000000E+000
-0.974666E+000  0.883033E+000  0.000000E+000
-0.949331E+000  0.859815E+000  0.000000E+000
-0.923997E+000  0.836598E+000  0.000000E+000
-0.898663E+000  0.813380E+000  0.000000E+000
-0.873328E+000  0.790163E+000  0.000000E+000
-0.847994E+000  0.766946E+000  0.000000E+000
-0.822660E+000  0.743728E+000  0.000000E+000
-0.797326E+000  0.720511E+000  0.000000E+000
-0.771991E+000  0.697293E+000  0.000000E+000
-0.746657E+000  0.674076E+000  0.000000E+000
-0.721323E+000  0.650859E+000  0.000000E+000
-0.695988E+000  0.627641E+000  0.000000E+000
-0.670654E+000  0.604424E+000  0.000000E+000
-0.645320E+000  0.581206E+000  0.000000E+000
-0.619985E+000  0.557989E+000  0.000000E+000
-0.594651E+000  0.534772E+000  0.000000E+000
-0.569317E+000  0.511554E+000  0.000000E+000
-0.543982E+000  0.488337E+000  0.000000E+000
-0.518648E+000  0.465119E+000  0.000000E+000
-0.493314E+000  0.441902E+000  0.000000E+000
-0.467980E+000  0.418685E+000  0.000000E+000
-0.442645E+000  0.395467E+000  0.000000E+000
-0.417311E+000  0.372250E+000  0.000000E+000
-0.391977E+000  0.349032E+000  0.000000E+000
-0.366642E+000  0.325815E+000  0.000000E+000
-0.341308E+000  0.302598E+000  0.000000E+000
-0.315974E+000  0.279380E+000  0.000000E+000
-0.290639E+000  0.256163E+000  0.000000E+000
-0.265305E+000  0.232945E+000  0.000000E+000
-0.239971E+000  0.209728E+000  0.000000E+000
-0.214637E+000  0.186511E+000  0.000000E+000
-0.189302E+000  0.163293E+000  0.000000E+000
 0.937500E+000 -0.100000E+001  0.000000E+000
 0.913450E+000 -0.974539E+000  0.000000E+000
 0.889399E+000 -0.949077E+000  0.000000E+000
 0.865349E+000 -0.923616E+000  0.000000E+000
 0.841299E+000 -0.898155E+000  0.000000E+000
 0.817248E+000 -0.872693E+000  0.000000E+000
 0.793198E+000 -0.847232E+000  0.000000E+000
 0.769148E+000 -0.821771E+000  0.000000E+000
 0.745097E+000 -0.796309E+000  0.000000E+000
 0.721047E+000 -0.770848E+000  0.000000E+000
 0.696997E+000 -0.745387E+000  0.000000E+000
 0.672946E+000 -0.719925E+000  0.000000E+000
 0.648896E+000 -0.694464E+000  0.000000E+000
 0.624846E+000 -0.669003E+000  0.000000E+000
 0.600796E+000 -0.643542E+000  0.000000E+000
 0.576745E+000 -0.618080E+000  0.000000E+000
 0.552695E+000 -0.592619E+000  0.000000E+000
 0.528645E+000 -0.567158E+000  0.000000E+000
 0.504594E+000 -0.541696E+000  0.000000E+000
 0.480544E+000 -0.516235E+000  0.000000E+000
 0.456494E+000 -0.490774E+000  0.000000E+000
 0.432443E+000 -0.465312E+000  0.000000E+000
 0.408393E+000 -0.439851E+000  0.000000E+000
 0.384343E+000 -0.414390E+000  0.000000E+000
 0.360292E+000 -0.388928E+000  0.000000E+000
 0.336242E+000 -0.363467E+000  0.000000E+000
 0.312192E+000 -0.338006E+000  0.000000E+000
 0.288141E+000 -0.312544E+000  0.000000E+000
 0.264091E+000 -0.287083E+000  0.000000E+000
 0.240041E+000 -0.261622E+000  0.000000E+000
 0.215990E+000 -0.236160E+000  0.000000E+000
 0.191940E+000 -0.210699E+000  0.000000E+000
 0.167890E+000 -0.185238E+000  0.000000E+000
-0.100000E+001  0.937500E+000  0.000000E+000
-0.974539E+000  0.913450E+000  0.000000E+000
-0.949077E+000  0.889399E+000  0.000000E+000
-0.923616E+000  0.865349E+000  0.000000E+000
-0.898155E+000  0.841299E+000  0.000000E+000
-0.872693E+000  0.817248E+000  0.000000E+000
-0.847232E+000  0.793198E+000  0.000000E+000
-0.821771E+000  0.769148E+000  0.000000E+000
-0.796309E+000  0.745097E+000  0.000000E+000
-0.770848E+000  0.721047E+000  0.000000E+000
-0.745387E+000  0.696997E+000  0.000000E+000
-0.719925E+000  0.672946E+000  0.000000E+000
-0.694464E+000  0.648896E+000  0.000000E+000
-0.669003E+000  0.624846E+000  0.000000E+000
-0.643542E+000  0.600796E+000  0.000000E+000
-0.618080E+000  0.576745E+000  0.000000E+000
-0.592619E+000  0.552695E+000  0.000000E+000
-0.567158E+000  0.528645E+000  0.000000E+000
-0.541696E+000  0.504594E+000  0.000000E+000
-0.516235E+000  0.480544E+000  0.000000E+000
-0.490774E+000  0.456494E+000  0.000000E+000
-0.465312E+000  0.432443E+000  0.000000E+000
-0.439851E+000  0.408393E+000  0.000000E+000
-0.414390E+000  0.384343E+000  0.000000E+000
-0.388928E+000  0.360292E+000  0.000000E+000
-0.363467E+000  0.336242E+000  0.000000E+000
-0.338006E+000  0.312192E+000  0.000000E+000
-0.312544E+000  0.288141E+000  0.000000E+000
-0.287083E+000  0.264091E+000  0.000000E+000
-0.261622E+000  0.240041E+000  0.000000E+000
-0.236160E+000  0.215990E+000  0.000000E+000
-0.210699E+000  0.191940E+000  0.000000E+000
-0.185238E+000  0.167890E+000  0.000000E+000
 0.968750E+000 -0.100000E+001  0.000000E+000
 0.943864E+000 -0.974408E+000  0.000000E+000
 0.918977E+000 -0.948816E+000  0.000000E+000
 0.894091E+000 -0.923225E+000  0.000000E+000
 0.869204E+000 -0.897633E+000  0.000000E+000
 0.844318E+000 -0.872041E+000  0.000000E+000
 0.819432E+000 -0.846449E+000  0.000000E+000
 0.794545E+000 -0.820857E+000  0.000000E+000
 0.769659E+000 -0.795265E+000  0.000000E+000
 0.744772E+000 -0.769674E+000  0.000000E+000
 0.719886E+000 -0.744082E+000  0.000000E+000
 0.695000E+000 -0.718490E+000  0.000000E+000
 0.670113E+000 -0.692898E+000  0.000000E+000
 0.645227E+000 -0.667306E+000  0.000000E+000
 0.620340E+000 -0.641715E+000  0.000000E+000
 0.595454E+000 -0.616123E+000  0.000000E+000
 0.570568E+000 -0.590531E+000  0.000000E+000
 0.545681E+000 -0.564939E+000  0.000000E+000
 0.520795E+000 -0.539347E+000  0.000000E+000
 0.495908E+000 -0.513755E+000  0.000000E+000
 0.471022E+000 -0.488164E+000  0.000000E+000
 0.446136E+000 -0.462572E+000  0.000000E+000
 0.421249E+000 -0.436980E+000  0.000000E+000
 0.396363E+000 -0.411388E+000  0.000000E+000
 0.371476E+000 -0.385796E+000  0.000000E+000
 0.346590E+000 -0.360205E+000  0.000000E+000
 0.321704E+000 -0.334613E+000  0.000000E+000
 0.296817E+000 -0.309021E+000  0.000000E+000
 0.271931E+000 -0.283429E+000  0.000000E+000
 0.247044E+000 -0.257837E+000  0.000000E+000
 0.222158E+000 -0.232245E+000  0.000000E+000
 0.197272E+000 -0.206654E+000  0.000000E+000
 0.172385E+000 -0.181062E+000  0.000000E+000
-0.100000E+001  0.968750E+000  0.000000E+000
-0.974408E+000  0.943864E+000  0.000000E+000
-0.948816E+000  0.918977E+000  0.000000E+000
-0.923225E+000  0.894091E+000  0.000000E+000
-0.897633E+000  0.869204E+000  0.000000E+000
-0.872041E+000  0.844318E+000  0.000000E+000
-0.846449E+000  0.819432E+000  0.000000E+000
-0.820857E+000  0.794545E+000  0.000000E+000
-0.795265E+000  0.769659E+000  0.000000E+000
-0.769674E+000  0.744772E+000  0.000000E+000
-0.744082E+000  0.719886E+000  0.000000E+000
-0.718490E+000  0.695000E+000  0.000000E+000
-0.692898E+000  0.670113E+000  0.000000E+000
-0.667306E+000  0.645227E+000  0.000000E+000
-0.641715E+000  0.620340E+000  0.000000E+000
-0.616123E+000  0.595454E+000  0.000000E+000
-0.590531E+000  0.570568E+000  0.000000E+000
-0.564939E+000  0.545681E+000  0.000000E+000
-0.539347E+000  0.520795E+000  0.000000E+000
-0.513755E+000  0.495908E+000  0.000000E+000
-0.488164E+000  0.471022E+000  0.000000E+000
-0.462572E+000  0.446136E+000  0.000000E+000
-0.436980E+000  0.421249E+000  0.000000E+000
-0.411388E+000  0.396363E+000  0.000000E+000
-0.385796E+000  0.371476E+000  0.000000E+000
-0.360205E+000  0.346590E+000  0.000000E+000
-0.334613E+000  0.321704E+000  0.000000E+000
-0.309021E+000  0.296817E+000  0.000000E+000
-0.283429E+000  0.271931E+000  0.000000E+000
-0.257837E+000  0.247044E+000  0.000000E+000
-0.232245E+000  0.222158E+000  0.000000E+000
-0.206654E+000  0.197272E+000  0.000000E+000
-0.181062E+000  0.172385E+000  0.000000E+000
 0.100000E+001 -0.100000E+001  0.000000E+000
 0.974274E+000 -0.974274E+000  0.000000E+000
 0.948549E+000 -0.948549E+000  0.000000E+000
 0.922823E+000 -0.922823E+000  0.000000E+000
 0.897097E+000 -0.897097E+000  0.000000E+000
 0.871371E+000 -0.871371E+000  0.000000E+000
 0.845646E+000 -0.845646E+000  0.000000E+000
 0.819920E+000 -0.819920E+000  0.000000E+000
 0.794194E+000 -0.794194E+000  0.000000E+000
 0.768468E+000 -0.768468E+000  0.000000E+000
 0.742743E+000 -0.742743E+000  0.000000E+000
 0.717017E+000 -0.717017E+000  0.000000E+000
 0.691291E+000 -0.691291E+000  0.000000E+000
 0.665566E+000 -0.665566E+000  0.000000E+000
 0.639840E+000 -0.639840E+000  0.000000E+000
 0.614114E+000 -0.614114E+000  0.000000E+000
 0.588388E+000 -0.588388E+000  0.000000E+000
 0.562663E+000 -0.562663E+000  0.000000E+000
 0.536937E+000 -0.536937E+000  0.000000E+000
 0.511211E+000 -0.511211E+000  0.000000E+000
 0.485485E+000 -0.485485E+000  0.000000E+000
 0.459760E+000 -0.459760E+000  0.000000E+000
 0.434034E+000 -0.434034E+000  0.000000E+000
 0.408308E+000 -0.408308E+000  0.000000E+000
 0.382583E+000 -0.382583E+000  0.000000E+000
 0.356857E+000 -0.356857E+000  0.000000E+000
 0.331131E+000 -0.331131E+000  0.000000E+000
 0.305405E+000 -0.305405E+000  0.000000E+000
 0.279680E+000 -0.279680E+000  0.000000E+000
 0.253954E+000 -0.253954E+000  0.000000E+000
 0.228228E+000 -0.228228E+000  0.000000E+000
 0.202502E+000 -0.202502E+000  0.000000E+000
 0.176777E+000 -0.176777E+000  0.000000E+000
-0.100000E+001  0.100000E+001  0.000000E+000
-0.974274E+000  0.974274E+000  0.000000E+000
-0.948549E+000  0.948549E+000  0.000000E+000
-0.922823E+000  0.922823E+000  0.000000E+000
-0.897097E+000  0.897097E+000  0.000000E+000
-0.871371E+000  0.871371E+000  0.000000E+000
-0.845646E+000  0.845646E+000  0.000000E+000
-0.819920E+000  0.819920E+000  0.000000E+000
-0.794194E+000  0.794194E+000  0.000000E+000
-0.768468E+000  0.768468E+000  0.000000E+000
-0.742743E+000  0.742743E+000  0.000000E+000
-0.717017E+000  0.717017E+000  0.000000E+000
-0.691291E+000  0.691291E+000  0.000000E+000
-0.665566E+000  0.665566E+000  0.000000E+000
-0.639840E+000  0.639840E+000  0.000000E+000
-0.614114E+000  0.614114E+000  0.000000E+000
-0.588388E+000  0.588388E+000  0.000000E+000
-0.562663E+000  0.562663E+000  0.000000E+000
-0.536937E+000  0.536937E+000  0.000000E+000
-0.511211E+000  0.511211E+000  0.000000E+000
-0.485485E+000  0.485485E+000  0.000000E+000
-0.459760E+000  0.459760E+000  0.000000E+000
-0.434034E+000  0.434034E+000  0.000000E+000
-0.408308E+000  0.408308E+000  0.000000E+000
-0.382583E+000  0.382583E+000  0.000000E+000
-0.356857E+000  0.356857E+000  0.000000E+000
-0.331131E+000  0.331131E+000  0.000000E+000
-0.305405E+000  0.305405E+000  0.000000E+000
-0.279680E+000  0.279680E+000  0.000000E+000
-0.253954E+000  0.253954E+000  0.000000E+000
-0.228228E+000  0.228228E+000  0.000000E+000
-0.202502E+000  0.202502E+000  0.000000E+000
-0.176777E+000  0.176777E+000  0.000000E+000
 0.100000E+001 -0.968750E+000  0.000000E+000
 0.974408E+000 -0.943864E+000  0.000000E+000
 0.948816E+000 -0.918977E+000  0.000000E+000
 0.923225E+000 -0.894091E+000  0.000000E+000
 0.897633E+000 -0.869204E+000  0.000000E+000
 0.872041E+000 -0.844318E+000  0.000000E+000
 0.846449E+000 -0.819432E+000  0.000000E+000
 0.820857E+000 -0.794545E+000  0.000000E+000
 0.795265E+000 -0.769659E+000  0.000000E+000
 0.769674E+000 -0.744772E+000  0.000000E+000
 0.744082E+000 -0.719886E+000  0.000000E+000
 0.718490E+000 -0.695000E+000  0.000000E+000
 0.692898E+000 -0.670113E+000  0.000000E+000
 0.667306E+000 -0.645227E+000  0.000000E+000
 0.641715E+000 -0.620340E+000  0.000000E+000
 0.616123E+000 -0.595454E+000  0.000000E+000
 0.590531E+000 -0.570568E+000  0.000000E+000
 0.564939E+000 -0.545681E+000  0.000000E+000
 0.539347E+000 -0.520795E+000  0.000000E+000
 0.513755E+000 -0.495908E+000  0.000000E+000
 0.488164E+000 -0.471022E+000  0.000000E+000
 0.462572E+000 -0.446136E+000  0.000000E+000
 0.436980E+000 -0.421249E+000  0.000000E+000
 0.411388E+000 -0.396363E+000  0.000000E+000
 0.385796E+000 -0.371476E+000  0.000000E+000
 0.360205E+000 -0.346590E+000  0.000000E+000
 0.334613E+000 -0.321704E+000  0.000000E+000
 0.309021E+000 -0.296817E+000  0.000000E+000
 0.283429E+000 -0.271931E+000  0.000000E+000
 0.257837E+000 -0.247044E+000  0.000000E+000
 0.232245E+000 -0.222158E+000  0.000000E+000
 0.206654E+000 -0.197272E+000  0.000000E+000
 0.181062E+000 -0.172385E+000  0.000000E+000
-0.968750E+000  0.100000E+001  0.000000E+000
-0.943864E+000  0.974408E+000  0.000000E+000
-0.918977E+000  0.948816E+000  0.000000E+000
-0.894091E+000  0.923225E+000  0.000000E+000
-0.869204E+000  0.897633E+000  0.000000E+000
-0.844318E+000  0.872041E+000  0.000000E+000
-0.819432E+000  0.846449E+000  0.000000E+000
-0.794545E+000  0.820857E+000  0.000000E+000
-0.769659E+000  0.795265E+000  0.000000E+000
-0.744772E+000  0.769674E+000  0.000000E+000
-0.719886E+000  0.744082E+000  0.000000E+000
-0.695000E+000  0.718490E+000  0.000000E+000
-0.670113E+000  0.692898E+000  0.000000E+000
-0.645227E+000  0.667306E+000  0.000000E+000
-0.620340E+000  0.641715E+000  0.000000E+000
-0.595454E+000  0.616123E+000  0.000000E+000
-0.570568E+000  0.590531E+000  0.000000E+000
-0.545681E+000  0.564939E+000  0.000000E+000
-0.520795E+000  0.539347E+000  0.000000E+000
-0.495908E+000  0.513755E+000  0.000000E+000
-0.471022E+000  0.488164E+000  0.000000E+000
-0.446136E+000  0.462572E+000  0.000000E+000
-0.421249E+000  0.436980E+000  0.000000E+000
-0.396363E+000  0.411388E+000  0.000000E+000
-0.371476E+000  0.385796E+000  0.000000E+000
-0.346590E+000  0.360205E+000  0.000000E+000
-0.321704E+000  0.334613E+000  0.000000E+000
-0.296817E+000  0.309021E+000  0.000000E+000
-0.271931E+000  0.283429E+000  0.000000E+000
-0.247044E+000  0.257837E+000  0.000000E+000
-0.222158E+000  0.232245E+000  0.000000E+000
-0.197272E+000  0.206654E+000  0.000000E+000
-0.172385E+000  0.181062E+000  0.000000E+000
 0.100000E+001 -0.937500E+000  0.000000E+000
 0.974539E+000 -0.913450E+000  0.000000E+000
 0.949077E+000 -0.889399E+000  0.000000E+000
 0.923616E+000 -0.865349E+000  0.000000E+000
 0.898155E+000 -0.841299E+000  0.000000E+000
 0.872693E+000 -0.817248E+000  0.000000E+000
 0.847232E+000 -0.793198E+000  0.000000E+000
 0.821771E+000 -0.769148E+000  0.000000E+000
 0.796309E+000 -0.745097E+000  0.000000E+000
 0.770848E+000 -0.721047E+000  0.000000E+000
 0.745387E+000 -0.696997E+000  0.000000E+000
 0.719925E+000 -0.672946E+000  0.000000E+000
 0.694464E+000 -0.648896E+000  0.000000E+000
 0.669003E+000 -0.624846E+000  0.000000E+000
 0.643542E+000 -0.600796E+000  0.000000E+000
 0.618080E+000 -0.576745E+000  0.000000E+000
 0.592619E+000 -0.552695E+000  0.000000E+000
 0.567158E+000 -0.528645E+000  0.000000E+000
 0.541696E+000 -0.504594E+000  0.000000E+000
 0.516235E+000 -0.480544E+000  0.000000E+000
 0.490774E+000 -0.456494E+000  0.000000E+000
 0.465312E+000 -0.432443E+000  0.000000E+000
 0.439851E+000 -0.408393E+000  0.000000E+000
 0.414390E+000 -0.384343E+000  0.000000E+000
 0.388928E+000 -0.360292E+000  0.000000E+000
 0.363467E+000 -0.336242E+000  0.000000E+000
 0.338006E+000 -0.312192E+000  0.000000E+000
 0.312544E+000 -0.288141E+000  0.000000E+000
 0.287083E+000 -0.264091E+000  0.000000E+000
 0.261622E+000 -0.240041E+000  0.000000E+000
 0.236160E+000 -0.215990E+000  0.000000E+000
 0.210699E+000 -0.191940E+000  0.000000E+000
 0.185238E+000 -0.167890E+000  0.000000E+000
-0.937500E+000  0.100000E+001  0.000000E+000
-0.913450E+000  0.974539E+000  0.000000E+000
-0.889399E+000  0.949077E+000  0.000000E+000
-0.865349E+000  0.923616E+000  0.000000E+000
-0.841299E+000  0.898155E+000  0.000000E+000
-0.817248E+000  0.872693E+000  0.000000E+000
-0.793198E+000  0.847232E+000  0.000000E+000
-0.769148E+000  0.821771E+000  0.000000E+000
-0.745097E+000  0.796309E+000  0.000000E+000
-0.721047E+000  0.770848E+000  0.000000E+000
-0.696997E+000  0.745387E+000  0.000000E+000
-0.672946E+000  0.719925E+000  0.000000E+000
-0.648896E+000  0.694464E+000  0.000000E+000
-0.624846E+000  0.669003E+000  0.000000E+000
-0.600796E+000  0.643542E+000  0.000000E+000
-0.576745E+000  0.618080E+000  0.000000E+000
-0.552695E+000  0.592619E+000  0.000000E+000
-0.528645E+000  0.567158E+000  0.000000E+000
-0.504594E+000  0.541696E+000  0.000000E+000
-0.480544E+000  0.516235E+000  0.000000E+000
-0.456494E+000  0.490774E+000  0.000000E+000
-0.432443E+000  0.465312E+000  0.000000E+000
-0.408393E+000  0.439851E+000  0.000000E+000
-0.384343E+000  0.414390E+000  0.000000E+000
-0.360292E+000  0.388928E+000  0.000000E+000
-0.336242E+000  0.363467E+000  0.000000E+000
-0.312192E+000  0.338006E+000  0.000000E+000
-0.288141E+000  0.312544E+000  0.000000E+000
-0.264091E+000  0.287083E+000  0.000000E+000
-0.240041E+000  0.261622E+000  0.000000E+000
-0.215990E+000  0.236160E+000  0.000000E+000
-0.191940E+000  0.210699E+000  0.000000E+000
-0.167890E+000  0.185238E+000  0.000000E+000
 0.100000E+001 -0.906250E+000  0.000000E+000
 0.974666E+000 -0.883033E+000  0.000000E+000
 0.949331E+000 -0.859815E+000  0.000000E+000
 0.923997E+000 -0.836598E+000  0.000000E+000
 0.898663E+000 -0.813380E+000  0.000000E+000
 0.873328E+000 -0.790163E+000  0.000000E+000
 0.847994E+000 -0.766946E+000  0.000000E+000
 0.822660E+000 -0.743728E+000  0.000000E+000
 0.797326E+000 -0.720511E+000  0.000000E+000
 0.771991E+000 -0.697293E+000  0.000000E+000
 0.746657E+000 -0.674076E+000  0.000000E+000
 0.721323E+000 -0.650859E+000  0.000000E+000
 0.695988E+000 -0.627641E+000  0.000000E+000
 0.670654E+000 -0.604424E+000  0.000000E+000
 0.645320E+000 -0.581206E+000  0.000000E+000
 0.619985E+000 -0.557989E+000  0.000000E+000
 0.594651E+000 -0.534772E+000  0.000000E+000
 0.569317E+000 -0.511554E+000  0.000000E+000
 0.543982E+000 -0.488337E+000  0.000000E+000
 0.518648E+000 -0.465119E+000  0.000000E+000
 0.493314E+000 -0.441902E+000  0.000000E+000
 0.467980E+000 -0.418685E+000  0.000000E+000
 0.442645E+000 -0.395467E+000  0.000000E+000
 0.417311E+000 -0.372250E+000  0.000000E+000
 0.391977E+000 -0.349032E+000  0.000000E+000
 0.366642E+000 -0.325815E+000  0.000000E+000
 0.341308E+000 -0.302598E+000  0.000000E+000
 0.315974E+000 -0.279380E+000  0.000000E+000
 0.290639E+000 -0.256163E+000  0.000000E+000
 0.265305E+000 -0.232945E+000  0.000000E+000
 0.239971E+000 -0.209728E+000  0.000000E+000
 0.214637E+000 -0.186511E+000  0.000000E+000
 0.189302E+000 -0.163293E+000  0.000000E+000
-0.906250E+000  0.100000E+001  0.000000E+000
-0.883033E+000  0.974666E+000  0.000000E+000
-0.859815E+000  0.949331E+000  0.000000E+000
-0.836598E+000  0.923997E+000  0.000000E+000
-0.813380E+000  0.898663E+000  0.000000E+000
-0.790163E+000  0.873328E+000  0.000000E+000
-0.766946E+000  0.847994E+000  0.000000E+000
-0.743728E+000  0.822660E+000  0.000000E+000
-0.720511E+000  0.797326E+000  0.000000E+000
-0.697293E+000  0.771991E+000  0.000000E+000
-0.674076E+000  0.746657E+000  0.000000E+000
-0.650859E+000  0.721323E+000  0.000000E+000
-0.627641E+000  0.695988E+000  0.000000E+000
-0.604424E+000  0.670654E+000  0.000000E+000
-0.581206E+000  0.645320E+000  0.000000E+000
-0.557989E+000  0.619985E+000  0.000000E+000
-0.534772E+000  0.594651E+000  0.000000E+000
-0.511554E+000  0.569317E+000  0.000000E+000
-0.488337E+000  0.543982E+000  0.000000E+000
-0.465119E+000  0.518648E+000  0.000000E+000
-0.441902E+000  0.493314E+000  0.000000E+000
-0.418685E+000  0.467980E+000  0.000000E+000
-0.395467E+000  0.442645E+000  0.000000E+000
-0.372250E+000  0.417311E+000  0.000000E+000
-0.349032E+000  0.391977E+000  0.000000E+000
-0.325815E+000  0.366642E+000  0.000000E+000
-0.302598E+000  0.341308E+000  0.000000E+000
-0.279380E+000  0.315974E+000  0.000000E+000
-0.256163E+000  0.290639E+000  0.000000E+000
-0.232945E+000  0.265305E+000  0.000000E+000
-0.209728E+000  0.239971E+000  0.000000E+000
-0.186511E+000  0.214637E+000  0.000000E+000
-0.163293E+000  0.189302E+000  0.000000E+000
 0.100000E+001 -0.875000E+000  0.000000E+000
 0.974789E+000 -0.852612E+000  0.000000E+000
 0.949578E+000 -0.830225E+000  0.000000E+000
 0.924367E+000 -0.807837E+000  0.000000E+000
 0.899157E+000 -0.785450E+000  0.000000E+000
 0.873946E+000 -0.763062E+000  0.000000E+000
 0.848735E+000 -0.740675E+000  0.000000E+000
 0.823524E+000 -0.718287E+000  0.000000E+000
 0.798313E+000 -0.695900E+000  0.000000E+000
 0.773102E+000 -0.673512E+000  0.000000E+000
 0.747891E+000 -0.651124E+000  0.000000E+000
 0.722681E+000 -0.628737E+000  0.000000E+000
 0.697470E+000 -0.606349E+000  0.000000E+000
 0.672259E+000 -0.583962E+000  0.000000E+000
 0.647048E+000 -0.561574E+000  0.000000E+000
 0.621837E+000 -0.539187E+000  0.000000E+000
 0.596626E+000 -0.516799E+000  0.000000E+000
 0.571415E+000 -0.494412E+000  0.000000E+000
 0.546205E+000 -0.472024E+000  0.000000E+000
 0.520994E+000 -0.449637E+000  0.000000E+000
 0.495783E+000 -0.427249E+000  0.000000E+000
 0.470572E+000 -0.404861E+000  0.000000E+000
 0.445361E+000 -0.382474E+000  0.000000E+000
 0.420150E+000 -0.360086E+000  0.000000E+000
 0.394939E+000 -0.337699E+000  0.000000E+000
 0.369729E+000 -0.315311E+000  0.000000E+000
 0.344518E+000 -0.292924E+000  0.000000E+000
 0.319307E+000 -0.270536E+000  0.000000E+000
 0.294096E+000 -0.248149E+000  0.000000E+000
 0.268885E+000 -0.225761E+000  0.000000E+000
 0.243674E+000 -0.203373E+000  0.000000E+000
 0.218463E+000 -0.180986E+000  0.000000E+000
 0.193253E+000 -0.158598E+000  0.000000E+000
-0.875000E+000  0.100000E+001  0.000000E+000
-0.852612E+000  0.974789E+000  0.000000E+000
-0.830225E+000  0.949578E+000  0.000000E+000
-0.807837E+000  0.924367E+000  0.000000E+000
-0.785450E+000  0.899157E+000  0.000000E+000
-0.763062E+000  0.873946E+000  0.000000E+000
-0.740675E+000  0.848735E+000  0.000000E+000
-0.718287E+000  0.823524E+000  0.000000E+000
-0.695900E+000  0.798313E+000  0.000000E+000
-0.673512E+000  0.773102E+000  0.000000E+000
-0.651124E+000  0.747891E+000  0.000000E+000
-0.628737E+000  0.722681E+000  0.000000E+000
-0.606349E+000  0.697470E+000  0.000000E+000
-0.583962E+000  0.672259E+000  0.000000E+000
-0.561574E+000  0.647048E+000  0.000000E+000
-0.539187E+000  0.621837E+000  0.000000E+000
-0.516799E+000  0.596626E+000  0.000000E+000
-0.494412E+000  0.571415E+000  0.000000E+000
-0.472024E+000  0.546205E+000  0.000000E+000
-0.449637E+000  0.520994E+000  0.000000E+000
-0.427249E+000  0.495783E+000  0.000000E+000
-0.404861E+000  0.470572E+000  0.000000E+000
-0.382474E+000  0.445361E+000  0.000000E+000
-0.360086E+000  0.420150E+000  0.000000E+000
-0.337699E+000  0.394939E+000  0.000000E+000
-0.315311E+000  0.369729E+000  0.000000E+000
-0.292924E+000  0.344518E+000  0.000000E+000
-0.270536E+000  0.319307E+000  0.000000E+000
-0.248149E+000  0.294096E+000  0.000000E+000
-0.225761E+000  0.268885E+000  0.000000E+000
-0.203373E+000  0.243674E+000  0.000000E+000
-0.180986E+000  0.218463E+000  0.000000E+000
-0.158598E+000  0.193253E+000  0.000000E+000
 0.100000E+001 -0.843750E+000  0.000000E+000
 0.974909E+000 -0.822189E+000  0.000000E+000
 0.949818E+000 -0.800629E+000  0.000000E+000
 0.924727E+000 -0.779068E+000  0.000000E+000
 0.899636E+000 -0.757507E+000  0.000000E+000
 0.874545E+000 -0.735947E+000  0.000000E+000
 0.849454E+000 -0.714386E+000  0.000000E+000
 0.824363E+000 -0.692825E+000  0.000000E+000
 0.799272E+000 -0.671264E+000  0.000000E+000
 0.774181E+000 -0.649704E+000  0.000000E+000
 0.749090E+000 -0.628143E+000  0.000000E+000
 0.723999E+000 -0.606582E+000  0.000000E+000
 0.698907E+000 -0.585022E+000  0.000000E+000
 0.673816E+000 -0.563461E+000  0.000000E+000
 0.648725E+000 -0.541900E+000  0.000000E+000
 0.623634E+000 -0.520340E+000  0.000000E+000
 0.598543E+000 -0.498779E+000  0.000000E+000
 0.573452E+000 -0.477218E+000  0.000000E+000
 0.548361E+000 -0.455658E+000  0.000000E+000
 0.523270E+000 -0.434097E+000  0.000000E+000
 0.498179E+000 -0.412536E+000  0.000000E+000
 0.473088E+000 -0.390975E+000  0.000000E+000
 0.447997E+000 -0.369415E+000  0.000000E+000
 0.422906E+000 -0.347854E+000  0.000000E+000
 0.397815E+000 -0.326293E+000  0.000000E+000
 0.372724E+000 -0.304733E+000  0.000000E+000
 0.347633E+000 -0.283172E+000  0.000000E+000
 0.322542E+000 -0.261611E+000  0.000000E+000
 0.297451E+000 -0.240051E+000  0.000000E+000
 0.272360E+000 -0.218490E+000  0.000000E+000
 0.247269E+000 -0.196929E+000  0.000000E+000
 0.222178E+000 -0.175369E+000  0.000000E+000
 0.197087E+000 -0.153808E+000  0.000000E+000
-0.843750E+000  0.100000E+001  0.000000E+000
-0.822189E+000  0.974909E+000  0.000000E+000
-0.800629E+000  0.949818E+000  0.000000E+000
-0.779068E+000  0.924727E+000  0.000000E+000
-0.757507E+000  0.899636E+000  0.000000E+000
-0.735947E+000  0.874545E+000  0.000000E+000
-0.714386E+000  0.849454E+000  0.000000E+000
-0.692825E+000  0.824363E+000  0.000000E+000
-0.671264E+000  0.799272E+000  0.000000E+000
-0.649704E+000  0.774181E+000  0.000000E+000
-0.628143E+000  0.749090E+000  0.000000E+000
-0.606582E+000  0.723999E+000  0.000000E+000
-0.585022E+000  0.698907E+000  0.000000E+000
-0.563461E+000  0.673816E+000  0.000000E+000
-0.541900E+000  0.648725E+000  0.000000E+000
-0.520340E+000  0.623634E+000  0.000000E+000
-0.498779E+000  0.598543E+000  0.000000E+000
-0.477218E+000  0.573452E+000  0.000000E+000
-0.455658E+000  0.548361E+000  0.000000E+000
-0.434097E+000  0.523270E+000  0.000000E+000
-0.412536E+000  0.498179E+000  0.000000E+000
-0.390975E+000  0.473088E+000  0.000000E+000
-0.369415E+000  0.447997E+000  0.000000E+000
-0.347854E+000  0.422906E+000  0.000000E+000
-0.326293E+000  0.397815E+000  0.000000E+000
-0.304733E+000  0.372724E+000  0.000000E+000
-0.283172E+000  0.347633E+000  0.000000E+000
-0.261611E+000  0.322542E+000  0.000000E+000
-0.240051E+000  0.297451E+000  0.000000E+000
-0.218490E+000  0.272360E+000  0.000000E+000
-0.196929E+000  0.247269E+000  0.000000E+000
-0.175369E+000  0.222178E+000  0.000000E+000
-0.153808E+000  0.197087E+000  0.000000E+000
 0.100000E+001 -0.812500E+000  0.000000E+000
 0.975025E+000 -0.791763E+000  0.000000E+000
 0.950050E+000 -0.771027E+000  0.000000E+000
 0.925075E+000 -0.750290E+000  0.000000E+000
 0.900100E+000 -0.729553E+000  0.000000E+000
 0.875125E+000 -0.708816E+000  0.000000E+000
 0.850150E+000 -0.688080E+000  0.000000E+000
 0.825175E+000 -0.667343E+000  0.000000E+000
 0.800200E+000 -0.646606E+000  0.000000E+000
 0.775226E+000 -0.625869E+000  0.000000E+000
 0.750251E+000 -0.605133E+000  0.000000E+000
 0.725276E+000 -0.584396E+000  0.000000E+000
 0.700301E+000 -0.563659E+000  0.000000E+000
 0.675326E+000 -0.542923E+000  0.000000E+000
 0.650351E+000 -0.522186E+000  0.000000E+000
 0.625376E+000 -0.501449E+000  0.000000E+000
 0.600401E+000 -0.480712E+000  0.000000E+000
 0.575426E+000 -0.459976E+000  0.000000E+000
 0.550451E+000 -0.439239E+000  0.000000E+000
 0.525476E+000 -0.418502E+000  0.000000E+000
 0.500501E+000 -0.397766E+000  0.000000E+000
 0.475526E+000 -0.377029E+000  0.000000E+000
 0.450551E+000 -0.356292E+000  0.000000E+000
 0.425576E+000 -0.335555E+000  0.000000E+000
 0.400601E+000 -0.314819E+000  0.000000E+000
 0.375626E+000 -0.294082E+000  0.000000E+000
 0.350652E+000 -0.273345E+000  0.000000E+000
 0.325677E+000 -0.252608E+000  0.000000E+000
 0.300702E+000 -0.231872E+000  0.000000E+000
 0.275727E+000 -0.211135E+000  0.000000E+000
 0.250752E+000 -0.190398E+000  0.000000E+000
 0.225777E+000 -0.169662E+000  0.000000E+000
 0.200802E+000 -0.148925E+000  0.000000E+000
-0.812500E+000  0.100000E+001  0.000000E+000
-0.791763E+000  0.975025E+000  0.000000E+000
-0.771027E+000  0.950050E+000  0.000000E+000
-0.750290E+000  0.925075E+000  0.000000E+000
-0.729553E+000  0.900100E+000  0.000000E+000
-0.708816E+000  0.875125E+000  0.000000E+000
-0.688080E+000  0.850150E+000  0.000000E+000
-0.667343E+000  0.825175E+000  0.000000E+000
-0.646606E+000  0.800200E+000  0.000000E+000
-0.625869E+000  0.775226E+000  0.000000E+000
-0.605133E+000  0.750251E+000  0.000000E+000
-0.584396E+000  0.725276E+000  0.000000E+000
-0.563659E+000  0.700301E+000  0.000000E+000
-0.542923E+000  0.675326E+000  0.000000E+000
-0.522186E+000  0.650351E+000  0.000000E+000
-0.501449E+000  0.625376E+000  0.000000E+000
-0.480712E+000  0.600401E+000  0.000000E+000
-0.459976E+000  0.575426E+000  0.000000E+000
-0.439239E+000  0.550451E+000  0.000000E+000
-0.418502E+000  0.525476E+000  0.000000E+000
-0.397766E+000  0.500501E+000  0.000000E+000
-0.377029E+000  0.475526E+000  0.000000E+000
-0.356292E+000  0.450551E+000  0.000000E+000
-0.335555E+000  0.425576E+000  0.000000E+000
-0.314819E+000  0.400601E+000  0.000000E+000
-0.294082E+000  0.375626E+000  0.000000E+000
-0.273345E+000  0.350652E+000  0.000000E+000
-0.252608E+000  0.325677E+000  0.000000E+000
-0.231872E+000  0.300702E+000  0.000000E+000
-0.211135E+000  0.275727E+000  0.000000E+000
-0.190398E+000  0.250752E+000  0.000000E+000
-0.169662E+000  0.225777E+000  0.000000E+000
-0.148925E+000  0.200802E+000  0.000000E+000
 0.100000E+001 -0.781250E+000  0.000000E+000
 0.975137E+000 -0.761334E+000  0.000000E+000
 0.950275E+000 -0.741419E+000  0.000000E+000
 0.925412E+000 -0.721503E+000  0.000000E+000
 0.900550E+000 -0.701588E+000  0.000000E+000
 0.875687E+000 -0.681672E+000  0.000000E+000
 0.850824E+000 -0.661757E+000  0.000000E+000
 0.825962E+000 -0.641841E+000  0.000000E+000
 0.801099E+000 -0.621926E+000  0.000000E+000
 0.776236E+000 -0.602010E+000  0.000000E+000
 0.751374E+000 -0.582094E+000  0.000000E+000
 0.726511E+000 -0.562179E+000  0.000000E+000
 0.701649E+000 -0.542263E+000  0.000000E+000
 0.676786E+000 -0.522348E+000  0.000000E+000
 0.651923E+000 -0.502432E+000  0.000000E+000
 0.627061E+000 -0.482517E+000  0.000000E+000
 0.602198E+000 -0.462601E+000  0.000000E+000
 0.577335E+000 -0.442685E+000  0.000000E+000
 0.552473E+000 -0.422770E+000  0.000000E+000
 0.527610E+000 -0.402854E+000  0.000000E+000
 0.502748E+000 -0.382939E+000  0.000000E+000
 0.477885E+000 -0.363023E+000  0.000000E+000
 0.453022E+000 -0.343108E+000  0.000000E+000
 0.428160E+000 -0.323192E+000  0.000000E+000
 0.403297E+000 -0.303277E+000  0.000000E+000
 0.378435E+000 -0.283361E+000  0.000000E+000
 0.353572E+000 -0.263445E+000  0.000000E+000
 0.328709E+000 -0.243530E+000  0.000000E+000
 0.303847E+000 -0.223614E+000  0.000000E+000
 0.278984E+000 -0.203699E+000  0.000000E+000
 0.254121E+000 -0.183783E+000  0.000000E+000
 0.229259E+000 -0.163868E+000  0.000000E+000
 0.204396E+000 -0.143952E+000  0.000000E+000
-0.781250E+000  0.100000E+001  0.000000E+000
-0.761334E+000  0.975137E+000  0.000000E+000
-0.741419E+000  0.950275E+000  0.000000E+000
-0.721503E+000  0.925412E+000  0.000000E+000
-0.701588E+000  0.900550E+000  0.000000E+000
-0.681672E+000  0.875687E+000  0.000000E+000
-0.661757E+000  0.850824E+000  0.000000E+000
-0.641841E+000  0.825962E+000  0.000000E+000
-0.621926E+000  0.801099E+000  0.000000E+000
-0.602010E+000  0.776236E+000  0.000000E+000
-0.582094E+000  0.751374E+000  0.000000E+000
-0.562179E+000  0.726511E+000  0.000000E+000
-0.542263E+000  0.701649E+000  0.000000E+000
-0.522348E+000  0.676786E+000  0.000000E+000
-0.502432E+000  0.651923E+000  0.000000E+000
-0.482517E+000  0.627061E+000  0.000000E+000
-0.462601E+000  0.602198E+000  0.000000E+000
-0.442685E+000  0.577335E+000  0.000000E+000
-0.422770E+000  0.552473E+000  0.000000E+000
-0.402854E+000  0.527610E+000  0.000000E+000
-0.382939E+000  0.502748E+000  0.000000E+000
-0.363023E+000  0.477885E+000  0.000000E+000
-0.343108E+000  0.453022E+000  0.000000E+000
-0.323192E+000  0.428160E+000  0.000000E+000
-0.303277E+000  0.403297E+000  0.000000E+000
-0.283361E+000  0.378435E+000  0.000000E+000
-0.263445E+000  0.353572E+000  0.000000E+000
-0.243530E+000  0.328709E+000  0.000000E+000
-0.223614E+000  0.303847E+000  0.000000E+000
-0.203699E+000  0.278984E+000  0.000000E+000
-0.183783E+000  0.254121E+000  0.000000E+000
-0.163868E+000  0.229259E+000  0.000000E+000
-0.143952E+000  0.204396E+000  0.000000E+000
 0.100000E+001 -0.750000E+000  0.000000E+000
 0.975246E+000 -0.730903E+000  0.000000E+000
 0.950492E+000 -0.711806E+000  0.000000E+000
 0.925738E+000 -0.692709E+000  0.000000E+000
 0.900983E+000 -0.673612E+000  0.000000E+000
 0.876229E+000 -0.654514E+000  0.000000E+000
 0.851475E+000 -0.635417E+000  0.000000E+000
 0.826721E+000 -0.616320E+000  0.000000E+000
 0.801967E+000 -0.597223E+000  0.000000E+000
 0.777213E+000 -0.578126E+000  0.000000E+000
 0.752459E+000 -0.559029E+000  0.000000E+000
 0.727704E+000 -0.539932E+000  0.000000E+000
 0.702950E+000 -0.520835E+000  0.000000E+000
 0.678196E+000 -0.501738E+000  0.000000E+000
 0.653442E+000 -0.482640E+000  0.000000E+000
 0.628688E+000 -0.463543E+000  0.000000E+000
 0.603934E+000 -0.444446E+000  0.000000E+000
 0.579180E+000 -0.425349E+000  0.000000E+000
 0.554425E+000 -0.406252E+000  0.000000E+000
 0.529671E+000 -0.387155E+000  0.000000E+000
 0.504917E+000 -0.368058E+000  0.000000E+000
 0.480163E+000 -0.348961E+000  0.000000E+000
 0.455409E+000 -0.329864E+000  0.000000E+000
 0.430655E+000 -0.310767E+000  0.000000E+000
 0.405901E+000 -0.291669E+000  0.000000E+000
 0.381146E+000 -0.272572E+000  0.000000E+000
 0.356392E+000 -0.253475E+000  0.000000E+000
 0.331638E+000 -0.234378E+000  0.000000E+000
 0.306884E+000 -0.215281E+000  0.000000E+000
 0.282130E+000 -0.196184E+000  0.000000E+000
 0.257376E+000 -0.177087E+000  0.000000E+000
 0.232622E+000 -0.157990E+000  0.000000E+000
 0.207867E+000 -0.138893E+000  0.000000E+000
-0.750000E+000  0.100000E+001  0.000000E+000
-0.730903E+000  0.975246E+000  0.000000E+000
-0.711806E+000  0.950492E+000  0.000000E+000
-0.692709E+000  0.925738E+000  0.000000E+000
-0.673612E+000  0.900983E+000  0.000000E+000
-0.654514E+000  0.876229E+000  0.000000E+000
-0.635417E+000  0.851475E+000  0.000000E+000
-0.616320E+000  0.826721E+000  0.000000E+000
-0.597223E+000  0.801967E+000  0.000000E+000
-0.578126E+000  0.777213E+000  0.000000E+000
-0.559029E+000  0.752459E+000  0.000000E+000
-0.539932E+000  0.727704E+000  0.000000E+000
-0.520835E+000  0.702950E+000  0.000000E+000
-0.501738E+000  0.678196E+000  0.000000E+000
-0.482640E+000  0.653442E+000  0.000000E+000
-0.463543E+000  0.628688E+000  0.000000E+000
-0.444446E+000  0.603934E+000  0.000000E+000
-0.425349E+000  0.579180E+000  0.000000E+000
-0.406252E+000  0.554425E+000  0.000000E+000
-0.387155E+000  0.529671E+000  0.000000E+000
-0.368058E+000  0.504917E+000  0.000000E+000
-0.348961E+000  0.480163E+000  0.000000E+000
-0.329864E+000  0.455409E+000  0.000000E+000
-0.310767E+000  0.430655E+000  0.000000E+000
-0.291669E+000  0.405901E+000  0.000000E+000
-0.272572E+000  0.381146E+000  0.000000E+000
-0.253475E+000  0.356392E+000  0.000000E+000
-0.234378E+000  0.331638E+000  0.000000E+000
-0.215281E+000  0.306884E+000  0.000000E+000
-0.196184E+000  0.282130E+000  0.000000E+000
-0.177087E+000  0.257376E+000  0.000000E+000
-0.157990E+000  0.232622E+000  0.000000E+000
-0.138893E+000  0.207867E+000  0.000000E+000
 0.100000E+001 -0.718750E+000  0.000000E+000
 0.975350E+000 -0.700469E+000  0.000000E+000
 0.950701E+000 -0.682187E+000  0.000000E+000
 0.926051E+000 -0.663906E+000  0.000000E+000
 0.901402E+000 -0.645625E+000  0.000000E+000
 0.876752E+000 -0.627344E+000  0.000000E+000
 0.852103E+000 -0.609062E+000  0.000000E+000
 0.827453E+000 -0.590781E+000  0.000000E+000
 0.802803E+000 -0.572500E+000  0.000000E+000
 0.778154E+000 -0.554219E+000  0.000000E+000
 0.753504E+000 -0.535937E+000  0.000000E+000
 0.728855E+000 -0.517656E+000  0.000000E+000
 0.704205E+000 -0.499375E+000  0.000000E+000
 0.679555E+000 -0.481094E+000  0.000000E+000
 0.654906E+000 -0.462812E+000  0.000000E+000
 0.630256E+000 -0.444531E+000  0.000000E+000
 0.605607E+000 -0.426250E+000  0.000000E+000
 0.580957E+000 -0.407968E+000  0.000000E+000
 0.556308E+000 -0.389687E+000  0.000000E+000
 0.531658E+000 -0.371406E+000  0.000000E+000
 0.507008E+000 -0.353125E+000  0.000000E+000
 0.482359E+000 -0.334843E+000  0.000000E+000
 0.457709E+000 -0.316562E+000  0.000000E+000
 0.433060E+000 -0.298281E+000  0.000000E+000
 0.408410E+000 -0.280000E+000  0.000000E+000
 0.383760E+000 -0.261718E+000  0.000000E+000
 0.359111E+000 -0.243437E+000  0.000000E+000
 0.334461E+000 -0.225156E+000  0.000000E+000
 0.309812E+000 -0.206874E+000  0.000000E+000
 0.285162E+000 -0.188593E+000  0.000000E+000
 0.260513E+000 -0.170312E+000  0.000000E+000
 0.235863E+000 -0.152031E+000  0.000000E+000
 0.211213E+000 -0.133749E+000  0.000000E+000
-0.718750E+000  0.100000E+001  0.000000E+000
-0.700469E+000  0.975350E+000  0.000000E+000
-0.682187E+000  0.950701E+000  0.000000E+000
-0.663906E+000  0.926051E+000  0.000000E+000
-0.645625E+000  0.901402E+000  0.000000E+000
-0.627344E+000  0.876752E+000  0.000000E+000
-0.609062E+000  0.852103E+000  0.000000E+000
-0.590781E+000  0.827453E+000  0.000000E+000
-0.572500E+000  0.802803E+000  0.000000E+000
-0.554219E+000  0.778154E+000  0.000000E+000
-0.535937E+000  0.753504E+000  0.000000E+000
-0.517656E+000  0.728855E+000  0.000000E+000
-0.499375E+000  0.704205E+000  0.000000E+000
-0.481094E+000  0.679555E+000  0.000000E+000
-0.462812E+000  0.654906E+000  0.000000E+000
-0.444531E+000  0.630256E+000  0.000000E+000
-0.426250E+000  0.605607E+000  0.000000E+000
-0.407968E+000  0.580957E+000  0.000000E+000
-0.389687E+000  0.556308E+000  0.000000E+000
-0.371406E+000  0.531658E+000  0.000000E+000
-0.353125E+000  0.507008E+000  0.000000E+000
-0.334843E+000  0.482359E+000  0.000000E+000
-0.316562E+000  0.457709E+000  0.000000E+000
-0.298281E+000  0.433060E+000  0.000000E+000
-0.280000E+000  0.408410E+000  0.000000E+000
-0.261718E+000  0.383760E+000  0.000000E+000
-0.243437E+000  0.359111E+000  0.000000E+000
-0.225156E+000  0.334461E+000  0.000000E+000
-0.206874E+000  0.309812E+000  0.000000E+000
-0.188593E+000  0.285162E+000  0.000000E+000
-0.170312E+000  0.260513E+000  0.000000E+000
-0.152031E+000  0.235863E+000  0.000000E+000
-0.133749E+000  0.211213E+000  0.000000E+000
 0.100000E+001 -0.687500E+000  0.000000E+000
 0.975451E+000 -0.670032E+000  0.000000E+000
 0.950902E+000 -0.652564E+000  0.000000E+000
 0.926353E+000 -0.635096E+000  0.000000E+000
 0.901804E+000 -0.617628E+000  0.000000E+000
 0.877255E+000 -0.600160E+000  0.000000E+000
 0.852706E+000 -0.582692E+000  0.000000E+000
 0.828157E+000 -0.565224E+000  0.000000E+000
 0.803608E+000 -0.547756E+000  0.000000E+000
 0.779059E+000 -0.530288E+000  0.000000E+000
 0.754510E+000 -0.512821E+000  0.000000E+000
 0.729961E+000 -0.495353E+000  0.000000E+000
 0.705412E+000 -0.477885E+000  0.000000E+000
 0.680863E+000 -0.460417E+000  0.000000E+000
 0.656314E+000 -0.442949E+000  0.000000E+000
 0.631765E+000 -0.425481E+000  0.000000E+000
 0.607216E+000 -0.408013E+000  0.000000E+000
 0.582667E+000 -0.390545E+000  0.000000E+000
 0.558118E+000 -0.373077E+000  0.000000E+000
 0.533569E+000 -0.355609E+000  0.000000E+000
 0.509020E+000 -0.338141E+000  0.000000E+000
 0.484471E+000 -0.320673E+000  0.000000E+000
 0.459922E+000 -0.303205E+000  0.000000E+000
 0.435373E+000 -0.285737E+000  0.000000E+000
 0.410824E+000 -0.268269E+000  0.000000E+000
 0.386275E+000 -0.250801E+000  0.000000E+000
 0.361726E+000 -0.233333E+000  0.000000E+000
 0.337177E+000 -0.215865E+000  0.000000E+000
 0.312628E+000 -0.198397E+000  0.000000E+000
 0.288079E+000 -0.180930E+000  0.000000E+000
 0.263530E+000 -0.163462E+000  0.000000E+000
 0.238981E+000 -0.145994E+000  0.000000E+000
 0.214432E+000 -0.128526E+000  0.000000E+000
-0.687500E+000  0.100000E+001  0.000000E+000
-0.670032E+000  0.975451E+000  0.000000E+000
-0.652564E+000  0.950902E+000  0.000000E+000
-0.635096E+000  0.926353E+000  0.000000E+000
-0.617628E+000  0.901804E+000  0.000000E+000
-0.600160E+000  0.877255E+000  0.000000E+000
-0.582692E+000  0.852706E+000  0.000000E+000
-0.565224E+000  0.828157E+000  0.000000E+000
-0.547756E+000  0.803608E+000  0.000000E+000
-0.530288E+000  0.779059E+000  0.000000E+000
-0.512821E+000  0.754510E+000  0.000000E+000
-0.495353E+000  0.729961E+000  0.000000E+000
-0.477885E+000  0.705412E+000  0.000000E+000
-0.460417E+000  0.680863E+000  0.000000E+000
-0.442949E+000  0.656314E+000  0.000000E+000
-0.425481E+000  0.631765E+000  0.000000E+000
-0.408013E+000  0.607216E+000  0.000000E+000
-0.390545E+000  0.582667E+000  0.000000E+000
-0.373077E+000  0.558118E+000  0.000000E+000
-0.355609E+000  0.533569E+000  0.000000E+000
-0.338141E+000  0.509020E+000  0.000000E+000
-0.320673E+000  0.484471E+000  0.000000E+000
-0.303205E+000  0.459922E+000  0.000000E+000
-0.285737E+000  0.435373E+000  0.000000E+000
-0.268269E+000  0.410824E+000  0.000000E+000
-0.250801E+000  0.386275E+000  0.000000E+000
-0.233333E+000  0.361726E+000  0.000000E+000
-0.215865E+000  0.337177E+000  0.000000E+000
-0.198397E+000  0.312628E+000  0.000000E+000
-0.180930E+000  0.288079E+000  0.000000E+000
-0.163462E+000  0.263530E+000  0.000000E+000
-0.145994E+000  0.238981E+000  0.000000E+000
-0.128526E+000  0.214432E+000  0.000000E+000
 0.100000E+001 -0.656250E+000  0.000000E+000
 0.975548E+000 -0.639593E+000  0.000000E+000
 0.951095E+000 -0.622936E+000  0.000000E+000
 0.926643E+000 -0.606279E+000  0.000000E+000
 0.902190E+000 -0.589622E+000  0.000000E+000
 0.877738E+000 -0.572965E+000  0.000000E+000
 0.853285E+000 -0.556308E+000  0.000000E+000
 0.828833E+000 -0.539651E+000  0.000000E+000
 0.804380E+000 -0.522994E+000  0.000000E+000
 0.779928E+000 -0.506337E+000  0.000000E+000
 0.755476E+000 -0.489680E+000  0.000000E+000
 0.731023E+000 -0.473023E+000  0.000000E+000
 0.706571E+000 -0.456365E+000  0.000000E+000
 0.682118E+000 -0.439708E+000  0.000000E+000
 0.657666E+000 -0.423051E+000  0.000000E+000
 0.633213E+000 -0.406394E+000  0.000000E+000
 0.608761E+000 -0.389737E+000  0.000000E+000
 0.584308E+000 -0.373080E+000  0.000000E+000
 0.559856E+000 -0.356423E+000  0.000000E+000
 0.535404E+000 -0.339766E+000  0.000000E+000
 0.510951E+000 -0.323109E+000  0.000000E+000
 0.486499E+000 -0.306452E+000  0.000000E+000
 0.462046E+000 -0.289795E+000  0.000000E+000
 0.437594E+000 -0.273138E+000  0.000000E+000
 0.413141E+000 -0.256481E+000  0.000000E+000
 0.388689E+000 -0.239824E+000  0.000000E+000
 0.364236E+000 -0.223167E+000  0.000000E+000
 0.339784E+000 -0.206510E+000  0.000000E+000
 0.315332E+000 -0.189853E+000  0.000000E+000
 0.290879E+000 -0.173196E+000  0.000000E+000
 0.266427E+000 -0.156539E+000  0.000000E+000
 0.241974E+000 -0.139882E+000  0.000000E+000
 0.217522E+000 -0.123225E+000  0.000000E+000
-0.656250E+000  0.100000E+001  0.000000E+000
-0.639593E+000  0.975548E+000  0.000000E+000
-0.622936E+000  0.951095E+000  0.000000E+000
-0.606279E+000  0.926643E+000  0.000000E+000
-0.589622E+000  0.902190E+000  0.000000E+000
-0.572965E+000  0.877738E+000  0.000000E+000
-0.556308E+000  0.853285E+000  0.000000E+000
-0.539651E+000  0.828833E+000  0.000000E+000
-0.522994E+000  0.804380E+000  0.000000E+000
-0.506337E+000  0.779928E+000  0.000000E+000
-0.489680E+000  0.755476E+000  0.000000E+000
-0.473023E+000  0.731023E+000  0.000000E+000
-0.456365E+000  0.706571E+000  0.000000E+000
-0.439708E+000  0.682118E+000  0.000000E+000
-0.423051E+000  0.657666E+000  0.000000E+000
-0.406394E+000  0.633213E+000  0.000000E+000
-0.389737E+000  0.608761E+000  0.000000E+000
-0.373080E+000  0.584308E+000  0.000000E+000
-0.356423E+000  0.559856E+000  0.000000E+000
-0.339766E+000  0.535404E+000  0.000000E+000
-0.323109E+000  0.510951E+000  0.000000E+000
-0.306452E+000  0.486499E+000  0.000000E+000
-0.289795E+000  0.462046E+000  0.000000E+000
-0.273138E+000  0.437594E+000  0.000000E+000
-0.256481E+000  0.413141E+000  0.000000E+000
-0.239824E+000  0.388689E+000  0.000000E+000
-0.223167E+000  0.364236E+000  0.000000E+000
-0.206510E+000  0.339784E+000  0.000000E+000
-0.189853E+000  0.315332E+000  0.000000E+000
-0.173196E+000  0.290879E+000  0.000000E+000
-0.156539E+000  0.266427E+000  0.000000E+000
-0.139882E+000  0.241974E+000  0.000000E+000
-0.123225E+000  0.217522E+000  0.000000E+000
 0.100000E+001 -0.625000E+000  0.000000E+000
 0.975640E+000 -0.609152E+000  0.000000E+000
 0.951280E+000 -0.593303E+000  0.000000E+000
 0.926920E+000 -0.577455E+000  0.000000E+000
 0.902560E+000 -0.561606E+000  0.000000E+000
 0.878200E+000 -0.545758E+000  0.000000E+000
 0.853840E+000 -0.529909E+000  0.000000E+000
 0.829480E+000 -0.514061E+000  0.000000E+000
 0.805120E+000 -0.498212E+000  0.000000E+000
 0.780760E+000 -0.482364E+000  0.000000E+000
 0.756400E+000 -0.466515E+000  0.000000E+000
 0.732040E+000 -0.450667E+000  0.000000E+000
 0.707680E+000 -0.434818E+000  0.000000E+000
 0.683320E+000 -0.418970E+000  0.000000E+000
 0.658960E+000 -0.403122E+000  0.000000E+000
 0.634600E+000 -0.387273E+000  0.000000E+000
 0.610240E+000 -0.371425E+000  0.000000E+000
 0.585880E+000 -0.355576E+000  0.000000E+000
 0.561520E+000 -0.339728E+000  0.000000E+000
 0.537160E+000 -0.323879E+000  0.000000E+000
 0.512800E+000 -0.308031E+000  0.000000E+000
 0.488440E+000 -0.292182E+000  0.000000E+000
 0.464080E+000 -0.276334E+000  0.000000E+000
 0.439720E+000 -0.260485E+000  0.000000E+000
 0.415360E+000 -0.244637E+000  0.000000E+000
 0.391000E+000 -0.228788E+000  0.000000E+000
 0.366640E+000 -0.212940E+000  0.000000E+000
 0.342280E+000 -0.197091E+000  0.000000E+000
 0.317920E+000 -0.181243E+000  0.000000E+000
 0.293560E+000 -0.165395E+000  0.000000E+000
 0.269200E+000 -0.149546E+000  0.000000E+000
 0.244840E+000 -0.133698E+000  0.000000E+000
 0.220480E+000 -0.117849E+000  0.000000E+000
-0.625000E+000  0.100000E+001  0.000000E+000
-0.609152E+000  0.975640E+000  0.000000E+000
-0.593303E+000  0.951280E+000  0.000000E+000
-0.577455E+000  0.926920E+000  0.000000E+000
-0.561606E+000  0.902560E+000  0.000000E+000
-0.545758E+000  0.878200E+000  0.000000E+000
-0.529909E+000  0.853840E+000  0.000000E+000
-0.514061E+000  0.829480E+000  0.000000E+000
-0.498212E+000  0.805120E+000  0.000000E+000
-0.482364E+000  0.780760E+000  0.000000E+000
-0.466515E+000  0.756400E+000  0.000000E+000
-0.450667E+000  0.732040E+000  0.000000E+000
-0.434818E+000  0.707680E+000  0.000000E+000
-0.418970E+000  0.683320E+000  0.000000E+000
-0.403122E+000  0.658960E+000  0.000000E+000
-0.387273E+000  0.634600E+000  0.000000E+000
-0.371425E+000  0.610240E+000  0.000000E+000
-0.355576E+000  0.585880E+000  0.000000E+000
-0.339728E+000  0.561520E+000  0.000000E+000
-0.323879E+000  0.537160E+000  0.000000E+000
-0.308031E+000  0.512800E+000  0.000000E+000
-0.292182E+000  0.488440E+000  0.000000E+000
-0.276334E+000  0.464080E+000  0.000000E+000
-0.260485E+000  0.439720E+000  0.000000E+000
-0.244637E+000  0.415360E+000  0.000000E+000
-0.228788E+000  0.391000E+000  0.000000E+000
-0.212940E+000  0.366640E+000  0.000000E+000
-0.197091E+000  0.342280E+000  0.000000E+000
-0.181243E+000  0.317920E+000  0.000000E+000
-0.165395E+000  0.293560E+000  0.000000E+000
-0.149546E+000  0.269200E+000  0.000000E+000
-0.133698E+000  0.244840E+000  0.000000E+000
-0.117849E+000  0.220480E+000  0.000000E+000
 0.100000E+001 -0.593750E+000  0.000000E+000
 0.975728E+000 -0.578708E+000  0.000000E+000
 0.951457E+000 -0.563666E+000  0.000000E+000
 0.927185E+000 -0.548624E+000  0.000000E+000
 0.902913E+000 -0.533582E+000  0.000000E+000
 0.878642E+000 -0.518540E+000  0.000000E+000
 0.854370E+000 -0.503497E+000  0.000000E+000
 0.830098E+000 -0.488455E+000  0.000000E+000
 0.805827E+000 -0.473413E+000  0.000000E+000
 0.781555E+000 -0.458371E+000  0.000000E+000
 0.757283E+000 -0.443329E+000  0.000000E+000
 0.733011E+000 -0.428287E+000  0.000000E+000
 0.708740E+000 -0.413245E+000  0.000000E+000
 0.684468E+000 -0.398203E+000  0.000000E+000
 0.660196E+000 -0.383161E+000  0.000000E+000
 0.635925E+000 -0.368119E+000  0.000000E+000
 0.611653E+000 -0.353076E+000  0.000000E+000
 0.587381E+000 -0.338034E+000  0.000000E+000
 0.563110E+000 -0.322992E+000  0.000000E+000
 0.538838E+000 -0.307950E+000  0.000000E+000
 0.514566E+000 -0.292908E+000  0.000000E+000
 0.490295E+000 -0.277866E+000  0.000000E+000
 0.466023E+000 -0.262824E+000  0.000000E+000
 0.441751E+000 -0.247782E+000  0.000000E+000
 0.417480E+000 -0.232740E+000  0.000000E+000
 0.393208E+000 -0.217698E+000  0.000000E+000
 0.368936E+000 -0.202655E+000  0.000000E+000
 0.344665E+000 -0.187613E+000  0.000000E+000
 0.320393E+000 -0.172571E+000  0.000000E+000
 0.296121E+000 -0.157529E+000  0.000000E+000
 0.271849E+000 -0.142487E+000  0.000000E+000
 0.247578E+000 -0.127445E+000  0.000000E+000
 0.223306E+000 -0.112403E+000  0.000000E+000
-0.593750E+000  0.100000E+001  0.000000E+000
-0.578708E+000  0.975728E+000  0.000000E+000
-0.563666E+000  0.951457E+000  0.000000E+000
-0.548624E+000  0.927185E+000  0.000000E+000
-0.533582E+000  0.902913E+000  0.000000E+000
-0.518540E+000  0.878642E+000  0.000000E+000
-0.503497E+000  0.854370E+000  0.000000E+000
-0.488455E+000  0.830098E+000  0.000000E+000
-0.473413E+000  0.805827E+000  0.000000E+000
-0.458371E+000  0.781555E+000  0.000000E+000
-0.443329E+000  0.757283E+000  0.000000E+000
-0.428287E+000  0.733011E+000  0.000000E+000
-0.413245E+000  0.708740E+000  0.000000E+000
-0.398203E+000  0.684468E+000  0.000000E+000
-0.383161E+000  0.660196E+000  0.000000E+000
-0.368119E+000  0.635925E+000  0.000000E+000
-0.353076E+000  0.611653E+000  0.000000E+000
-0.338034E+000  0.587381E+000  0.000000E+000
-0.322992E+000  0.563110E+000  0.000000E+000
-0.307950E+000  0.538838E+000  0.000000E+000
-0.292908E+000  0.514566E+000  0.000000E+000
-0.277866E+000  0.490295E+000  0.000000E+000
-0.262824E+000  0.466023E+000  0.000000E+000
-0.247782E+000  0.441751E+000  0.000000E+000
-0.232740E+000  0.417480E+000  0.000000E+000
-0.217698E+000  0.393208E+000  0.000000E+000
-0.202655E+000  0.368936E+000  0.000000E+000
-0.187613E+000  0.344665E+000  0.000000E+000
-0.172571E+000  0.320393E+000  0.000000E+000
-0.157529E+000  0.296121E+000  0.000000E+000
-0.142487E+000  0.271849E+000  0.000000E+000
-0.127445E+000  0.247578E+000  0.000000E+000
-0.112403E+000  0.223306E+000  0.000000E+000
 0.100000E+001 -0.562500E+000  0.000000E+000
 0.975812E+000 -0.548262E+000  0.000000E+000
 0.951625E+000 -0.534024E+000  0.000000E+000
 0.927437E+000 -0.519786E+000  0.000000E+000
 0.903250E+000 -0.505549E+000  0.000000E+000
 0.879062E+000 -0.491311E+000  0.000000E+000
 0.854874E+000 -0.477073E+000  0.000000E+000
 0.830687E+000 -0.462835E+000  0.000000E+000
 0.806499E+000 -0.448597E+000  0.000000E+000
 0.782312E+000 -0.434359E+000  0.000000E+000
 0.758124E+000 -0.420121E+000  0.000000E+000
 0.733937E+000 -0.405884E+000  0.000000E+000
 0.709749E+000 -0.391646E+000  0.000000E+000
 0.685561E+000 -0.377408E+000  0.000000E+000
 0.661374E+000 -0.363170E+000  0.000000E+000
 0.637186E+000 -0.348932E+000  0.000000E+000
 0.612999E+000 -0.334694E+000  0.000000E+000
 0.588811E+000 -0.320457E+000  0.000000E+000
 0.564623E+000 -0.306219E+000  0.000000E+000
 0.540436E+000 -0.291981E+000  0.000000E+000
 0.516248E+000 -0.277743E+000  0.000000E+000
 0.492061E+000 -0.263505E+000  0.000000E+000
 0.467873E+000 -0.249267E+000  0.000000E+000
 0.443686E+000 -0.235029E+000  0.000000E+000
 0.419498E+000 -0.220792E+000  0.000000E+000
 0.395310E+000 -0.206554E+000  0.000000E+000
 0.371123E+000 -0.192316E+000  0.000000E+000
 0.346935E+000 -0.178078E+000  0.000000E+000
 0.322748E+000 -0.163840E+000  0.000000E+000
 0.298560E+000 -0.149602E+000  0.000000E+000
 0.274372E+000 -0.135364E+000  0.000000E+000
 0.250185E+000 -0.121127E+000  0.000000E+000
 0.225997E+000 -0.106889E+000  0.000000E+000
-0.562500E+000  0.100000E+001  0.000000E+000
-0.548262E+000  0.975812E+000  0.000000E+000
-0.534024E+000  0.951625E+000  0.000000E+000
-0.519786E+000  0.927437E+000  0.000000E+000
-0.505549E+000  0.903250E+000  0.000000E+000
-0.491311E+000  0.879062E+000  0.000000E+000
-0.477073E+000  0.854874E+000  0.000000E+000
-0.462835E+000  0.830687E+000  0.000000E+000
-0.448597E+000  0.806499E+000  0.000000E+000
-0.434359E+000  0.782312E+000  0.000000E+000
-0.420121E+000  0.758124E+000  0.000000E+000
-0.405884E+000  0.733937E+000  0.000000E+000
-0.391646E+000  0.709749E+000  0.000000E+000
-0.377408E+000  0.685561E+000  0.000000E+000
-0.363170E+000  0.661374E+000  0.000000E+000
-0.348932E+000  0.637186E+000  0.000000E+000
-0.334694E+000  0.612999E+000  0.000000E+000
-0.320457E+000  0.588811E+000  0.000000E+000
-0.306219E+000  0.564623E+000  0.000000E+000
-0.291981E+000  0.540436E+000  0.000000E+000
-0.277743E+000  0.516248E+000  0.000000E+000
-0.263505E+000  0.492061E+000  0.000000E+000
-0.249267E+000  0.467873E+000  0.000000E+000
-0.235029E+000  0.443686E+000  0.000000E+000
-0.220792E+000  0.419498E+000  0.000000E+000
-0.206554E+000  0.395310E+000  0.000000E+000
-0.192316E+000  0.371123E+000  0.000000E+000
-0.178078E+000  0.346935E+000  0.000000E+000
-0.163840E+000  0.322748E+000  0.000000E+000
-0.149602E+000  0.298560E+000  0.000000E+000
-0.135364E+000  0.274372E+000  0.000000E+000
-0.121127E+000  0.250185E+000  0.000000E+000
-0.106889E+000  0.225997E+000  0.000000E+000
 0.100000E+001 -0.531250E+000  0.000000E+000
 0.975892E+000 -0.517814E+000  0.000000E+000
 0.951785E+000 -0.504379E+000  0.000000E+000
 0.927677E+000 -0.490943E+000  0.000000E+000
 0.903569E+000 -0.477508E+000  0.000000E+000
 0.879461E+000 -0.464072E+000  0.000000E+000
 0.855354E+000 -0.450636E+000  0.000000E+000
 0.831246E+000 -0.437201E+000  0.000000E+000
 0.807138E+000 -0.423765E+000  0.000000E+000
 0.783030E+000 -0.410329E+000  0.000000E+000
 0.758923E+000 -0.396894E+000  0.000000E+000
 0.734815E+000 -0.383458E+000  0.000000E+000
 0.710707E+000 -0.370023E+000  0.000000E+000
 0.686599E+000 -0.356587E+000  0.000000E+000
 0.662492E+000 -0.343151E+000  0.000000E+000
 0.638384E+000 -0.329716E+000  0.000000E+000
 0.614276E+000 -0.316280E+000  0.000000E+000
 0.590168E+000 -0.302845E+000  0.000000E+000
 0.566061E+000 -0.289409E+000  0.000000E+000
 0.541953E+000 -0.275973E+000  0.000000E+000
 0.517845E+000 -0.262538E+000  0.000000E+000
 0.493738E+000 -0.249102E+000  0.000000E+000
 0.469630E+000 -0.235666E+000  0.000000E+000
 0.445522E+000 -0.222231E+000  0.000000E+000
 0.421414E+000 -0.208795E+000  0.000000E+000
 0.397307E+000 -0.195360E+000  0.000000E+000
 0.373199E+000 -0.181924E+000  0.000000E+000
 0.349091E+000 -0.168488E+000  0.000000E+000
 0.324983E+000 -0.155053E+000  0.000000E+000
 0.300876E+000 -0.141617E+000  0.000000E+000
 0.276768E+000 -0.128182E+000  0.000000E+000
 0.252660E+000 -0.114746E+000  0.000000E+000
 0.228552E+000 -0.101310E+000  0.000000E+000
-0.531250E+000  0.100000E+001  0.000000E+000
-0.517814E+000  0.975892E+000  0.000000E+000
-0.504379E+000  0.951785E+000  0.000000E+000
-0.490943E+000  0.927677E+000  0.000000E+000
-0.477508E+000  0.903569E+000  0.000000E+000
-0.464072E+000  0.879461E+000  0.000000E+000
-0.450636E+000  0.855354E+000  0.000000E+000
-0.437201E+000  0.831246E+000  0.000000E+000
-0.423765E+000  0.807138E+000  0.000000E+000
-0.410329E+000  0.783030E+000  0.000000E+000
-0.396894E+000  0.758923E+000  0.000000E+000
-0.383458E+000  0.734815E+000  0.000000E+000
-0.370023E+000  0.710707E+000  0.000000E+000
-0.356587E+000  0.686599E+000  0.000000E+000
-0.343151E+000  0.662492E+000  0.000000E+000
-0.329716E+000  0.638384E+000  0.000000E+000
-0.316280E+000  0.614276E+000  0.000000E+000
-0.302845E+000  0.590168E+000  0.000000E+000
-0.289409E+000  0.566061E+000  0.000000E+000
-0.275973E+000  0.541953E+000  0.000000E+000
-0.262538E+000  0.517845E+000  0.000000E+000
-0.249102E+000  0.493738E+000  0.000000E+000
-0.235666E+000  0.469630E+000  0.000000E+000
-0.222231E+000  0.445522E+000  0.000000E+000
-0.208795E+000  0.421414E+000  0.000000E+000
-0.195360E+000  0.397307E+000  0.000000E+000
-0.181924E+000  0.373199E+000  0.000000E+000
-0.168488E+000  0.349091E+000  0.000000E+000
-0.155053E+000  0.324983E+000  0.000000E+000
-0.141617E+000  0.300876E+000  0.000000E+000
-0.128182E+000  0.276768E+000  0.000000E+000
-0.114746E+000  0.252660E+000  0.000000E+000
-0.101310E+000  0.228552E+000  0.000000E+000
 0.100000E+001 -0.500000E+000  0.000000E+000
 0.975968E+000 -0.487365E+000  0.000000E+000
 0.951936E+000 -0.474729E+000  0.000000E+000
 0.927903E+000 -0.462094E+000  0.000000E+000
 0.903871E+000 -0.449459E+000  0.000000E+000
 0.879839E+000 -0.436824E+000  0.000000E+000
 0.855807E+000 -0.424188E+000  0.000000E+000
 0.831775E+000 -0.411553E+000  0.000000E+000
 0.807742E+000 -0.398918E+000  0.000000E+000
 0.783710E+000 -0.386282E+000  0.000000E+000
 0.759678E+000 -0.373647E+000  0.000000E+000
 0.735646E+000 -0.361012E+000  0.000000E+000
 0.711614E+000 -0.348377E+000  0.000000E+000
 0.687582E+000 -0.335741E+000  0.000000E+000
 0.663549E+000 -0.323106E+000  0.000000E+000
 0.639517E+000 -0.310471E+000  0.000000E+000
 0.615485E+000 -0.297835E+000  0.000000E+000
 0.591453E+000 -0.285200E+000  0.000000E+000
 0.567421E+000 -0.272565E+000  0.000000E+000
 0.543388E+000 -0.259930E+000  0.000000E+000
 0.519356E+000 -0.247294E+000  0.000000E+000
 0.495324E+000 -0.234659E+000  0.000000E+000
 0.471292E+000 -0.222024E+000  0.000000E+000
 0.447260E+000 -0.209388E+000  0.000000E+000
 0.423227E+000 -0.196753E+000  0.000000E+000
 0.399195E+000 -0.184118E+000  0.000000E+000
 0.375163E+000 -0.171483E+000  0.000000E+000
 0.351131E+000 -0.158847E+000  0.000000E+000
 0.327099E+000 -0.146212E+000  0.000000E+000
 0.303066E+000 -0.133577E+000  0.000000E+000
 0.279034E+000 -0.120941E+000  0.000000E+000
 0.255002E+000 -0.108306E+000  0.000000E+000
 0.230970E+000 -0.956709E-001  0.000000E+000
-0.500000E+000  0.100000E+001  0.000000E+000
-0.487365E+000  0.975968E+000  0.000000E+000
-0.474729E+000  0.951936E+000  0.000000E+000
-0.462094E+000  0.927903E+000  0.000000E+000
-0.449459E+000  0.903871E+000  0.000000E+000
-0.436824E+000  0.879839E+000  0.000000E+000
-0.424188E+000  0.855807E+000  0.000000E+000
-0.411553E+000  0.831775E+000  0.000000E+000
-0.398918E+000  0.807742E+000  0.000000E+000
-0.386282E+000  0.783710E+000  0.000000E+000
-0.373647E+000  0.759678E+000  0.000000E+000
-0.361012E+000  0.735646E+000  0.000000E+000
-0.348377E+000  0.711614E+000  0.000000E+000
-0.335741E+000  0.687582E+000  0.000000E+000
-0.323106E+000  0.663549E+000  0.000000E+000
-0.310471E+000  0.639517E+000  0.000000E+000
-0.297835E+000  0.615485E+000  0.000000E+000
-0.285200E+000  0.591453E+000  0.000000E+000
-0.272565E+000  0.567421E+000  0.000000E+000
-0.259930E+000  0.543388E+000  0.000000E+000
-0.247294E+000  0.519356E+000  0.000000E+000
-0.234659E+000  0.495324E+000  0.000000E+000
-0.222024E+000  0.471292E+000  0.000000E+000
-0.209388E+000  0.447260E+000  0.000000E+000
-0.196753E+000  0.423227E+000  0.000000E+000
-0.184118E+000  0.399195E+000  0.000000E+000
-0.171483E+000  0.375163E+000  0.000000E+000
-0.158847E+000  0.351131E+000  0.000000E+000
-0.146212E+000  0.327099E+000  0.000000E+000
-0.133577E+000  0.303066E+000  0.000000E+000
-0.120941E+000  0.279034E+000  0.000000E+000
-0.108306E+000  0.255002E+000  0.000000E+000
-0.956709E-001  0.230970E+000  0.000000E+000
 0.100000E+001 -0.468750E+000  0.000000E+000
 0.976039E+000 -0.456913E+000  0.000000E+000
 0.952078E+000 -0.445076E+000  0.000000E+000
 0.928117E+000 -0.433240E+000  0.000000E+000
 0.904156E+000 -0.421403E+000  0.000000E+000
 0.880195E+000 -0.409566E+000  0.000000E+000
 0.856234E+000 -0.397729E+000  0.000000E+000
 0.832273E+000 -0.385893E+000  0.000000E+000
 0.808312E+000 -0.374056E+000  0.000000E+000
 0.784351E+000 -0.362219E+000  0.000000E+000
 0.760390E+000 -0.350382E+000  0.000000E+000
 0.736429E+000 -0.338546E+000  0.000000E+000
 0.712468E+000 -0.326709E+000  0.000000E+000
 0.688507E+000 -0.314872E+000  0.000000E+000
 0.664546E+000 -0.303035E+000  0.000000E+000
 0.640585E+000 -0.291199E+000  0.000000E+000
 0.616624E+000 -0.279362E+000  0.000000E+000
 0.592663E+000 -0.267525E+000  0.000000E+000
 0.568702E+000 -0.255688E+000  0.000000E+000
 0.544741E+000 -0.243852E+000  0.000000E+000
 0.520780E+000 -0.232015E+000  0.000000E+000
 0.496819E+000 -0.220178E+000  0.000000E+000
 0.472858E+000 -0.208341E+000  0.000000E+000
 0.448897E+000 -0.196505E+000  0.000000E+000
 0.424936E+000 -0.184668E+000  0.000000E+000
 0.400975E+000 -0.172831E+000  0.000000E+000
 0.377014E+000 -0.160994E+000  0.000000E+000
 0.353053E+000 -0.149158E+000  0.000000E+000
 0.329092E+000 -0.137321E+000  0.000000E+000
 0.305131E+000 -0.125484E+000  0.000000E+000
 0.281170E+000 -0.113647E+000  0.000000E+000
 0.257209E+000 -0.101811E+000  0.000000E+000
 0.233248E+000 -0.899738E-001  0.000000E+000
-0.468750E+000  0.100000E+001  0.000000E+000
-0.456913E+000  0.976039E+000  0.000000E+000
-0.445076E+000  0.952078E+000  0.000000E+000
-0.433240E+000  0.928117E+000  0.000000E+000
-0.421403E+000  0.904156E+000  0.000000E+000
-0.409566E+000  0.880195E+000  0.000000E+000
-0.397729E+000  0.856234E+000  0.000000E+000
-0.385893E+000  0.832273E+000  0.000000E+000
-0.374056E+000  0.808312E+000  0.000000E+000
-0.362219E+000  0.784351E+000  0.000000E+000
-0.350382E+000  0.760390E+000  0.000000E+000
-0.338546E+000  0.736429E+000  0.000000E+000
-0.326709E+000  0.712468E+000  0.000000E+000
-0.314872E+000  0.688507E+000  0.000000E+000
-0.303035E+000  0.664546E+000  0.000000E+000
-0.291199E+000  0.640585E+000  0.000000E+000
-0.279362E+000  0.616624E+000  0.000000E+000
-0.267525E+000  0.592663E+000  0.000000E+000
-0.255688E+000  0.568702E+000  0.000000E+000
-0.243852E+000  0.544741E+000  0.000000E+000
-0.232015E+000  0.520780E+000  0.000000E+000
-0.220178E+000  0.496819E+000  0.000000E+000
-0.208341E+000  0.472858E+000  0.000000E+000
-0.196505E+000  0.448897E+000  0.000000E+000
-0.184668E+000  0.424936E+000  0.000000E+000
-0.172831E+000  0.400975E+000  0.000000E+000
-0.160994E+000  0.377014E+000  0.000000E+000
-0.149158E+000  0.353053E+000  0.000000E+000
-0.137321E+000  0.329092E+000  0.000000E+000
-0.125484E+000  0.305131E+000  0.000000E+000
-0.113647E+000  0.281170E+000  0.000000E+000
-0.101811E+000  0.257209E+000  0.000000E+000
-0.899738E-001  0.233248E+000  0.000000E+000
 0.100000E+001 -0.437500E+000  0.000000E+000
 0.976106E+000 -0.426460E+000  0.000000E+000
 0.952212E+000 -0.415420E+000  0.000000E+000
 0.928317E+000 -0.404380E+000  0.000000E+000
 0.904423E+000 -0.393340E+000  0.000000E+000
 0.880529E+000 -0.382300E+000  0.000000E+000
 0.856635E+000 -0.371260E+000  0.000000E+000
 0.832741E+000 -0.360221E+000  0.000000E+000
 0.808847E+000 -0.349181E+000  0.000000E+000
 0.784952E+000 -0.338141E+000  0.000000E+000
 0.761058E+000 -0.327101E+000  0.000000E+000
 0.737164E+000 -0.316061E+000  0.000000E+000
 0.713270E+000 -0.305021E+000  0.000000E+000
 0.689376E+000 -0.293981E+000  0.000000E+000
 0.665481E+000 -0.282941E+000  0.000000E+000
 0.641587E+000 -0.271901E+000  0.000000E+000
 0.617693E+000 -0.260861E+000  0.000000E+000
 0.593799E+000 -0.249821E+000  0.000000E+000
 0.569905E+000 -0.238781E+000  0.000000E+000
 0.546010E+000 -0.227741E+000  0.000000E+000
 0.522116E+000 -0.216702E+000  0.000000E+000
 0.498222E+000 -0.205662E+000  0.000000E+000
 0.474328E+000 -0.194622E+000  0.000000E+000
 0.450434E+000 -0.183582E+000  0.000000E+000
 0.426540E+000 -0.172542E+000  0.000000E+000
 0.402645E+000 -0.161502E+000  0.000000E+000
 0.378751E+000 -0.150462E+000  0.000000E+000
 0.354857E+000 -0.139422E+000  0.000000E+000
 0.330963E+000 -0.128382E+000  0.000000E+000
 0.307069E+000 -0.117342E+000  0.000000E+000
 0.283174E+000 -0.106302E+000  0.000000E+000
 0.259280E+000 -0.952624E-001  0.000000E+000
 0.235386E+000 -0.842225E-001  0.000000E+000
-0.437500E+000  0.100000E+001  0.000000E+000
-0.426460E+000  0.976106E+000  0.000000E+000
-0.415420E+000  0.952212E+000  0.000000E+000
-0.404380E+000  0.928317E+000  0.000000E+000
-0.393340E+000  0.904423E+000  0.000000E+000
-0.382300E+000  0.880529E+000  0.000000E+000
-0.371260E+000  0.856635E+000  0.000000E+000
-0.360221E+000  0.832741E+000  0.000000E+000
-0.349181E+000  0.808847E+000  0.000000E+000
-0.338141E+000  0.784952E+000  0.000000E+000
-0.327101E+000  0.761058E+000  0.000000E+000
-0.316061E+000  0.737164E+000  0.000000E+000
-0.305021E+000  0.713270E+000  0.000000E+000
-0.293981E+000  0.689376E+000  0.000000E+000
-0.282941E+000  0.665481E+000  0.000000E+000
-0.271901E+000  0.641587E+000  0.000000E+000
-0.260861E+000  0.617693E+000  0.000000E+000
-0.249821E+000  0.593799E+000  0.000000E+000
-0.238781E+000  0.569905E+000  0.000000E+000
-0.227741E+000  0.546010E+000  0.000000E+000
-0.216702E+000  0.522116E+000  0.000000E+000
-0.205662E+000  0.498222E+000  0.000000E+000
-0.194622E+000  0.474328E+000  0.000000E+000
-0.183582E+000  0.450434E+000  0.000000E+000
-0.172542E+000  0.426540E+000  0.000000E+000
-0.161502E+000  0.402645E+000  0.000000E+000
-0.150462E+000  0.378751E+000  0.000000E+000
-0.139422E+000  0.354857E+000  0.000000E+000
-0.128382E+000  0.330963E+000  0.000000E+000
-0.117342E+000  0.307069E+000  0.000000E+000
-0.106302E+000  0.283174E+000  0.000000E+000
-0.952624E-001  0.259280E+000  0.000000E+000
-0.842225E-001  0.235386E+000  0.000000E+000
 0.100000E+001 -0.406250E+000  0.000000E+000
 0.976168E+000 -0.396005E+000  0.000000E+000
 0.952336E+000 -0.385761E+000  0.000000E+000
 0.928505E+000 -0.375516E+000  0.000000E+000
 0.904673E+000 -0.365271E+000  0.000000E+000
 0.880841E+000 -0.355027E+000  0.000000E+000
 0.857009E+000 -0.344782E+000  0.000000E+000
 0.833177E+000 -0.334537E+000  0.000000E+000
 0.809346E+000 -0.324293E+000  0.000000E+000
 0.785514E+000 -0.314048E+000  0.000000E+000
 0.761682E+000 -0.303803E+000  0.000000E+000
 0.737850E+000 -0.293559E+000  0.000000E+000
 0.714018E+000 -0.283314E+000  0.000000E+000
 0.690186E+000 -0.273069E+000  0.000000E+000
 0.666355E+000 -0.262825E+000  0.000000E+000
 0.642523E+000 -0.252580E+000  0.000000E+000
 0.618691E+000 -0.242335E+000  0.000000E+000
 0.594859E+000 -0.232091E+000  0.000000E+000
 0.571027E+000 -0.221846E+000  0.000000E+000
 0.547196E+000 -0.211601E+000  0.000000E+000
 0.523364E+000 -0.201357E+000  0.000000E+000
 0.499532E+000 -0.191112E+000  0.000000E+000
 0.475700E+000 -0.180867E+000  0.000000E+000
 0.451868E+000 -0.170623E+000  0.000000E+000
 0.428037E+000 -0.160378E+000  0.000000E+000
 0.404205E+000 -0.150133E+000  0.000000E+000
 0.380373E+000 -0.139888E+000  0.000000E+000
 0.356541E+000 -0.129644E+000  0.000000E+000
 0.332709E+000 -0.119399E+000  0.000000E+000
 0.308877E+000 -0.109154E+000  0.000000E+000
 0.285046E+000 -0.989098E-001  0.000000E+000
 0.261214E+000 -0.886651E-001  0.000000E+000
 0.237382E+000 -0.784204E-001  0.000000E+000
-0.406250E+000  0.100000E+001  0.000000E+000
-0.396005E+000  0.976168E+000  0.000000E+000
-0.385761E+000  0.952336E+000  0.000000E+000
-0.375516E+000  0.928505E+000  0.000000E+000
-0.365271E+000  0.904673E+000  0.000000E+000
-0.355027E+000  0.880841E+000  0.000000E+000
-0.344782E+000  0.857009E+000  0.000000E+000
-0.334537E+000  0.833177E+000  0.000000E+000
-0.324293E+000  0.809346E+000  0.000000E+000
-0.314048E+000  0.785514E+000  0.000000E+000
-0.303803E+000  0.761682E+000  0.000000E+000
-0.293559E+000  0.737850E+000  0.000000E+000
-0.283314E+000  0.714018E+000  0.000000E+000
-0.273069E+000  0.690186E+000  0.000000E+000
-0.262825E+000  0.666355E+000  0.000000E+000
-0.252580E+000  0.642523E+000  0.000000E+000
-0.242335E+000  0.618691E+000  0.000000E+000
-0.232091E+000  0.594859E+000  0.000000E+000
-0.221846E+000  0.571027E+000  0.000000E+000
-0.211601E+000  0.547196E+000  0.000000E+000
-0.201357E+000  0.523364E+000  0.000000E+000
-0.191112E+000  0.499532E+000  0.000000E+000
-0.180867E+000  0.475700E+000  0.000000E+000
-0.170623E+000  0.451868E+000  0.000000E+000
-0.160378E+000  0.428037E+000  0.000000E+000
-0.150133E+000  0.404205E+000  0.000000E+000
-0.139888E+000  0.380373E+000  0.000000E+000
-0.129644E+000  0.356541E+000  0.000000E+000
-0.119399E+000  0.332709E+000  0.000000E+000
-0.109154E+000  0.308877E+000  0.000000E+000
-0.989098E-001  0.285046E+000  0.000000E+000
-0.886651E-001  0.261214E+000  0.000000E+000
-0.784204E-001  0.237382E+000  0.000000E+000
 0.100000E+001 -0.375000E+000  0.000000E+000
 0.976226E+000 -0.365549E+000  0.000000E+000
 0.952452E+000 -0.356098E+000  0.000000E+000
 0.928678E+000 -0.346647E+000  0.000000E+000
 0.904904E+000 -0.337196E+000  0.000000E+000
 0.881130E+000 -0.327745E+000  0.000000E+000
 0.857357E+000 -0.318295E+000  0.000000E+000
 0.833583E+000 -0.308844E+000  0.000000E+000
 0.809809E+000 -0.299393E+000  0.000000E+000
 0.786035E+000 -0.289942E+000  0.000000E+000
 0.762261E+000 -0.280491E+000  0.000000E+000
 0.738487E+000 -0.271040E+000  0.000000E+000
 0.714713E+000 -0.261589E+000  0.000000E+000
 0.690939E+000 -0.252138E+000  0.000000E+000
 0.667165E+000 -0.242687E+000  0.000000E+000
 0.643391E+000 -0.233236E+000  0.000000E+000
 0.619618E+000 -0.223786E+000  0.000000E+000
 0.595844E+000 -0.214335E+000  0.000000E+000
 0.572070E+000 -0.204884E+000  0.000000E+000
 0.548296E+000 -0.195433E+000  0.000000E+000
 0.524522E+000 -0.185982E+000  0.000000E+000
 0.500748E+000 -0.176531E+000  0.000000E+000
 0.476974E+000 -0.167080E+000  0.000000E+000
 0.453200E+000 -0.157629E+000  0.000000E+000
 0.429426E+000 -0.148178E+000  0.000000E+000
 0.405652E+000 -0.138727E+000  0.000000E+000
 0.381879E+000 -0.129277E+000  0.000000E+000
 0.358105E+000 -0.119826E+000  0.000000E+000
 0.334331E+000 -0.110375E+000  0.000000E+000
 0.310557E+000 -0.100924E+000  0.000000E+000
 0.286783E+000 -0.914730E-001  0.000000E+000
 0.263009E+000 -0.820221E-001  0.000000E+000
 0.239235E+000 -0.725712E-001  0.000000E+000
-0.375000E+000  0.100000E+001  0.000000E+000
-0.365549E+000  0.976226E+000  0.000000E+000
-0.356098E+000  0.952452E+000  0.000000E+000
-0.346647E+000  0.928678E+000  0.000000E+000
-0.337196E+000  0.904904E+000  0.000000E+000
-0.327745E+000  0.881130E+000  0.000000E+000
-0.318295E+000  0.857357E+000  0.000000E+000
-0.308844E+000  0.833583E+000  0.000000E+000
-0.299393E+000  0.809809E+000  0.000000E+000
-0.289942E+000  0.786035E+000  0.000000E+000
-0.280491E+000  0.762261E+000  0.000000E+000
-0.271040E+000  0.738487E+000  0.000000E+000
-0.261589E+000  0.714713E+000  0.000000E+000
-0.252138E+000  0.690939E+000  0.000000E+000
-0.242687E+000  0.667165E+000  0.000000E+000
-0.233236E+000  0.643391E+000  0.000000E+000
-0.223786E+000  0.619618E+000  0.000000E+000
-0.214335E+000  0.595844E+000  0.000000E+000
-0.204884E+000  0.572070E+000  0.000000E+000
-0.195433E+000  0.548296E+000  0.000000E+000
-0.185982E+000  0.524522E+000  0.000000E+000
-0.176531E+000  0.500748E+000  0.000000E+000
-0.167080E+000  0.476974E+000  0.000000E+000
-0.157629E+000  0.453200E+000  0.000000E+000
-0.148178E+000  0.429426E+000  0.000000E+000
-0.138727E+000  0.405652E+000  0.000000E+000
-0.129277E+000  0.381879E+000  0.000000E+000
-0.119826E+000  0.358105E+000  0.000000E+000
-0.110375E+000  0.334331E+000  0.000000E+000
-0.100924E+000  0.310557E+000  0.000000E+000
-0.914730E-001  0.286783E+000  0.000000E+000
-0.820221E-001  0.263009E+000  0.000000E+000
-0.725712E-001  0.239235E+000  0.000000E+000
 0.100000E+001 -0.343750E+000  0.000000E+000
 0.976280E+000 -0.335092E+000  0.000000E+000
 0.952559E+000 -0.326433E+000  0.000000E+000
 0.928839E+000 -0.317775E+000  0.000000E+000
 0.905118E+000 -0.309116E+000  0.000000E+000
 0.881398E+000 -0.300458E+000  0.000000E+000
 0.857677E+000 -0.291799E+000  0.000000E+000
 0.833957E+000 -0.283141E+000  0.000000E+000
 0.810236E+000 -0.274482E+000  0.000000E+000
 0.786516E+000 -0.265824E+000  0.000000E+000
 0.762795E+000 -0.257165E+000  0.000000E+000
 0.739075E+000 -0.248507E+000  0.000000E+000
 0.715354E+000 -0.239848E+000  0.000000E+000
 0.691634E+000 -0.231190E+000  0.000000E+000
 0.667913E+000 -0.222531E+000  0.000000E+000
 0.644193E+000 -0.213873E+000  0.000000E+000
 0.620472E+000 -0.205214E+000  0.000000E+000
 0.596752E+000 -0.196556E+000  0.000000E+000
 0.573031E+000 -0.187897E+000  0.000000E+000
 0.549311E+000 -0.179239E+000  0.000000E+000
 0.525590E+000 -0.170580E+000  0.000000E+000
 0.501870E+000 -0.161922E+000  0.000000E+000
 0.478149E+000 -0.153263E+000  0.000000E+000
 0.454429E+000 -0.144605E+000  0.000000E+000
 0.430708E+000 -0.135946E+000  0.000000E+000
 0.406988E+000 -0.127288E+000  0.000000E+000
 0.383267E+000 -0.118629E+000  0.000000E+000
 0.359547E+000 -0.109971E+000  0.000000E+000
 0.335826E+000 -0.101312E+000  0.000000E+000
 0.312106E+000 -0.926537E-001  0.000000E+000
 0.288385E+000 -0.839952E-001  0.000000E+000
 0.264665E+000 -0.753367E-001  0.000000E+000
 0.240944E+000 -0.666782E-001  0.000000E+000
-0.343750E+000  0.100000E+001  0.000000E+000
-0.335092E+000  0.976280E+000  0.000000E+000
-0.326433E+000  0.952559E+000  0.000000E+000
-0.317775E+000  0.928839E+000  0.000000E+000
-0.309116E+000  0.905118E+000  0.000000E+000
-0.300458E+000  0.881398E+000  0.000000E+000
-0.291799E+000  0.857677E+000  0.000000E+000
-0.283141E+000  0.833957E+000  0.000000E+000
-0.274482E+000  0.810236E+000  0.000000E+000
-0.265824E+000  0.786516E+000  0.000000E+000
-0.257165E+000  0.762795E+000  0.000000E+000
-0.248507E+000  0.739075E+000  0.000000E+000
-0.239848E+000  0.715354E+000  0.000000E+000
-0.231190E+000  0.691634E+000  0.000000E+000
-0.222531E+000  0.667913E+000  0.000000E+000
-0.213873E+000  0.644193E+000  0.000000E+000
-0.205214E+000  0.620472E+000  0.000000E+000
-0.196556E+000  0.596752E+000  0.000000E+000
-0.187897E+000  0.573031E+000  0.000000E+000
-0.179239E+000  0.549311E+000  0.000000E+000
-0.170580E+000  0.525590E+000  0.000000E+000
-0.161922E+000  0.501870E+000  0.000000E+000
-0.153263E+000  0.478149E+000  0.000000E+000
-0.144605E+000  0.454429E+000  0.000000E+000
-0.135946E+000  0.430708E+000  0.000000E+000
-0.127288E+000  0.406988E+000  0.000000E+000
-0.118629E+000  0.383267E+000  0.000000E+000
-0.109971E+000  0.359547E+000  0.000000E+000
-0.101312E+000  0.335826E+000  0.000000E+000
-0.926537E-001  0.312106E+000  0.000000E+000
-0.839952E-001  0.288385E+000  0.000000E+000
-0.753367E-001  0.264665E+000  0.000000E+000
-0.666782E-001  0.240944E+000  0.000000E+000
 0.100000E+001 -0.312500E+000  0.000000E+000
 0.976328E+000 -0.304633E+000  0.000000E+000
 0.952657E+000 -0.296765E+000  0.000000E+000
 0.928985E+000 -0.288898E+000  0.000000E+000
 0.905313E+000 -0.281031E+000  0.000000E+000
 0.881642E+000 -0.273163E+000  0.000000E+000
 0.857970E+000 -0.265296E+000  0.000000E+000
 0.834299E+000 -0.257429E+000  0.000000E+000
 0.810627E+000 -0.249561E+000  0.000000E+000
 0.786955E+000 -0.241694E+000  0.000000E+000
 0.763284E+000 -0.233827E+000  0.000000E+000
 0.739612E+000 -0.225959E+000  0.000000E+000
 0.715940E+000 -0.218092E+000  0.000000E+000
 0.692269E+000 -0.210225E+000  0.000000E+000
 0.668597E+000 -0.202357E+000  0.000000E+000
 0.644926E+000 -0.194490E+000  0.000000E+000
 0.621254E+000 -0.186623E+000  0.000000E+000
 0.597582E+000 -0.178755E+000  0.000000E+000
 0.573911E+000 -0.170888E+000  0.000000E+000
 0.550239E+000 -0.163020E+000  0.000000E+000
 0.526567E+000 -0.155153E+000  0.000000E+000
 0.502896E+000 -0.147286E+000  0.000000E+000
 0.479224E+000 -0.139418E+000  0.000000E+000
 0.455552E+000 -0.131551E+000  0.000000E+000
 0.431881E+000 -0.123684E+000  0.000000E+000
 0.408209E+000 -0.115816E+000  0.000000E+000
 0.384538E+000 -0.107949E+000  0.000000E+000
 0.360866E+000 -0.100082E+000  0.000000E+000
 0.337194E+000 -0.922144E-001  0.000000E+000
 0.313523E+000 -0.843471E-001  0.000000E+000
 0.289851E+000 -0.764797E-001  0.000000E+000
 0.266179E+000 -0.686124E-001  0.000000E+000
 0.242508E+000 -0.607450E-001  0.000000E+000
-0.312500E+000  0.100000E+001  0.000000E+000
-0.304633E+000  0.976328E+000  0.000000E+000
-0.296765E+000  0.952657E+000  0.000000E+000
-0.288898E+000  0.928985E+000  0.000000E+000
-0.281031E+000  0.905313E+000  0.000000E+000
-0.273163E+000  0.881642E+000  0.000000E+000
-0.265296E+000  0.857970E+000  0.000000E+000
-0.257429E+000  0.834299E+000  0.000000E+000
-0.249561E+000  0.810627E+000  0.000000E+000
-0.241694E+000  0.786955E+000  0.000000E+000
-0.233827E+000  0.763284E+000  0.000000E+000
-0.225959E+000  0.739612E+000  0.000000E+000
-0.218092E+000  0.715940E+000  0.000000E+000
-0.210225E+000  0.692269E+000  0.000000E+000
-0.202357E+000  0.668597E+000  0.000000E+000
-0.194490E+000  0.644926E+000  0.000000E+000
-0.186623E+000  0.621254E+000  0.000000E+000
-0.178755E+000  0.597582E+000  0.000000E+000
-0.170888E+000  0.573911E+000  0.000000E+000
-0.163020E+000  0.550239E+000  0.000000E+000
-0.155153E+000  0.526567E+000  0.000000E+000
-0.147286E+000  0.502896E+000  0.000000E+000
-0.139418E+000  0.479224E+000  0.000000E+000
-0.131551E+000  0.455552E+000  0.000000E+000
-0.123684E+000  0.431881E+000  0.000000E+000
-0.115816E+000  0.408209E+000  0.000000E+000
-0.107949E+000  0.384538E+000  0.000000E+000
-0.100082E+000  0.360866E+000  0.000000E+000
-0.922144E-001  0.337194E+000  0.000000E+000
-0.843471E-001  0.313523E+000  0.000000E+000
-0.764797E-001  0.289851E+000  0.000000E+000
-0.686124E-001  0.266179E+000  0.000000E+000
-0.607450E-001  0.242508E+000  0.000000E+000
 0.100000E+001 -0.281250E+000  0.000000E+000
 0.976373E+000 -0.274173E+000  0.000000E+000
 0.952745E+000 -0.267095E+000  0.000000E+000
 0.929118E+000 -0.260018E+000  0.000000E+000
 0.905491E+000 -0.252941E+000  0.000000E+000
 0.881863E+000 -0.245863E+000  0.000000E+000
 0.858236E+000 -0.238786E+000  0.000000E+000
 0.834609E+000 -0.231709E+000  0.000000E+000
 0.810981E+000 -0.224631E+000  0.000000E+000
 0.787354E+000 -0.217554E+000  0.000000E+000
 0.763727E+000 -0.210477E+000  0.000000E+000
 0.740099E+000 -0.203399E+000  0.000000E+000
 0.716472E+000 -0.196322E+000  0.000000E+000
 0.692845E+000 -0.189245E+000  0.000000E+000
 0.669217E+000 -0.182167E+000  0.000000E+000
 0.645590E+000 -0.175090E+000  0.000000E+000
 0.621963E+000 -0.168013E+000  0.000000E+000
 0.598335E+000 -0.160935E+000  0.000000E+000
 0.574708E+000 -0.153858E+000  0.000000E+000
 0.551081E+000 -0.146781E+000  0.000000E+000
 0.527453E+000 -0.139703E+000  0.000000E+000
 0.503826E+000 -0.132626E+000  0.000000E+000
 0.480199E+000 -0.125549E+000  0.000000E+000
 0.456571E+000 -0.118471E+000  0.000000E+000
 0.432944E+000 -0.111394E+000  0.000000E+000
 0.409317E+000 -0.104317E+000  0.000000E+000
 0.385689E+000 -0.972393E-001  0.000000E+000
 0.362062E+000 -0.901620E-001  0.000000E+000
 0.338435E+000 -0.830846E-001  0.000000E+000
 0.314808E+000 -0.760073E-001  0.000000E+000
 0.291180E+000 -0.689300E-001  0.000000E+000
 0.267553E+000 -0.618526E-001  0.000000E+000
 0.243926E+000 -0.547753E-001  0.000000E+000
-0.281250E+000  0.100000E+001  0.000000E+000
-0.274173E+000  0.976373E+000  0.000000E+000
-0.267095E+000  0.952745E+000  0.000000E+000
-0.260018E+000  0.929118E+000  0.000000E+000
-0.252941E+000  0.905491E+000  0.000000E+000
-0.245863E+000  0.881863E+000  0.000000E+000
-0.238786E+000  0.858236E+000  0.000000E+000
-0.231709E+000  0.834609E+000  0.000000E+000
-0.224631E+000  0.810981E+000  0.000000E+000
-0.217554E+000  0.787354E+000  0.000000E+000
-0.210477E+000  0.763727E+000  0.000000E+000
-0.203399E+000  0.740099E+000  0.000000E+000
-0.196322E+000  0.716472E+000  0.000000E+000
-0.189245E+000  0.692845E+000  0.000000E+000
-0.182167E+000  0.669217E+000  0.000000E+000
-0.175090E+000  0.645590E+000  0.000000E+000
-0.168013E+000  0.621963E+000  0.000000E+000
-0.160935E+000  0.598335E+000  0.000000E+000
-0.153858E+000  0.574708E+000  0.000000E+000
-0.146781E+000  0.551081E+000  0.000000E+000
-0.139703E+000  0.527453E+000  0.000000E+000
-0.132626E+000  0.503826E+000  0.000000E+000
-0.125549E+000  0.480199E+000  0.000000E+000
-0.118471E+000  0.456571E+000  0.000000E+000
-0.111394E+000  0.432944E+000  0.000000E+000
-0.104317E+000  0.409317E+000  0.000000E+000
-0.972393E-001  0.385689E+000  0.000000E+000
-0.901620E-001  0.362062E+000  0.000000E+000
-0.830846E-001  0.338435E+000  0.000000E+000
-0.760073E-001  0.314808E+000  0.000000E+000
-0.689300E-001  0.291180E+000  0.000000E+000
-0.618526E-001  0.267553E+000  0.000000E+000
-0.547753E-001  0.243926E+000  0.000000E+000
 0.100000E+001 -0.250000E+000  0.000000E+000
 0.976412E+000 -0.243712E+000  0.000000E+000
 0.952825E+000 -0.237423E+000  0.000000E+000
 0.929237E+000 -0.231135E+000  0.000000E+000
 0.905650E+000 -0.224847E+000  0.000000E+000
 0.882062E+000 -0.218558E+000  0.000000E+000
 0.858474E+000 -0.212270E+000  0.000000E+000
 0.834887E+000 -0.205982E+000  0.000000E+000
 0.811299E+000 -0.199693E+000  0.000000E+000
 0.787711E+000 -0.193405E+000  0.000000E+000
 0.764124E+000 -0.187116E+000  0.000000E+000
 0.740536E+000 -0.180828E+000  0.000000E+000
 0.716949E+000 -0.174540E+000  0.000000E+000
 0.693361E+000 -0.168251E+000  0.000000E+000
 0.669773E+000 -0.161963E+000  0.000000E+000
 0.646186E+000 -0.155675E+000  0.000000E+000
 0.622598E+000 -0.149386E+000  0.000000E+000
 0.599011E+000 -0.143098E+000  0.000000E+000
 0.575423E+000 -0.136810E+000  0.000000E+000
 0.551835E+000 -0.130521E+000  0.000000E+000
 0.528248E+000 -0.124233E+000  0.000000E+000
 0.504660E+000 -0.117945E+000  0.000000E+000
 0.481072E+000 -0.111656E+000  0.000000E+000
 0.457485E+000 -0.105368E+000  0.000000E+000
 0.433897E+000 -0.990794E-001  0.000000E+000
 0.410310E+000 -0.927911E-001  0.000000E+000
 0.386722E+000 -0.865027E-001  0.000000E+000
 0.363134E+000 -0.802144E-001  0.000000E+000
 0.339547E+000 -0.739260E-001  0.000000E+000
 0.315959E+000 -0.676377E-001  0.000000E+000
 0.292372E+000 -0.613493E-001  0.000000E+000
 0.268784E+000 -0.550609E-001  0.000000E+000
 0.245196E+000 -0.487726E-001  0.000000E+000
-0.250000E+000  0.100000E+001  0.000000E+000
-0.243712E+000  0.976412E+000  0.000000E+000
-0.237423E+000  0.952825E+000  0.000000E+000
-0.231135E+000  0.929237E+000  0.000000E+000
-0.224847E+000  0.905650E+000  0.000000E+000
-0.218558E+000  0.882062E+000  0.000000E+000
-0.212270E+000  0.858474E+000  0.000000E+000
-0.205982E+000  0.834887E+000  0.000000E+000
-0.199693E+000  0.811299E+000  0.000000E+000
-0.193405E+000  0.787711E+000  0.000000E+000
-0.187116E+000  0.764124E+000  0.000000E+000
-0.180828E+000  0.740536E+000  0.000000E+000
-0.174540E+000  0.716949E+000  0.000000E+000
-0.168251E+000  0.693361E+000  0.000000E+000
-0.161963E+000  0.669773E+000  0.000000E+000
-0.155675E+000  0.646186E+000  0.000000E+000
-0.149386E+000  0.622598E+000  0.000000E+000
-0.143098E+000  0.599011E+000  0.000000E+000
-0.136810E+000  0.575423E+000  0.000000E+000
-0.130521E+000  0.551835E+000  0.000000E+000
-0.124233E+000  0.528248E+000  0.000000E+000
-0.117945E+000  0.504660E+000  0.000000E+000
-0.111656E+000  0.481072E+000  0.000000E+000
-0.105368E+000  0.457485E+000  0.000000E+000
-0.990794E-001  0.433897E+000  0.000000E+000
-0.927911E-001  0.410310E+000  0.000000E+000
-0.865027E-001  0.386722E+000  0.000000E+000
-0.802144E-001  0.363134E+000  0.000000E+000
-0.739260E-001  0.339547E+000  0.000000E+000
-0.676377E-001  0.315959E+000  0.000000E+000
-0.613493E-001  0.292372E+000  0.000000E+000
-0.550609E-001  0.268784E+000  0.000000E+000
-0.487726E-001  0.245196E+000  0.000000E+000
 0.100000E+001 -0.218750E+000  0.000000E+000
 0.976447E+000 -0.213250E+000  0.000000E+000
 0.952895E+000 -0.207749E+000  0.000000E+000
 0.929342E+000 -0.202249E+000  0.000000E+000
 0.905790E+000 -0.196749E+000  0.000000E+000
 0.882237E+000 -0.191249E+000  0.000000E+000
 0.858685E+000 -0.185748E+000  0.000000E+000
 0.835132E+000 -0.180248E+000  0.000000E+000
 0.811580E+000 -0.174748E+000  0.000000E+000
 0.788027E+000 -0.169247E+000  0.000000E+000
 0.764475E+000 -0.163747E+000  0.000000E+000
 0.740922E+000 -0.158247E+000  0.000000E+000
 0.717370E+000 -0.152746E+000  0.000000E+000
 0.693817E+000 -0.147246E+000  0.000000E+000
 0.670265E+000 -0.141746E+000  0.000000E+000
 0.646712E+000 -0.136246E+000  0.000000E+000
 0.623160E+000 -0.130745E+000  0.000000E+000
 0.599607E+000 -0.125245E+000  0.000000E+000
 0.576055E+000 -0.119745E+000  0.000000E+000
 0.552502E+000 -0.114244E+000  0.000000E+000
 0.528950E+000 -0.108744E+000  0.000000E+000
 0.505397E+000 -0.103244E+000  0.000000E+000
 0.481845E+000 -0.977434E-001  0.000000E+000
 0.458292E+000 -0.922432E-001  0.000000E+000
 0.434740E+000 -0.867429E-001  0.000000E+000
 0.411187E+000 -0.812426E-001  0.000000E+000
 0.387635E+000 -0.757423E-001  0.000000E+000
 0.364082E+000 -0.702420E-001  0.000000E+000
 0.340529E+000 -0.647417E-001  0.000000E+000
 0.316977E+000 -0.592414E-001  0.000000E+000
 0.293424E+000 -0.537411E-001  0.000000E+000
 0.269872E+000 -0.482408E-001  0.000000E+000
 0.246319E+000 -0.427405E-001  0.000000E+000
-0.218750E+000  0.100000E+001  0.000000E+000
-0.213250E+000  0.976447E+000  0.000000E+000
-0.207749E+000  0.952895E+000  0.000000E+000
-0.202249E+000  0.929342E+000  0.000000E+000
-0.196749E+000  0.905790E+000  0.000000E+000
-0.191249E+000  0.882237E+000  0.000000E+000
-0.185748E+000  0.858685E+000  0.000000E+000
-0.180248E+000  0.835132E+000  0.000000E+000
-0.174748E+000  0.811580E+000  0.000000E+000
-0.169247E+000  0.788027E+000  0.000000E+000
-0.163747E+000  0.764475E+000  0.000000E+000
-0.158247E+000  0.740922E+000  0.000000E+000
-0.152746E+000  0.717370E+000  0.000000E+000
-0.147246E+000  0.693817E+000  0.000000E+000
-0.141746E+000  0.670265E+000  0.000000E+000
-0.136246E+000  0.646712E+000  0.000000E+000
-0.130745E+000  0.623160E+000  0.000000E+000
-0.125245E+000  0.599607E+000  0.000000E+000
-0.119745E+000  0.576055E+000  0.000000E+000
-0.114244E+000  0.552502E+000  0.000000E+000
-0.108744E+000  0.528950E+000  0.000000E+000
-0.103244E+000  0.505397E+000  0.000000E+000
-0.977434E-001  0.481845E+000  0.000000E+000
-0.922432E-001  0.458292E+000  0.000000E+000
-0.867429E-001  0.434740E+000  0.000000E+000
-0.812426E-001  0.411187E+000  0.000000E+000
-0.757423E-001  0.387635E+000  0.000000E+000
-0.702420E-001  0.364082E+000  0.000000E+000
-0.647417E-001  0.340529E+000  0.000000E+000
-0.592414E-001  0.316977E+000  0.000000E+000
-0.537411E-001  0.293424E+000  0.000000E+000
-0.482408E-001  0.269872E+000  0.000000E+000
-0.427405E-001  0.246319E+000  0.000000E+000
 0.100000E+001 -0.187500E+000  0.000000E+000
 0.976478E+000 -0.182787E+000  0.000000E+000
 0.952956E+000 -0.178074E+000  0.000000E+000
 0.929434E+000 -0.173361E+000  0.000000E+000
 0.905912E+000 -0.168648E+000  0.000000E+000
 0.882390E+000 -0.163935E+000  0.000000E+000
 0.858868E+000 -0.159222E+000  0.000000E+000
 0.835346E+000 -0.154509E+000  0.000000E+000
 0.811824E+000 -0.149796E+000  0.000000E+000
 0.788301E+000 -0.145083E+000  0.000000E+000
 0.764779E+000 -0.140370E+000  0.000000E+000
 0.741257E+000 -0.135657E+000  0.000000E+000
 0.717735E+000 -0.130943E+000  0.000000E+000
 0.694213E+000 -0.126230E+000  0.000000E+000
 0.670691E+000 -0.121517E+000  0.000000E+000
 0.647169E+000 -0.116804E+000  0.000000E+000
 0.623647E+000 -0.112091E+000  0.000000E+000
 0.600125E+000 -0.107378E+000  0.000000E+000
 0.576603E+000 -0.102665E+000  0.000000E+000
 0.553081E+000 -0.979522E-001  0.000000E+000
 0.529559E+000 -0.932391E-001  0.000000E+000
 0.506037E+000 -0.885261E-001  0.000000E+000
 0.482515E+000 -0.838131E-001  0.000000E+000
 0.458993E+000 -0.791000E-001  0.000000E+000
 0.435471E+000 -0.743870E-001  0.000000E+000
 0.411949E+000 -0.696739E-001  0.000000E+000
 0.388426E+000 -0.649609E-001  0.000000E+000
 0.364904E+000 -0.602478E-001  0.000000E+000
 0.341382E+000 -0.555348E-001  0.000000E+000
 0.317860E+000 -0.508217E-001  0.000000E+000
 0.294338E+000 -0.461087E-001  0.000000E+000
 0.270816E+000 -0.413957E-001  0.000000E+000
 0.247294E+000 -0.366826E-001  0.000000E+000
-0.187500E+000  0.100000E+001  0.000000E+000
-0.182787E+000  0.976478E+000  0.000000E+000
-0.178074E+000  0.952956E+000  0.000000E+000
-0.173361E+000  0.929434E+000  0.000000E+000
-0.168648E+000  0.905912E+000  0.000000E+000
-0.163935E+000  0.882390E+000  0.000000E+000
-0.159222E+000  0.858868E+000  0.000000E+000
-0.154509E+000  0.835346E+000  0.000000E+000
-0.149796E+000  0.811824E+000  0.000000E+000
-0.145083E+000  0.788301E+000  0.000000E+000
-0.140370E+000  0.764779E+000  0.000000E+000
-0.135657E+000  0.741257E+000  0.000000E+000
-0.130943E+000  0.717735E+000  0.000000E+000
-0.126230E+000  0.694213E+000  0.000000E+000
-0.121517E+000  0.670691E+000  0.000000E+000
-0.116804E+000  0.647169E+000  0.000000E+000
-0.112091E+000  0.623647E+000  0.000000E+000
-0.107378E+000  0.600125E+000  0.000000E+000
-0.102665E+000  0.576603E+000  0.000000E+000
-0.979522E-001  0.553081E+000  0.000000E+000
-0.932391E-001  0.529559E+000  0.000000E+000
-0.885261E-001  0.506037E+000  0.000000E+000
-0.838131E-001  0.482515E+000  0.000000E+000
-0.791000E-001  0.458993E+000  0.000000E+000
-0.743870E-001  0.435471E+000  0.000000E+000
-0.696739E-001  0.411949E+000  0.000000E+000
-0.649609E-001  0.388426E+000  0.000000E+000
-0.602478E-001  0.364904E+000  0.000000E+000
-0.555348E-001  0.341382E+000  0.000000E+000
-0.508217E-001  0.317860E+000  0.000000E+000
-0.461087E-001  0.294338E+000  0.000000E+000
-0.413957E-001  0.270816E+000  0.000000E+000
-0.366826E-001  0.247294E+000  0.000000E+000
 0.100000E+001 -0.156250E+000  0.000000E+000
 0.976504E+000 -0.152324E+000  0.000000E+000
 0.953007E+000 -0.148397E+000  0.000000E+000
 0.929511E+000 -0.144471E+000  0.000000E+000
 0.906015E+000 -0.140544E+000  0.000000E+000
 0.882519E+000 -0.136618E+000  0.000000E+000
 0.859022E+000 -0.132691E+000  0.000000E+000
 0.835526E+000 -0.128765E+000  0.000000E+000
 0.812030E+000 -0.124838E+000  0.000000E+000
 0.788534E+000 -0.120912E+000  0.000000E+000
 0.765037E+000 -0.116985E+000  0.000000E+000
 0.741541E+000 -0.113059E+000  0.000000E+000
 0.718045E+000 -0.109132E+000  0.000000E+000
 0.694549E+000 -0.105206E+000  0.000000E+000
 0.671052E+000 -0.101279E+000  0.000000E+000
 0.647556E+000 -0.973528E-001  0.000000E+000
 0.624060E+000 -0.934263E-001  0.000000E+000
 0.600564E+000 -0.894999E-001  0.000000E+000
 0.577067E+000 -0.855734E-001  0.000000E+000
 0.553571E+000 -0.816469E-001  0.000000E+000
 0.530075E+000 -0.777204E-001  0.000000E+000
 0.506579E+000 -0.737939E-001  0.000000E+000
 0.483082E+000 -0.698675E-001  0.000000E+000
 0.459586E+000 -0.659410E-001  0.000000E+000
 0.436090E+000 -0.620145E-001  0.000000E+000
 0.412594E+000 -0.580880E-001  0.000000E+000
 0.389097E+000 -0.541615E-001  0.000000E+000
 0.365601E+000 -0.502351E-001  0.000000E+000
 0.342105E+000 -0.463086E-001  0.000000E+000
 0.318609E+000 -0.423821E-001  0.000000E+000
 0.295112E+000 -0.384556E-001  0.000000E+000
 0.271616E+000 -0.345291E-001  0.000000E+000
 0.248120E+000 -0.306027E-001  0.000000E+000
-0.156250E+000  0.100000E+001  0.000000E+000
-0.152324E+000  0.976504E+000  0.000000E+000
-0.148397E+000  0.953007E+000  0.000000E+000
-0.144471E+000  0.929511E+000  0.000000E+000
-0.140544E+000  0.906015E+000  0.000000E+000
-0.136618E+000  0.882519E+000  0.000000E+000
-0.132691E+000  0.859022E+000  0.000000E+000
-0.128765E+000  0.835526E+000  0.000000E+000
-0.124838E+000  0.812030E+000  0.000000E+000
-0.120912E+000  0.788534E+000  0.000000E+000
-0.116985E+000  0.765037E+000  0.000000E+000
-0.113059E+000  0.741541E+000  0.000000E+000
-0.109132E+000  0.718045E+000  0.000000E+000
-0.105206E+000  0.694549E+000  0.000000E+000
-0.101279E+000  0.671052E+000  0.000000E+000
-0.973528E-001  0.647556E+000  0.000000E+000
-0.934263E-001  0.624060E+000  0.000000E+000
-0.894999E-001  0.600564E+000  0.000000E+000
-0.855734E-001  0.577067E+000  0.000000E+000
-0.816469E-001  0.553571E+000  0.000000E+000
-0.777204E-001  0.530075E+000  0.000000E+000
-0.737939E-001  0.506579E+000  0.000000E+000
-0.698675E-001  0.483082E+000  0.000000E+000
-0.659410E-001  0.459586E+000  0.000000E+000
-0.620145E-001  0.436090E+000  0.000000E+000
-0.580880E-001  0.412594E+000  0.000000E+000
-0.541615E-001  0.389097E+000  0.000000E+000
-0.502351E-001  0.365601E+000  0.000000E+000
-0.463086E-001  0.342105E+000  0.000000E+000
-0.423821E-001  0.318609E+000  0.000000E+000
-0.384556E-001  0.295112E+000  0.000000E+000
-0.345291E-001  0.271616E+000  0.000000E+000
-0.306027E-001  0.248120E+000  0.000000E+000
 0.100000E+001 -0.125000E+000  0.000000E+000
 0.976525E+000 -0.121860E+000  0.000000E+000
 0.953050E+000 -0.118719E+000  0.000000E+000
 0.929575E+000 -0.115579E+000  0.000000E+000
 0.906100E+000 -0.112438E+000  0.000000E+000
 0.882624E+000 -0.109298E+000  0.000000E+000
 0.859149E+000 -0.106157E+000  0.000000E+000
 0.835674E+000 -0.103017E+000  0.000000E+000
 0.812199E+000 -0.998761E-001  0.000000E+000
 0.788724E+000 -0.967356E-001  0.000000E+000
 0.765249E+000 -0.935951E-001  0.000000E+000
 0.741774E+000 -0.904546E-001  0.000000E+000
 0.718299E+000 -0.873141E-001  0.000000E+000
 0.694823E+000 -0.841736E-001  0.000000E+000
 0.671348E+000 -0.810331E-001  0.000000E+000
 0.647873E+000 -0.778926E-001  0.000000E+000
 0.624398E+000 -0.747521E-001  0.000000E+000
 0.600923E+000 -0.716117E-001  0.000000E+000
 0.577448E+000 -0.684712E-001  0.000000E+000
 0.553973E+000 -0.653307E-001  0.000000E+000
 0.530498E+000 -0.621902E-001  0.000000E+000
 0.507022E+000 -0.590497E-001  0.000000E+000
 0.483547E+000 -0.559092E-001  0.000000E+000
 0.460072E+000 -0.527687E-001  0.000000E+000
 0.436597E+000 -0.496282E-001  0.000000E+000
 0.413122E+000 -0.464877E-001  0.000000E+000
 0.389647E+000 -0.433472E-001  0.000000E+000
 0.366172E+000 -0.402067E-001  0.000000E+000
 0.342697E+000 -0.370662E-001  0.000000E+000
 0.319222E+000 -0.339258E-001  0.000000E+000
 0.295746E+000 -0.307853E-001  0.000000E+000
 0.272271E+000 -0.276448E-001  0.000000E+000
 0.248796E+000 -0.245043E-001  0.000000E+000
-0.125000E+000  0.100000E+001  0.000000E+000
-0.121860E+000  0.976525E+000  0.000000E+000
-0.118719E+000  0.953050E+000  0.000000E+000
-0.115579E+000  0.929575E+000  0.000000E+000
-0.112438E+000  0.906100E+000  0.000000E+000
-0.109298E+000  0.882624E+000  0.000000E+000
-0.106157E+000  0.859149E+000  0.000000E+000
-0.103017E+000  0.835674E+000  0.000000E+000
-0.998761E-001  0.812199E+000  0.000000E+000
-0.967356E-001  0.788724E+000  0.000000E+000
-0.935951E-001  0.765249E+000  0.000000E+000
-0.904546E-001  0.741774E+000  0.000000E+000
-0.873141E-001  0.718299E+000  0.000000E+000
-0.841736E-001  0.694823E+000  0.000000E+000
-0.810331E-001  0.671348E+000  0.000000E+000
-0.778926E-001  0.647873E+000  0.000000E+000
-0.747521E-001  0.624398E+000  0.000000E+000
-0.716117E-001  0.600923E+000  0.000000E+000
-0.684712E-001  0.577448E+000  0.000000E+000
-0.653307E-001  0.553973E+000  0.000000E+000
-0.621902E-001  0.530498E+000  0.000000E+000
-0.590497E-001  0.507022E+000  0.000000E+000
-0.559092E-001  0.483547E+000  0.000000E+000
-0.527687E-001  0.460072E+000  0.000000E+000
-0.496282E-001  0.436597E+000  0.000000E+000
-0.464877E-001  0.413122E+000  0.000000E+000
-0.433472E-001  0.389647E+000  0.000000E+000
-0.402067E-001  0.366172E+000  0.000000E+000
-0.370662E-001  0.342697E+000  0.000000E+000
-0.339258E-001  0.319222E+000  0.000000E+000
-0.307853E-001  0.295746E+000  0.000000E+000
-0.276448E-001  0.272271E+000  0.000000E+000
-0.245043E-001  0.248796E+000  0.000000E+000
 0.100000E+001 -0.937500E-001  0.000000E+000
 0.976541E+000 -0.913950E-001  0.000000E+000
 0.953083E+000 -0.890401E-001  0.000000E+000
 0.929624E+000 -0.866851E-001  0.000000E+000
 0.906165E+000 -0.843301E-001  0.000000E+000
 0.882707E+000 -0.819752E-001  0.000000E+000
 0.859248E+000 -0.796202E-001  0.000000E+000
 0.835789E+000 -0.772652E-001  0.000000E+000
 0.812331E+000 -0.749103E-001  0.000000E+000
 0.788872E+000 -0.725553E-001  0.000000E+000
 0.765413E+000 -0.702004E-001  0.000000E+000
 0.741955E+000 -0.678454E-001  0.000000E+000
 0.718496E+000 -0.654904E-001  0.000000E+000
 0.695037E+000 -0.631355E-001  0.000000E+000
 0.671579E+000 -0.607805E-001  0.000000E+000
 0.648120E+000 -0.584255E-001  0.000000E+000
 0.624661E+000 -0.560706E-001  0.000000E+000
 0.601203E+000 -0.537156E-001  0.000000E+000
 0.577744E+000 -0.513606E-001  0.000000E+000
 0.554285E+000 -0.490057E-001  0.000000E+000
 0.530827E+000 -0.466507E-001  0.000000E+000
 0.507368E+000 -0.442957E-001  0.000000E+000
 0.483909E+000 -0.419408E-001  0.000000E+000
 0.460451E+000 -0.395858E-001  0.000000E+000
 0.436992E+000 -0.372309E-001  0.000000E+000
 0.413533E+000 -0.348759E-001  0.000000E+000
 0.390075E+000 -0.325209E-001  0.000000E+000
 0.366616E+000 -0.301660E-001  0.000000E+000
 0.343157E+000 -0.278110E-001  0.000000E+000
 0.319699E+000 -0.254560E-001  0.000000E+000
 0.296240E+000 -0.231011E-001  0.000000E+000
 0.272781E+000 -0.207461E-001  0.000000E+000
 0.249323E+000 -0.183911E-001  0.000000E+000
-0.937500E-001  0.100000E+001  0.000000E+000
-0.913950E-001  0.976541E+000  0.000000E+000
-0.890401E-001  0.953083E+000  0.000000E+000
-0.866851E-001  0.929624E+000  0.000000E+000
-0.843301E-001  0.906165E+000  0.000000E+000
-0.819752E-001  0.882707E+000  0.000000E+000
-0.796202E-001  0.859248E+000  0.000000E+000
-0.772652E-001  0.835789E+000  0.000000E+000
-0.749103E-001  0.812331E+000  0.000000E+000
-0.725553E-001  0.788872E+000  0.000000E+000
-0.702004E-001  0.765413E+000  0.000000E+000
-0.678454E-001  0.741955E+000  0.000000E+000
-0.654904E-001  0.718496E+000  0.000000E+000
-0.631355E-001  0.695037E+000  0.000000E+000
-0.607805E-001  0.671579E+000  0.000000E+000
-0.584255E-001  0.648120E+000  0.000000E+000
-0.560706E-001  0.624661E+000  0.000000E+000
-0.537156E-001  0.601203E+000  0.000000E+000
-0.513606E-001  0.577744E+000  0.000000E+000
-0.490057E-001  0.554285E+000  0.000000E+000
-0.466507E-001  0.530827E+000  0.000000E+000
-0.442957E-001  0.507368E+000  0.000000E+000
-0.419408E-001  0.483909E+000  0.000000E+000
-0.395858E-001  0.460451E+000  0.000000E+000
-0.372309E-001  0.436992E+000  0.000000E+000
-0.348759E-001  0.413533E+000  0.000000E+000
-0.325209E-001  0.390075E+000  0.000000E+000
-0.301660E-001  0.366616E+000  0.000000E+000
-0.278110E-001  0.343157E+000  0.000000E+000
-0.254560E-001  0.319699E+000  0.000000E+000
-0.231011E-001  0.296240E+000  0.000000E+000
-0.207461E-001  0.272781E+000  0.000000E+000
-0.183911E-001  0.249323E+000  0.000000E+000
 0.100000E+001 -0.625000E-001  0.000000E+000
 0.976553E+000 -0.609302E-001  0.000000E+000
 0.953106E+000 -0.593604E-001  0.000000E+000
 0.929659E+000 -0.577906E-001  0.000000E+000
 0.906212E+000 -0.562209E-001  0.000000E+000
 0.882765E+000 -0.546511E-001  0.000000E+000
 0.859319E+000 -0.530813E-001  0.000000E+000
 0.835872E+000 -0.515115E-001  0.000000E+000
 0.812425E+000 -0.499417E-001  0.000000E+000
 0.788978E+000 -0.483719E-001  0.000000E+000
 0.765531E+000 -0.468022E-001  0.000000E+000
 0.742084E+000 -0.452324E-001  0.000000E+000
 0.718637E+000 -0.436626E-001  0.000000E+000
 0.695190E+000 -0.420928E-001  0.000000E+000
 0.671743E+000 -0.405230E-001  0.000000E+000
 0.648296E+000 -0.389532E-001  0.000000E+000
 0.624849E+000 -0.373835E-001  0.000000E+000
 0.601403E+000 -0.358137E-001  0.000000E+000
 0.577956E+000 -0.342439E-001  0.000000E+000
 0.554509E+000 -0.326741E-001  0.000000E+000
 0.531062E+000 -0.311043E-001  0.000000E+000
 0.507615E+000 -0.295345E-001  0.000000E+000
 0.484168E+000 -0.279648E-001  0.000000E+000
 0.460721E+000 -0.263950E-001  0.000000E+000
 0.437274E+000 -0.248252E-001  0.000000E+000
 0.413827E+000 -0.232554E-001  0.000000E+000
 0.390380E+000 -0.216856E-001  0.000000E+000
 0.366933E+000 -0.201158E-001  0.000000E+000
 0.343487E+000 -0.185461E-001  0.000000E+000
 0.320040E+000 -0.169763E-001  0.000000E+000
 0.296593E+000 -0.154065E-001  0.000000E+000
 0.273146E+000 -0.138367E-001  0.000000E+000
 0.249699E+000 -0.122669E-001  0.000000E+000
-0.625000E-001  0.100000E+001  0.000000E+000
-0.609302E-001  0.976553E+000  0.000000E+000
-0.593604E-001  0.953106E+000  0.000000E+000
-0.577906E-001  0.929659E+000  0.000000E+000
-0.562209E-001  0.906212E+000  0.000000E+000
-0.546511E-001  0.882765E+000  0.000000E+000
-0.530813E-001  0.859319E+000  0.000000E+000
-0.515115E-001  0.835872E+000  0.000000E+000
-0.499417E-001  0.812425E+000  0.000000E+000
-0.483719E-001  0.788978E+000  0.000000E+000
-0.468022E-001  0.765531E+000  0.000000E+000
-0.452324E-001  0.742084E+000  0.000000E+000
-0.436626E-001  0.718637E+000  0.000000E+000
-0.420928E-001  0.695190E+000  0.000000E+000
-0.405230E-001  0.671743E+000  0.000000E+000
-0.389532E-001  0.648296E+000  0.000000E+000
-0.373835E-001  0.624849E+000  0.000000E+000
-0.358137E-001  0.601403E+000  0.000000E+000
-0.342439E-001  0.577956E+000  0.000000E+000
-0.326741E-001  0.554509E+000  0.000000E+000
-0.311043E-001  0.531062E+000  0.000000E+000
-0.295345E-001  0.507615E+000  0.000000E+000
-0.279648E-001  0.484168E+000  0.000000E+000
-0.263950E-001  0.460721E+000  0.000000E+000
-0.248252E-001  0.437274E+000  0.000000E+000
-0.232554E-001  0.413827E+000  0.000000E+000
-0.216856E-001  0.390380E+000  0.000000E+000
-0.201158E-001  0.366933E+000  0.000000E+000
-0.185461E-001  0.343487E+000  0.000000E+000
-0.169763E-001  0.320040E+000  0.000000E+000
-0.154065E-001  0.296593E+000  0.000000E+000
-0.138367E-001  0.273146E+000  0.000000E+000
-0.122669E-001  0.249699E+000  0.000000E+000
 0.100000E+001 -0.312500E-001  0.000000E+000
 0.976560E+000 -0.304652E-001  0.000000E+000
 0.953120E+000 -0.296803E-001  0.000000E+000
 0.929680E+000 -0.288955E-001  0.000000E+000
 0.906241E+000 -0.281107E-001  0.000000E+000
 0.882801E+000 -0.273258E-001  0.000000E+000
 0.859361E+000 -0.265410E-001  0.000000E+000
 0.835921E+000 -0.257562E-001  0.000000E+000
 0.812481E+000 -0.249713E-001  0.000000E+000
 0.789041E+000 -0.241865E-001  0.000000E+000
 0.765601E+000 -0.234017E-001  0.000000E+000
 0.742162E+000 -0.226168E-001  0.000000E+000
 0.718722E+000 -0.218320E-001  0.000000E+000
 0.695282E+000 -0.210472E-001  0.000000E+000
 0.671842E+000 -0.202623E-001  0.000000E+000
 0.648402E+000 -0.194775E-001  0.000000E+000
 0.624962E+000 -0.186927E-001  0.000000E+000
 0.601522E+000 -0.179078E-001  0.000000E+000
 0.578083E+000 -0.171230E-001  0.000000E+000
 0.554643E+000 -0.163382E-001  0.000000E+000
 0.531203E+000 -0.155533E-001  0.000000E+000
 0.507763E+000 -0.147685E-001  0.000000E+000
 0.484323E+000 -0.139836E-001  0.000000E+000
 0.460883E+000 -0.131988E-001  0.000000E+000
 0.437444E+000 -0.124140E-001  0.000000E+000
 0.414004E+000 -0.116291E-001  0.000000E+000
 0.390564E+000 -0.108443E-001  0.000000E+000
 0.367124E+000 -0.100595E-001  0.000000E+000
 0.343684E+000 -0.927464E-002  0.000000E+000
 0.320244E+000 -0.848981E-002  0.000000E+000
 0.296804E+000 -0.770498E-002  0.000000E+000
 0.273365E+000 -0.692014E-002  0.000000E+000
 0.249925E+000 -0.613531E-002  0.000000E+000
-0.312500E-001  0.100000E+001  0.000000E+000
-0.304652E-001  0.976560E+000  0.000000E+000
-0.296803E-001  0.953120E+000  0.000000E+000
-0.288955E-001  0.929680E+000  0.000000E+000
-0.281107E-001  0.906241E+000  0.000000E+000
-0.273258E-001  0.882801E+000  0.000000E+000
-0.265410E-001  0.859361E+000  0.000000E+000
-0.257562E-001  0.835921E+000  0.000000E+000
-0.249713E-001  0.812481E+000  0.000000E+000
-0.241865E-001  0.789041E+000  0.000000E+000
-0.234017E-001  0.765601E+000  0.000000E+000
-0.226168E-001  0.742162E+000  0.000000E+000
-0.218320E-001  0.718722E+000  0.000000E+000
-0.210472E-001  0.695282E+000  0.000000E+000
-0.202623E-001  0.671842E+000  0.000000E+000
-0.194775E-001  0.648402E+000  0.000000E+000
-0.186927E-001  0.624962E+000  0.000000E+000
-0.179078E-001  0.601522E+000  0.000000E+000
-0.171230E-001  0.578083E+000  0.000000E+000
-0.163382E-001  0.554643E+000  0.000000E+000
-0.155533E-001  0.531203E+000  0.000000E+000
-0.147685E-001  0.507763E+000  0.000000E+000
-0.139836E-001  0.484323E+000  0.000000E+000
-0.131988E-001  0.460883E+000  0.000000E+000
-0.124140E-001  0.437444E+000  0.000000E+000
-0.116291E-001  0.414004E+000  0.000000E+000
-0.108443E-001  0.390564E+000  0.000000E+000
-0.100595E-001  0.367124E+000  0.000000E+000
-0.927464E-002  0.343684E+000  0.000000E+000
-0.848981E-002  0.320244E+000  0.000000E+000
-0.770498E-002  0.296804E+000  0.000000E+000
-0.692014E-002  0.273365E+000  0.000000E+000
-0.613531E-002  0.249925E+000  0.000000E+000
 0.100000E+001  0.000000E+000  0.000000E+000
 0.976562E+000 -0.191351E-017  0.000000E+000
 0.953125E+000 -0.382702E-017  0.000000E+000
 0.929688E+000 -0.574053E-017  0.000000E+000
 0.906250E+000 -0.765404E-017  0.000000E+000
 0.882812E+000 -0.956755E-017  0.000000E+000
 0.859375E+000 -0.114811E-016  0.000000E+000
 0.835938E+000 -0.133946E-016  0.000000E+000
 0.812500E+000 -0.153081E-016  0.000000E+000
 0.789062E+000 -0.172216E-016  0.000000E+000
 0.765625E+000 -0.191351E-016  0.000000E+000
 0.742188E+000 -0.210486E-016  0.000000E+000
 0.718750E+000 -0.229621E-016  0.000000E+000
 0.695312E+000 -0.248756E-016  0.000000E+000
 0.671875E+000 -0.267891E-016  0.000000E+000
 0.648438E+000 -0.287027E-016  0.000000E+000
 0.625000E+000 -0.306162E-016  0.000000E+000
 0.601562E+000 -0.325297E-016  0.000000E+000
 0.578125E+000 -0.344432E-016  0.000000E+000
 0.554688E+000 -0.363567E-016  0.000000E+000
 0.531250E+000 -0.382702E-016  0.000000E+000
 0.507812E+000 -0.401837E-016  0.000000E+000
 0.484375E+000 -0.420972E-016  0.000000E+000
 0.460938E+000 -0.440107E-016  0.000000E+000
 0.437500E+000 -0.459243E-016  0.000000E+000
 0.414062E+000 -0.478378E-016  0.000000E+000
 0.390625E+000 -0.497513E-016  0.000000E+000
 0.367188E+000 -0.516648E-016  0.000000E+000
 0.343750E+000 -0.535783E-016  0.000000E+000
 0.320312E+000 -0.554918E-016  0.000000E+000
 0.296875E+000 -0.574053E-016  0.000000E+000
 0.273438E+000 -0.593188E-016  0.000000E+000
 0.250000E+000 -0.612323E-016  0.000000E+000
 0.000000E+000  0.100000E+001  0.000000E+000
 0.239189E-017  0.976562E+000  0.000000E+000
 0.478378E-017  0.953125E+000  0.000000E+000
 0.717566E-017  0.929688E+000  0.000000E+000
 0.956755E-017  0.906250E+000  0.000000E+000
 0.119594E-016  0.882812E+000  0.000000E+000
 0.143513E-016  0.859375E+000  0.000000E+000
 0.167432E-016  0.835938E+000  0.000000E+000
 0.191351E-016  0.812500E+000  0.000000E+000
 0.215270E-016  0.789062E+000  0.000000E+000
 0.239189E-016  0.765625E+000  0.000000E+000
 0.263108E-016  0.742188E+000  0.000000E+000
 0.287027E-016  0.718750E+000  0.000000E+000
 0.310945E-016  0.695312E+000  0.000000E+000
 0.334864E-016  0.671875E+000  0.000000E+000
 0.358783E-016  0.648438E+000  0.000000E+000
 0.382702E-016  0.625000E+000  0.000000E+000
 0.406621E-016  0.601562E+000  0.000000E+000
 0.430540E-016  0.578125E+000  0.000000E+000
 0.454459E-016  0.554688E+000  0.000000E+000
 0.478378E-016  0.531250E+000  0.000000E+000
 0.502297E-016  0.507812E+000  0.000000E+000
 0.526215E-016  0.484375E+000  0.000000E+000
 0.550134E-016  0.460938E+000  0.000000E+000
 0.574053E-016  0.437500E+000  0.000000E+000
 0.597972E-016  0.414062E+000  0.000000E+000
 0.621891E-016  0.390625E+000  0.000000E+000
 0.645810E-016  0.367188E+000  0.000000E+000
 0.669729E-016  0.343750E+000  0.000000E+000
 0.693648E-016  0.320312E+000  0.000000E+000
 0.717566E-016  0.296875E+000  0.000000E+000
 0.741485E-016  0.273438E+000  0.000000E+000
 0.765404E-016  0.250000E+000  0.000000E+000
 0.100000E+001  0.312500E-001  0.000000E+000
 0.976560E+000  0.304652E-001  0.000000E+000
 0.953120E+000  0.296803E-001  0.000000E+000
 0.929680E+000  0.288955E-001  0.000000E+000
 0.906241E+000  0.281107E-001  0.000000E+000
 0.882801E+000  0.273258E-001  0.000000E+000
 0.859361E+000  0.265410E-001  0.000000E+000
 0.835921E+000  0.257562E-001  0.000000E+000
 0.812481E+000  0.249713E-001  0.000000E+000
 0.789041E+000  0.241865E-001  0.000000E+000
 0.765601E+000  0.234017E-001  0.000000E+000
 0.742162E+000  0.226168E-001  0.000000E+000
 0.718722E+000  0.218320E-001  0.000000E+000
 0.695282E+000  0.210472E-001  0.000000E+000
 0.671842E+000  0.202623E-001  0.000000E+000
 0.648402E+000  0.194775E-001  0.000000E+000
 0.624962E+000  0.186927E-001  0.000000E+000
 0.601522E+000  0.179078E-001  0.000000E+000
 0.578083E+000  0.171230E-001  0.000000E+000
 0.554643E+000  0.163382E-001  0.000000E+000
 0.531203E+000  0.155533E-001  0.000000E+000
 0.507763E+000  0.147685E-001  0.000000E+000
 0.484323E+000  0.139836E-001  0.000000E+000
 0.460883E+000  0.131988E-001  0.000000E+000
 0.437444E+000  0.124140E-001  0.000000E+000
 0.414004E+000  0.116291E-001  0.000000E+000
 0.390564E+000  0.108443E-001  0.000000E+000
 0.367124E+000  0.100595E-001  0.000000E+000
 0.343684E+000  0.927464E-002  0.000000E+000
 0.320244E+000  0.848981E-002  0.000000E+000
 0.296804E+000  0.770498E-002  0.000000E+000
 0.273365E+000  0.692014E-002  0.000000E+000
 0.249925E+000  0.613531E-002  0.000000E+000
 0.312500E-001  0.100000E+001  0.000000E+000
 0.304652E-001  0.976560E+000  0.000000E+000
 0.296803E-001  0.953120E+000  0.000000E+000
 0.288955E-001  0.929680E+000  0.000000E+000
 0.281107E-001  0.906241E+000  0.000000E+000
 0.273258E-001  0.882801E+000  0.000000E+000
 0.265410E-001  0.859361E+000  0.000000E+000
 0.257562E-001  0.835921E+000  0.000000E+000
 0.249713E-001  0.812481E+000  0.000000E+000
 0.241865E-001  0.789041E+000  0.000000E+000
 0.234017E-001  0.765601E+000  0.000000E+000
 0.226168E-001  0.742162E+000  0.000000E+000
 0.218320E-001  0.718722E+000  0.000000E+000
 0.210472E-001  0.695282E+000  0.000000E+000
 0.202623E-001  0.671842E+000  0.000000E+000
 0.194775E-001  0.648402E+000  0.000000E+000
 0.186927E-001  0.624962E+000  0.000000E+000
 0.179078E-001  0.601522E+000  0.000000E+000
 0.171230E-001  0.578083E+000  0.000000E+000
 0.163382E-001  0.554643E+000  0.000000E+000
 0.155533E-001  0.531203E+000  0.000000E+000
 0.147685E-001  0.507763E+000  0.000000E+000
 0.139836E-001  0.484323E+000  0.000000E+000
 0.131988E-001  0.460883E+000  0.000000E+000
 0.124140E-001  0.437444E+000  0.000000E+000
 0.116291E-001  0.414004E+000  0.000000E+000
 0.108443E-001  0.390564E+000  0.000000E+000
 0.100595E-001  0.367124E+000  0.000000E+000
 0.927464E-002  0.343684E+000  0.000000E+000
 0.848981E-002  0.320244E+000  0.000000E+000
 0.770498E-002  0.296804E+000  0.000000E+000
 0.692014E-002  0.273365E+000  0.000000E+000
 0.613531E-002  0.249925E+000  0.000000E+000
 0.100000E+001  0.625000E-001  0.000000E+000
 0.976553E+000  0.609302E-001  0.000000E+000
 0.953106E+000  0.593604E-001  0.000000E+000
 0.929659E+000  0.577906E-001  0.000000E+000
 0.906212E+000  0.562209E-001  0.000000E+000
 0.882765E+000  0.546511E-001  0.000000E+000
 0.859319E+000  0.530813E-001  0.000000E+000
 0.835872E+000  0.515115E-001  0.000000E+000
 0.812425E+000  0.499417E-001  0.000000E+000
 0.788978E+000  0.483719E-001  0.000000E+000
 0.765531E+000  0.468022E-001  0.000000E+000
 0.742084E+000  0.452324E-001  0.000000E+000
 0.718637E+000  0.436626E-001  0.000000E+000
 0.695190E+000  0.420928E-001  0.000000E+000
 0.671743E+000  0.405230E-001  0.000000E+000
 0.648296E+000  0.389532E-001  0.000000E+000
 0.624849E+000  0.373835E-001  0.000000E+000
 0.601403E+000  0.358137E-001  0.000000E+000
 0.577956E+000  0.342439E-001  0.000000E+000
 0.554509E+000  0.326741E-001  0.000000E+000
 0.531062E+000  0.311043E-001  0.000000E+000
 0.507615E+000  0.295345E-001  0.000000E+000
 0.484168E+000  0.279648E-001  0.000000E+000
 0.460721E+000  0.263950E-001  0.000000E+000
 0.437274E+000  0.248252E-001  0.000000E+000
 0.413827E+000  0.232554E-001  0.000000E+000
 0.390380E+000  0.216856E-001  0.000000E+000
 0.366933E+000  0.201158E-001  0.000000E+000
 0.343487E+000  0.185461E-001  0.000000E+000
 0.320040E+000  0.169763E-001  0.000000E+000
 0.296593E+000  0.154065E-001  0.000000E+000
 0.273146E+000  0.138367E-001  0.000000E+000
 0.249699E+000  0.122669E-001  0.000000E+000
 0.625000E-001  0.100000E+001  0.000000E+000
 0.609302E-001  0.976553E+000  0.000000E+000
 0.593604E-001  0.953106E+000  0.000000E+000
 0.577906E-001  0.929659E+000  0.000000E+000
 0.562209E-001  0.906212E+000  0.000000E+000
 0.546511E-001  0.882765E+000  0.000000E+000
 0.530813E-001  0.859319E+000  0.000000E+000
 0.515115E-001  0.835872E+000  0.000000E+000
 0.499417E-001  0.812425E+000  0.000000E+000
 0.483719E-001  0.788978E+000  0.000000E+000
 0.468022E-001  0.765531E+000  0.000000E+000
 0.452324E-001  0.742084E+000  0.000000E+000
 0.436626E-001  0.718637E+000  0.000000E+000
 0.420928E-001  0.695190E+000  0.000000E+000
 0.405230E-001  0.671743E+000  0.000000E+000
 0.389532E-001  0.648296E+000  0.000000E+000
 0.373835E-001  0.624849E+000  0.000000E+000
 0.358137E-001  0.601403E+000  0.000000E+000
 0.342439E-001  0.577956E+000  0.000000E+000
 0.326741E-001  0.554509E+000  0.000000E+000
 0.311043E-001  0.531062E+000  0.000000E+000
 0.295345E-001  0.507615E+000  0.000000E+000
 0.279648E-001  0.484168E+000  0.000000E+000
 0.263950E-001  0.460721E+000  0.000000E+000
 0.248252E-001  0.437274E+000  0.000000E+000
 0.232554E-001  0.413827E+000  0.000000E+000
 0.216856E-001  0.390380E+000  0.000000E+000
 0.201158E-001  0.366933E+000  0.000000E+000
 0.185461E-001  0.343487E+000  0.000000E+000
 0.169763E-001  0.320040E+000  0.000000E+000
 0.154065E-001  0.296593E+000  0.000000E+000
 0.138367E-001  0.273146E+000  0.000000E+000
 0.122669E-001  0.249699E+000  0.000000E+000
 0.100000E+001  0.937500E-001  0.000000E+000
 0.976541E+000  0.913950E-001  0.000000E+000
 0.953083E+000  0.890401E-001  0.000000E+000
 0.929624E+000  0.866851E-001  0.000000E+000
 0.906165E+000  0.843301E-001  0.000000E+000
 0.882707E+000  0.819752E-001  0.000000E+000
 0.859248E+000  0.796202E-001  0.000000E+000
 0.835789E+000  0.772652E-001  0.000000E+000
 0.812331E+000  0.749103E-001  0.000000E+000
 0.788872E+000  0.725553E-001  0.000000E+000
 0.765413E+000  0.702004E-001  0.000000E+000
 0.741955E+000  0.678454E-001  0.000000E+000
 0.718496E+000  0.654904E-001  0.000000E+000
 0.695037E+000  0.631355E-001  0.000000E+000
 0.671579E+000  0.607805E-001  0.000000E+000
 0.648120E+000  0.584255E-001  0.000000E+000
 0.624661E+000  0.560706E-001  0.000000E+000
 0.601203E+000  0.537156E-001  0.000000E+000
 0.577744E+000  0.513606E-001  0.000000E+000
 0.554285E+000  0.490057E-001  0.000000E+000
 0.530827E+000  0.466507E-001  0.000000E+000
 0.507368E+000  0.442957E-001  0.000000E+000
 0.483909E+000  0.419408E-001  0.000000E+000
 0.460451E+000  0.395858E-001  0.000000E+000
 0.436992E+000  0.372309E-001  0.000000E+000
 0.413533E+000  0.348759E-001  0.000000E+000
 0.390075E+000  0.325209E-001  0.000000E+000
 0.366616E+000  0.301660E-001  0.000000E+000
 0.343157E+000  0.278110E-001  0.000000E+000
 0.319699E+000  0.254560E-001  0.000000E+000
 0.296240E+000  0.231011E-001  0.000000E+000
 0.272781E+000  0.207461E-001  0.000000E+000
 0.249323E+000  0.183911E-001  0.000000E+000
 0.937500E-001  0.100000E+001  0.000000E+000
 0.913950E-001  0.976541E+000  0.000000E+000
 0.890401E-001  0.953083E+000  0.000000E+000
 0.866851E-001  0.929624E+000  0.000000E+000
 0.843301E-001  0.906165E+000  0.000000E+000
 0.819752E-001  0.882707E+000  0.000000E+000
 0.796202E-001  0.859248E+000  0.000000E+000
 0.772652E-001  0.835789E+000  0.000000E+000
 0.749103E-001  0.812331E+000  0.000000E+000
 0.725553E-001  0.788872E+000  0.000000E+000
 0.702004E-001  0.765413E+000  0.000000E+000
 0.678454E-001  0.741955E+000  0.000000E+000
 0.654904E-001  0.718496E+000  0.000000E+000
 0.631355E-001  0.695037E+000  0.000000E+000
 0.607805E-001  0.671579E+000  0.000000E+000
 0.584255E-001  0.648120E+000  0.000000E+000
 0.560706E-001  0.624661E+000  0.000000E+000
 0.537156E-001  0.601203E+000  0.000000E+000
 0.513606E-001  0.577744E+000  0.000000E+000
 0.490057E-001  0.554285E+000  0.000000E+000
 0.466507E-001  0.530827E+000  0.000000E+000
 0.442957E-001  0.507368E+000  0.000000E+000
 0.419408E-001  0.483909E+000  0.000000E+000
 0.395858E-001  0.460451E+000  0.000000E+000
 0.372309E-001  0.436992E+000  0.000000E+000
 0.348759E-001  0.413533E+000  0.000000E+000
 0.325209E-001  0.390075E+000  0.000000E+000
 0.301660E-001  0.366616E+000  0.000000E+000
 0.278110E-001  0.343157E+000  0.000000E+000
 0.254560E-001  0.319699E+000  0.000000E+000
 0.231011E-001  0.296240E+000  0.000000E+000
 0.207461E-001  0.272781E+000  0.000000E+000
 0.183911E-001  0.249323E+000  0.000000E+000
 0.100000E+001  0.125000E+000  0.000000E+000
 0.976525E+000  0.121860E+000  0.000000E+000
 0.953050E+000  0.118719E+000  0.000000E+000
 0.929575E+000  0.115579E+000  0.000000E+000
 0.906100E+000  0.112438E+000  0.000000E+000
 0.882624E+000  0.109298E+000  0.000000E+000
 0.859149E+000  0.106157E+000  0.000000E+000
 0.835674E+000  0.103017E+000  0.000000E+000
 0.812199E+000  0.998761E-001  0.000000E+000
 0.788724E+000  0.967356E-001  0.000000E+000
 0.765249E+000  0.935951E-001  0.000000E+000
 0.741774E+000  0.904546E-001  0.000000E+000
 0.718299E+000  0.873141E-001  0.000000E+000
 0.694823E+000  0.841736E-001  0.000000E+000
 0.671348E+000  0.810331E-001  0.000000E+000
 0.647873E+000  0.778926E-001  0.000000E+000
 0.624398E+000  0.747521E-001  0.000000E+000
 0.600923E+000  0.716117E-001  0.000000E+000
 0.577448E+000  0.684712E-001  0.000000E+000
 0.553973E+000  0.653307E-001  0.000000E+000
 0.530498E+000  0.621902E-001  0.000000E+000
 0.507022E+000  0.590497E-001  0.000000E+000
 0.483547E+000  0.559092E-001  0.000000E+000
 0.460072E+000  0.527687E-001  0.000000E+000
 0.436597E+000  0.496282E-001  0.000000E+000
 0.413122E+000  0.464877E-001  0.000000E+000
 0.389647E+000  0.433472E-001  0.000000E+000
 0.366172E+000  0.402067E-001  0.000000E+000
 0.342697E+000  0.370662E-001  0.000000E+000
 0.319222E+000  0.339258E-001  0.000000E+000
 0.295746E+000  0.307853E-001  0.000000E+000
 0.272271E+000  0.276448E-001  0.000000E+000
 0.248796E+000  0.245043E-001  0.000000E+000
 0.125000E+000  0.100000E+001  0.000000E+000
 0.121860E+000  0.976525E+000  0.000000E+000
 0.118719E+000  0.953050E+000  0.000000E+000
 0.115579E+000  0.929575E+000  0.000000E+000
 0.112438E+000  0.906100E+000  0.000000E+000
 0.109298E+000  0.882624E+000  0.000000E+000
 0.106157E+000  0.859149E+000  0.000000E+000
 0.103017E+000  0.835674E+000  0.000000E+000
 0.998761E-001  0.812199E+000  0.000000E+000
 0.967356E-001  0.788724E+000  0.000000E+000
 0.935951E-001  0.765249E+000  0.000000E+000
 0.904546E-001  0.741774E+000  0.000000E+000
 0.873141E-001  0.718299E+000  0.000000E+000
 0.841736E-001  0.694823E+000  0.000000E+000
 0.810331E-001  0.671348E+000  0.000000E+000
 0.778926E-001  0.647873E+000  0.000000E+000
 0.747521E-001  0.624398E+000  0.000000E+000
 0.716117E-001  0.600923E+000  0.000000E+000
 0.684712E-001  0.577448E+000  0.000000E+000
 0.653307E-001  0.553973E+000  0.000000E+000
 0.621902E-001  0.530498E+000  0.000000E+000
 0.590497E-001  0.507022E+000  0.000000E+000
 0.559092E-001  0.483547E+000  0.000000E+000
 0.527687E-001  0.460072E+000  0.000000E+000
 0.496282E-001  0.436597E+000  0.000000E+000
 0.464877E-001  0.413122E+000  0.000000E+000
 0.433472E-001  0.389647E+000  0.000000E+000
 0.402067E-001  0.366172E+000  0.000000E+000
 0.370662E-001  0.342697E+000  0.000000E+000
 0.339258E-001  0.319222E+000  0.000000E+000
 0.307853E-001  0.295746E+000  0.000000E+000
 0.276448E-001  0.272271E+000  0.000000E+000
 0.245043E-001  0.248796E+000  0.000000E+000
 0.100000E+001  0.156250E+000  0.000000E+000
 0.976504E+000  0.152324E+000  0.000000E+000
 0.953007E+000  0.148397E+000  0.000000E+000
 0.929511E+000  0.144471E+000  0.000000E+000
 0.906015E+000  0.140544E+000  0.000000E+000
 0.882519E+000  0.136618E+000  0.000000E+000
 0.859022E+000  0.132691E+000  0.000000E+000
 0.835526E+000  0.128765E+000  0.000000E+000
 0.812030E+000  0.124838E+000  0.000000E+000
 0.788534E+000  0.120912E+000  0.000000E+000
 0.765037E+000  0.116985E+000  0.000000E+000
 0.741541E+000  0.113059E+000  0.000000E+000
 0.718045E+000  0.109132E+000  0.000000E+000
 0.694549E+000  0.105206E+000  0.000000E+000
 0.671052E+000  0.101279E+000  0.000000E+000
 0.647556E+000  0.973528E-001  0.000000E+000
 0.624060E+000  0.934263E-001  0.000000E+000
 0.600564E+000  0.894999E-001  0.000000E+000
 0.577067E+000  0.855734E-001  0.000000E+000
 0.553571E+000  0.816469E-001  0.000000E+000
 0.530075E+000  0.777204E-001  0.000000E+000
 0.506579E+000  0.737939E-001  0.000000E+000
 0.483082E+000  0.698675E-001  0.000000E+000
 0.459586E+000  0.659410E-001  0.000000E+000
 0.436090E+000  0.620145E-001  0.000000E+000
 0.412594E+000  0.580880E-001  0.000000E+000
 0.389097E+000  0.541615E-001  0.000000E+000
 0.365601E+000  0.502351E-001  0.000000E+000
 0.342105E+000  0.463086E-001  0.000000E+000
 0.318609E+000  0.423821E-001  0.000000E+000
 0.295112E+000  0.384556E-001  0.000000E+000
 0.271616E+000  0.345291E-001  0.000000E+000
 0.248120E+000  0.306027E-001  0.000000E+000
 0.156250E+000  0.100000E+001  0.000000E+000
 0.152324E+000  0.976504E+000  0.000000E+000
 0.148397E+000  0.953007E+000  0.000000E+000
 0.144471E+000  0.929511E+000  0.000000E+000
 0.140544E+000  0.906015E+000  0.000000E+000
 0.136618E+000  0.882519E+000  0.000000E+000
 0.132691E+000  0.859022E+000  0.000000E+000
 0.128765E+000  0.835526E+000  0.000000E+000
 0.124838E+000  0.812030E+000  0.000000E+000
 0.120912E+000  0.788534E+000  0.000000E+000
 0.116985E+000  0.765037E+000  0.000000E+000
 0.113059E+000  0.741541E+000  0.000000E+000
 0.109132E+000  0.718045E+000  0.000000E+000
 0.105206E+000  0.694549E+000  0.000000E+000
 0.101279E+000  0.671052E+000  0.000000E+000
 0.973528E-001  0.647556E+000  0.000000E+000
 0.934263E-001  0.624060E+000  0.000000E+000
 0.894999E-001  0.600564E+000  0.000000E+000
 0.855734E-001  0.577067E+000  0.000000E+000
 0.816469E-001  0.553571E+000  0.000000E+000
 0.777204E-001  0.530075E+000  0.000000E+000
 0.737939E-001  0.506579E+000  0.000000E+000
 0.698675E-001  0.483082E+000  0.000000E+000
 0.659410E-001  0.459586E+000  0.000000E+000
 0.620145E-001  0.436090E+000  0.000000E+000
 0.580880E-001  0.412594E+000  0.000000E+000
 0.541615E-001  0.389097E+000  0.000000E+000
 0.502351E-001  0.365601E+000  0.000000E+000
 0.463086E-001  0.342105E+000  0.000000E+000
 0.423821E-001  0.318609E+000  0.000000E+000
 0.384556E-001  0.295112E+000  0.000000E+000
 0.345291E-001  0.271616E+000  0.000000E+000
 0.306027E-001  0.248120E+000  0.000000E+000
 0.100000E+001  0.187500E+000  0.000000E+000
 0.976478E+000  0.182787E+000  0.000000E+000
 0.952956E+000  0.178074E+000  0.000000E+000
 0.929434E+000  0.173361E+000  0.000000E+000
 0.905912E+000  0.168648E+000  0.000000E+000
 0.882390E+000  0.163935E+000  0.000000E+000
 0.858868E+000  0.159222E+000  0.000000E+000
 0.835346E+000  0.154509E+000  0.000000E+000
 0.811824E+000  0.149796E+000  0.000000E+000
 0.788301E+000  0.145083E+000  0.000000E+000
 0.764779E+000  0.140370E+000  0.000000E+000
 0.741257E+000  0.135657E+000  0.000000E+000
 0.717735E+000  0.130943E+000  0.000000E+000
 0.694213E+000  0.126230E+000  0.000000E+000
 0.670691E+000  0.121517E+000  0.000000E+000
 0.647169E+000  0.116804E+000  0.000000E+000
 0.623647E+000  0.112091E+000  0.000000E+000
 0.600125E+000  0.107378E+000  0.000000E+000
 0.576603E+000  0.102665E+000  0.000000E+000
 0.553081E+000  0.979522E-001  0.000000E+000
 0.529559E+000  0.932391E-001  0.000000E+000
 0.506037E+000  0.885261E-001  0.000000E+000
 0.482515E+000  0.838131E-001  0.000000E+000
 0.458993E+000  0.791000E-001  0.000000E+000
 0.435471E+000  0.743870E-001  0.000000E+000
 0.411949E+000  0.696739E-001  0.000000E+000
 0.388426E+000  0.649609E-001  0.000000E+000
 0.364904E+000  0.602478E-001  0.000000E+000
 0.341382E+000  0.555348E-001  0.000000E+000
 0.317860E+000  0.508217E-001  0.000000E+000
 0.294338E+000  0.461087E-001  0.000000E+000
 0.270816E+000  0.413957E-001  0.000000E+000
 0.247294E+000  0.366826E-001  0.000000E+000
 0.187500E+000  0.100000E+001  0.000000E+000
 0.182787E+000  0.976478E+000  0.000000E+000
 0.178074E+000  0.952956E+000  0.000000E+000
 0.173361E+000  0.929434E+000  0.000000E+000
 0.168648E+000  0.905912E+000  0.000000E+000
 0.163935E+000  0.882390E+000  0.000000E+000
 0.159222E+000  0.858868E+000  0.000000E+000
 0.154509E+000  0.835346E+000  0.000000E+000
 0.149796E+000  0.811824E+000  0.000000E+000
 0.145083E+000  0.788301E+000  0.000000E+000
 0.140370E+000  0.764779E+000  0.000000E+000
 0.135657E+000  0.741257E+000  0.000000E+000
 0.130943E+000  0.717735E+000  0.000000E+000
 0.126230E+000  0.694213E+000  0.000000E+000
 0.121517E+000  0.670691E+000  0.000000E+000
 0.116804E+000  0.647169E+000  0.000000E+000
 0.112091E+000  0.623647E+000  0.000000E+000
 0.107378E+000  0.600125E+000  0.000000E+000
 0.102665E+000  0.576603E+000  0.000000E+000
 0.979522E-001  0.553081E+000  0.000000E+000
 0.932391E-001  0.529559E+000  0.000000E+000
 0.885261E-001  0.506037E+000  0.000000E+000
 0.838131E-001  0.482515E+000  0.000000E+000
 0.791000E-001  0.458993E+000  0.000000E+000
 0.743870E-001  0.435471E+000  0.000000E+000
 0.696739E-001  0.411949E+000  0.000000E+000
 0.649609E-001  0.388426E+000  0.000000E+000
 0.602478E-001  0.364904E+000  0.000000E+000
 0.555348E-001  0.341382E+000  0.000000E+000
 0.508217E-001  0.317860E+000  0.000000E+000
 0.461087E-001  0.294338E+000  0.000000E+000
 0.413957E-001  0.270816E+000  0.000000E+000
 0.366826E-001  0.247294E+000  0.000000E+000
 0.100000E+001  0.218750E+000  0.000000E+000
 0.976447E+000  0.213250E+000  0.000000E+000
 0.952895E+000  0.207749E+000  0.000000E+000
 0.929342E+000  0.202249E+000  0.000000E+000
 0.905790E+000  0.196749E+000  0.000000E+000
 0.882237E+000  0.191249E+000  0.000000E+000
 0.858685E+000  0.185748E+000  0.000000E+000
 0.835132E+000  0.180248E+000  0.000000E+000
 0.811580E+000  0.174748E+000  0.000000E+000
 0.788027E+000  0.169247E+000  0.000000E+000
 0.764475E+000  0.163747E+000  0.000000E+000
 0.740922E+000  0.158247E+000  0.000000E+000
 0.717370E+000  0.152746E+000  0.000000E+000
 0.693817E+000  0.147246E+000  0.000000E+000
 0.670265E+000  0.141746E+000  0.000000E+000
 0.646712E+000  0.136246E+000  0.000000E+000
 0.623160E+000  0.130745E+000  0.000000E+000
 0.599607E+000  0.125245E+000  0.000000E+000
 0.576055E+000  0.119745E+000  0.000000E+000
 0.552502E+000  0.114244E+000  0.000000E+000
 0.528950E+000  0.108744E+000  0.000000E+000
 0.505397E+000  0.103244E+000  0.000000E+000
 0.481845E+000  0.977434E-001  0.000000E+000
 0.458292E+000  0.922432E-001  0.000000E+000
 0.434740E+000  0.867429E-001  0.000000E+000
 0.411187E+000  0.812426E-001  0.000000E+000
 0.387635E+000  0.757423E-001  0.000000E+000
 0.364082E+000  0.702420E-001  0.000000E+000
 0.340529E+000  0.647417E-001  0.000000E+000
 0.316977E+000  0.592414E-001  0.000000E+000
 0.293424E+000  0.537411E-001  0.000000E+000
 0.269872E+000  0.482408E-001  0.000000E+000
 0.246319E+000  0.427405E-001  0.000000E+000
 0.218750E+000  0.100000E+001  0.000000E+000
 0.213250E+000  0.976447E+000  0.000000E+000
 0.207749E+000  0.952895E+000  0.000000E+000
 0.202249E+000  0.929342E+000  0.000000E+000
 0.196749E+000  0.905790E+000  0.000000E+000
 0.191249E+000  0.882237E+000  0.000000E+000
 0.185748E+000  0.858685E+000  0.000000E+000
 0.180248E+000  0.835132E+000  0.000000E+000
 0.174748E+000  0.811580E+000  0.000000E+000
 0.169247E+000  0.788027E+000  0.000000E+000
 0.163747E+000  0.764475E+000  0.000000E+000
 0.158247E+000  0.740922E+000  0.000000E+000
 0.152746E+000  0.717370E+000  0.000000E+000
 0.147246E+000  0.693817E+000  0.000000E+000
 0.141746E+000  0.670265E+000  0.000000E+000
 0.136246E+000  0.646712E+000  0.000000E+000
 0.130745E+000  0.623160E+000  0.000000E+000
 0.125245E+000  0.599607E+000  0.000000E+000
 0.119745E+000  0.576055E+000  0.000000E+000
 0.114244E+000  0.552502E+000  0.000000E+000
 0.108744E+000  0.528950E+000  0.000000E+000
 0.103244E+000  0.505397E+000  0.000000E+000
 0.977434E-001  0.481845E+000  0.000000E+000
 0.922432E-001  0.458292E+000  0.000000E+000
 0.867429E-001  0.434740E+000  0.000000E+000
 0.812426E-001  0.411187E+000  0.000000E+000
 0.757423E-001  0.387635E+000  0.000000E+000
 0.702420E-001  0.364082E+000  0.000000E+000
 0.647417E-001  0.340529E+000  0.000000E+000
 0.592414E-001  0.316977E+000  0.000000E+000
 0.537411E-001  0.293424E+000  0.000000E+000
 0.482408E-001  0.269872E+000  0.000000E+000
 0.427405E-001  0.246319E+000  0.000000E+000
 0.100000E+001  0.250000E+000  0.000000E+000
 0.976412E+000  0.243712E+000  0.000000E+000
 0.952825E+000  0.237423E+000  0.000000E+000
 0.929237E+000  0.231135E+000  0.000000E+000
 0.905650E+000  0.224847E+000  0.000000E+000
 0.882062E+000  0.218558E+000  0.000000E+000
 0.858474E+000  0.212270E+000  0.000000E+000
 0.834887E+000  0.205982E+000  0.000000E+000
 0.811299E+000  0.199693E+000  0.000000E+000
 0.787711E+000  0.193405E+000  0.000000E+000
 0.764124E+000  0.187116E+000  0.000000E+000
 0.740536E+000  0.180828E+000  0.000000E+000
 0.716949E+000  0.174540E+000  0.000000E+000
 0.693361E+000  0.168251E+000  0.000000E+000
 0.669773E+000  0.161963E+000  0.000000E+000
 0.646186E+000  0.155675E+000  0.000000E+000
 0.622598E+000  0.149386E+000  0.000000E+000
 0.599011E+000  0.143098E+000  0.000000E+000
 0.575423E+000  0.136810E+000  0.000000E+000
 0.551835E+000  0.130521E+000  0.000000E+000
 0.528248E+000  0.124233E+000  0.000000E+000
 0.504660E+000  0.117945E+000  0.000000E+000
 0.481072E+000  0.111656E+000  0.000000E+000
 0.457485E+000  0.105368E+000  0.000000E+000
 0.433897E+000  0.990794E-001  0.000000E+000
 0.410310E+000  0.927911E-001  0.000000E+000
 0.386722E+000  0.865027E-001  0.000000E+000
 0.363134E+000  0.802144E-001  0.000000E+000
 0.339547E+000  0.739260E-001  0.000000E+000
 0.315959E+000  0.676377E-001  0.000000E+000
 0.292372E+000  0.613493E-001  0.000000E+000
 0.268784E+000  0.550609E-001  0.000000E+000
 0.245196E+000  0.487726E-001  0.000000E+000
 0.250000E+000  0.100000E+001  0.000000E+000
 0.243712E+000  0.976412E+000  0.000000E+000
 0.237423E+000  0.952825E+000  0.000000E+000
 0.231135E+000  0.929237E+000  0.000000E+000
 0.224847E+000  0.905650E+000  0.000000E+000
 0.218558E+000  0.882062E+000  0.000000E+000
 0.212270E+000  0.858474E+000  0.000000E+000
 0.205982E+000  0.834887E+000  0.000000E+000
 0.199693E+000  0.811299E+000  0.000000E+000
 0.193405E+000  0.787711E+000  0.000000E+000
 0.187116E+000  0.764124E+000  0.000000E+000
 0.180828E+000  0.740536E+000  0.000000E+000
 0.174540E+000  0.716949E+000  0.000000E+000
 0.168251E+000  0.693361E+000  0.000000E+000
 0.161963E+000  0.669773E+000  0.000000E+000
 0.155675E+000  0.646186E+000  0.000000E+000
 0.149386E+000  0.622598E+000  0.000000E+000
 0.143098E+000  0.599011E+000  0.000000E+000
 0.136810E+000  0.575423E+000  0.000000E+000
 0.130521E+000  0.551835E+000  0.000000E+000
 0.124233E+000  0.528248E+000  0.000000E+000
 0.117945E+000  0.504660E+000  0.000000E+000
 0.111656E+000  0.481072E+000  0.000000E+000
 0.105368E+000  0.457485E+000  0.000000E+000
 0.990794E-001  0.433897E+000  0.000000E+000
 0.927911E-001  0.410310E+000  0.000000E+000
 0.865027E-001  0.386722E+000  0.000000E+000
 0.802144E-001  0.363134E+000  0.000000E+000
 0.739260E-001  0.339547E+000  0.000000E+000
 0.676377E-001  0.315959E+000  0.000000E+000
 0.613493E-001  0.292372E+000  0.000000E+000
 0.550609E-001  0.268784E+000  0.000000E+000
 0.487726E-001  0.245196E+000  0.000000E+000
 0.100000E+001  0.281250E+000  0.000000E+000
 0.976373E+000  0.274173E+000  0.000000E+000
 0.952745E+000  0.267095E+000  0.000000E+000
 0.929118E+000  0.260018E+000  0.000000E+000
 0.905491E+000  0.252941E+000  0.000000E+000
 0.881863E+000  0.245863E+000  0.000000E+000
 0.858236E+000  0.238786E+000  0.000000E+000
 0.834609E+000  0.231709E+000  0.000000E+000
 0.810981E+000  0.224631E+000  0.000000E+000
 0.787354E+000  0.217554E+000  0.000000E+000
 0.763727E+000  0.210477E+000  0.000000E+000
 0.740099E+000  0.203399E+000  0.000000E+000
 0.716472E+000  0.196322E+000  0.000000E+000
 0.692845E+000  0.189245E+000  0.000000E+000
 0.669217E+000  0.182167E+000  0.000000E+000
 0.645590E+000  0.175090E+000  0.000000E+000
 0.621963E+000  0.168013E+000  0.000000E+000
 0.598335E+000  0.160935E+000  0.000000E+000
 0.574708E+000  0.153858E+000  0.000000E+000
 0.551081E+000  0.146781E+000  0.000000E+000
 0.527453E+000  0.139703E+000  0.000000E+000
 0.503826E+000  0.132626E+000  0.000000E+000
 0.480199E+000  0.125549E+000  0.000000E+000
 0.456571E+000  0.118471E+000  0.000000E+000
 0.432944E+000  0.111394E+000  0.000000E+000
 0.409317E+000  0.104317E+000  0.000000E+000
 0.385689E+000  0.972393E-001  0.000000E+000
 0.362062E+000  0.901620E-001  0.000000E+000
 0.338435E+000  0.830846E-001  0.000000E+000
 0.314808E+000  0.760073E-001  0.000000E+000
 0.291180E+000  0.689300E-001  0.000000E+000
 0.267553E+000  0.618526E-001  0.000000E+000
 0.243926E+000  0.547753E-001  0.000000E+000
 0.281250E+000  0.100000E+001  0.000000E+000
 0.274173E+000  0.976373E+000  0.000000E+000
 0.267095E+000  0.952745E+000  0.000000E+000
 0.260018E+000  0.929118E+000  0.000000E+000
 0.252941E+000  0.905491E+000  0.000000E+000
 0.245863E+000  0.881863E+000  0.000000E+000
 0.238786E+000  0.858236E+000  0.000000E+000
 0.231709E+000  0.834609E+000  0.000000E+000
 0.224631E+000  0.810981E+000  0.000000E+000
 0.217554E+000  0.787354E+000  0.000000E+000
 0.210477E+000  0.763727E+000  0.000000E+000
 0.203399E+000  0.740099E+000  0.000000E+000
 0.196322E+000  0.716472E+000  0.000000E+000
 0.189245E+000  0.692845E+000  0.000000E+000
 0.182167E+000  0.669217E+000  0.000000E+000
 0.175090E+000  0.645590E+000  0.000000E+000
 0.168013E+000  0.621963E+000  0.000000E+000
 0.160935E+000  0.598335E+000  0.000000E+000
 0.153858E+000  0.574708E+000  0.000000E+000
 0.146781E+000  0.551081E+000  0.000000E+000
 0.139703E+000  0.527453E+000  0.000000E+000
 0.132626E+000  0.503826E+000  0.000000E+000
 0.125549E+000  0.480199E+000  0.000000E+000
 0.118471E+000  0.456571E+000  0.000000E+000
 0.111394E+000  0.432944E+000  0.000000E+000
 0.104317E+000  0.409317E+000  0.000000E+000
 0.972393E-001  0.385689E+000  0.000000E+000
 0.901620E-001  0.362062E+000  0.000000E+000
 0.830846E-001  0.338435E+000  0.000000E+000
 0.760073E-001  0.314808E+000  0.000000E+000
 0.689300E-001  0.291180E+000  0.000000E+000
 0.618526E-001  0.267553E+000  0.000000E+000
 0.547753E-001  0.243926E+000  0.000000E+000
 0.100000E+001  0.312500E+000  0.000000E+000
 0.976328E+000  0.304633E+000  0.000000E+000
 0.952657E+000  0.296765E+000  0.000000E+000
 0.928985E+000  0.288898E+000  0.000000E+000
 0.905313E+000  0.281031E+000  0.000000E+000
 0.881642E+000  0.273163E+000  0.000000E+000
 0.857970E+000  0.265296E+000  0.000000E+000
 0.834299E+000  0.257429E+000  0.000000E+000
 0.810627E+000  0.249561E+000  0.000000E+000
 0.786955E+000  0.241694E+000  0.000000E+000
 0.763284E+000  0.233827E+000  0.000000E+000
 0.739612E+000  0.225959E+000  0.000000E+000
 0.715940E+000  0.218092E+000  0.000000E+000
 0.692269E+000  0.210225E+000  0.000000E+000
 0.668597E+000  0.202357E+000  0.000000E+000
 0.644926E+000  0.194490E+000  0.000000E+000
 0.621254E+000  0.186623E+000  0.000000E+000
 0.597582E+000  0.178755E+000  0.000000E+000
 0.573911E+000  0.170888E+000  0.000000E+000
 0.550239E+000  0.163020E+000  0.000000E+000
 0.526567E+000  0.155153E+000  0.000000E+000
 0.502896E+000  0.147286E+000  0.000000E+000
 0.479224E+000  0.139418E+000  0.000000E+000
 0.455552E+000  0.131551E+000  0.000000E+000
 0.431881E+000  0.123684E+000  0.000000E+000
 0.408209E+000  0.115816E+000  0.000000E+000
 0.384538E+000  0.107949E+000  0.000000E+000
 0.360866E+000  0.100082E+000  0.000000E+000
 0.337194E+000  0.922144E-001  0.000000E+000
 0.313523E+000  0.843471E-001  0.000000E+000
 0.289851E+000  0.764797E-001  0.000000E+000
 0.266179E+000  0.686124E-001  0.000000E+000
 0.242508E+000  0.607450E-001  0.000000E+000
 0.312500E+000  0.100000E+001  0.000000E+000
 0.304633E+000  0.976328E+000  0.000000E+000
 0.296765E+000  0.952657E+000  0.000000E+000
 0.288898E+000  0.928985E+000  0.000000E+000
 0.281031E+000  0.905313E+000  0.000000E+000
 0.273163E+000  0.881642E+000  0.000000E+000
 0.265296E+000  0.857970E+000  0.000000E+000
 0.257429E+000  0.834299E+000  0.000000E+000
 0.249561E+000  0.810627E+000  0.000000E+000
 0.241694E+000  0.786955E+000  0.000000E+000
 0.233827E+000  0.763284E+000  0.000000E+000
 0.225959E+000  0.739612E+000  0.000000E+000
 0.218092E+000  0.715940E+000  0.000000E+000
 0.210225E+000  0.692269E+000  0.000000E+000
 0.202357E+000  0.668597E+000  0.000000E+000
 0.194490E+000  0.644926E+000  0.000000E+000
 0.186623E+000  0.621254E+000  0.000000E+000
 0.178755E+000  0.597582E+000  0.000000E+000
 0.170888E+000  0.573911E+000  0.000000E+000
 0.163020E+000  0.550239E+000  0.000000E+000
 0.155153E+000  0.526567E+000  0.000000E+000
 0.147286E+000  0.502896E+000  0.000000E+000
 0.139418E+000  0.479224E+000  0.000000E+000
 0.131551E+000  0.455552E+000  0.000000E+000
 0.123684E+000  0.431881E+000  0.000000E+000
 0.115816E+000  0.408209E+000  0.000000E+000
 0.107949E+000  0.384538E+000  0.000000E+000
 0.100082E+000  0.360866E+000  0.000000E+000
 0.922144E-001  0.337194E+000  0.000000E+000
 0.843471E-001  0.313523E+000  0.000000E+000
 0.764797E-001  0.289851E+000  0.000000E+000
 0.686124E-001  0.266179E+000  0.000000E+000
 0.607450E-001  0.242508E+000  0.000000E+000
 0.100000E+001  0.343750E+000  0.000000E+000
 0.976280E+000  0.335092E+000  0.000000E+000
 0.952559E+000  0.326433E+000  0.000000E+000
 0.928839E+000  0.317775E+000  0.000000E+000
 0.905118E+000  0.309116E+000  0.000000E+000
 0.881398E+000  0.300458E+000  0.000000E+000
 0.857677E+000  0.291799E+000  0.000000E+000
 0.833957E+000  0.283141E+000  0.000000E+000
 0.810236E+000  0.274482E+000  0.000000E+000
 0.786516E+000  0.265824E+000  0.000000E+000
 0.762795E+000  0.257165E+000  0.000000E+000
 0.739075E+000  0.248507E+000  0.000000E+000
 0.715354E+000  0.239848E+000  0.000000E+000
 0.691634E+000  0.231190E+000  0.000000E+000
 0.667913E+000  0.222531E+000  0.000000E+000
 0.644193E+000  0.213873E+000  0.000000E+000
 0.620472E+000  0.205214E+000  0.000000E+000
 0.596752E+000  0.196556E+000  0.000000E+000
 0.573031E+000  0.187897E+000  0.000000E+000
 0.549311E+000  0.179239E+000  0.000000E+000
 0.525590E+000  0.170580E+000  0.000000E+000
 0.501870E+000  0.161922E+000  0.000000E+000
 0.478149E+000  0.153263E+000  0.000000E+000
 0.454429E+000  0.144605E+000  0.000000E+000
 0.430708E+000  0.135946E+000  0.000000E+000
 0.406988E+000  0.127288E+000  0.000000E+000
 0.383267E+000  0.118629E+000  0.000000E+000
 0.359547E+000  0.109971E+000  0.000000E+000
 0.335826E+000  0.101312E+000  0.000000E+000
 0.312106E+000  0.926537E-001  0.000000E+000
 0.288385E+000  0.839952E-001  0.000000E+000
 0.264665E+000  0.753367E-001  0.000000E+000
 0.240944E+000  0.666782E-001  0.000000E+000
 0.343750E+000  0.100000E+001  0.000000E+000
 0.335092E+000  0.976280E+000  0.000000E+000
 0.326433E+000  0.952559E+000  0.000000E+000
 0.317775E+000  0.928839E+000  0.000000E+000
 0.309116E+000  0.905118E+000  0.000000E+000
 0.300458E+000  0.881398E+000  0.000000E+000
 0.291799E+000  0.857677E+000  0.000000E+000
 0.283141E+000  0.833957E+000  0.000000E+000
 0.274482E+000  0.810236E+000  0.000000E+000
 0.265824E+000  0.786516E+000  0.000000E+000
 0.257165E+000  0.762795E+000  0.000000E+000
 0.248507E+000  0.739075E+000  0.000000E+000
 0.239848E+000  0.715354E+000  0.000000E+000
 0.231190E+000  0.691634E+000  0.000000E+000
 0.222531E+000  0.667913E+000  0.000000E+000
 0.213873E+000  0.644193E+000  0.000000E+000
 0.205214E+000  0.620472E+000  0.000000E+000
 0.196556E+000  0.596752E+000  0.000000E+000
 0.187897E+000  0.573031E+000  0.000000E+000
 0.179239E+000  0.549311E+000  0.000000E+000
 0.170580E+000  0.525590E+000  0.000000E+000
 0.161922E+000  0.501870E+000  0.000000E+000
 0.153263E+000  0.478149E+000  0.000000E+000
 0.144605E+000  0.454429E+000  0.000000E+000
 0.135946E+000  0.430708E+000  0.000000E+000
 0.127288E+000  0.406988E+000  0.000000E+000
 0.118629E+000  0.383267E+000  0.000000E+000
 0.109971E+000  0.359547E+000  0.000000E+000
 0.101312E+000  0.335826E+000  0.000000E+000
 0.926537E-001  0.312106E+000  0.000000E+000
 0.839952E-001  0.288385E+000  0.000000E+000
 0.753367E-001  0.264665E+000  0.000000E+000
 0.666782E-001  0.240944E+000  0.000000E+000
 0.100000E+001  0.375000E+000  0.000000E+000
 0.976226E+000  0.365549E+000  0.000000E+000
 0.952452E+000  0.356098E+000  0.000000E+000
 0.928678E+000  0.346647E+000  0.000000E+000
 0.904904E+000  0.337196E+000  0.000000E+000
 0.881130E+000  0.327745E+000  0.000000E+000
 0.857357E+000  0.318295E+000  0.000000E+000
 0.833583E+000  0.308844E+000  0.000000E+000
 0.809809E+000  0.299393E+000  0.000000E+000
 0.786035E+000  0.289942E+000  0.000000E+000
 0.762261E+000  0.280491E+000  0.000000E+000
 0.738487E+000  0.271040E+000  0.000000E+000
 0.714713E+000  0.261589E+000  0.000000E+000
 0.690939E+000  0.252138E+000  0.000000E+000
 0.667165E+000  0.242687E+000  0.000000E+000
 0.643391E+000  0.233236E+000  0.000000E+000
 0.619618E+000  0.223786E+000  0.000000E+000
 0.595844E+000  0.214335E+000  0.000000E+000
 0.572070E+000  0.204884E+000  0.000000E+000
 0.548296E+000  0.195433E+000  0.000000E+000
 0.524522E+000  0.185982E+000  0.000000E+000
 0.500748E+000  0.176531E+000  0.000000E+000
 0.476974E+000  0.167080E+000  0.000000E+000
 0.453200E+000  0.157629E+000  0.000000E+000
 0.429426E+000  0.148178E+000  0.000000E+000
 0.405652E+000  0.138727E+000  0.000000E+000
 0.381879E+000  0.129277E+000  0.000000E+000
 0.358105E+000  0.119826E+000  0.000000E+000
 0.334331E+000  0.110375E+000  0.000000E+000
 0.310557E+000  0.100924E+000  0.000000E+000
 0.286783E+000  0.914730E-001  0.000000E+000
 0.263009E+000  0.820221E-001  0.000000E+000
 0.239235E+000  0.725712E-001  0.000000E+000
 0.375000E+000  0.100000E+001  0.000000E+000
 0.365549E+000  0.976226E+000  0.000000E+000
 0.356098E+000  0.952452E+000  0.000000E+000
 0.346647E+000  0.928678E+000  0.000000E+000
 0.337196E+000  0.904904E+000  0.000000E+000
 0.327745E+000  0.881130E+000  0.000000E+000
 0.318295E+000  0.857357E+000  0.000000E+000
 0.308844E+000  0.833583E+000  0.000000E+000
 0.299393E+000  0.809809E+000  0.000000E+000
 0.289942E+000  0.786035E+000  0.000000E+000
 0.280491E+000  0.762261E+000  0.000000E+000
 0.271040E+000  0.738487E+000  0.000000E+000
 0.261589E+000  0.714713E+000  0.000000E+000
 0.252138E+000  0.690939E+000  0.000000E+000
 0.242687E+000  0.667165E+000  0.000000E+000
 0.233236E+000  0.643391E+000  0.000000E+000
 0.223786E+000  0.619618E+000  0.000000E+000
 0.214335E+000  0.595844E+000  0.000000E+000
 0.204884E+000  0.572070E+000  0.000000E+000
 0.195433E+000  0.548296E+000  0.000000E+000
 0.185982E+000  0.524522E+000  0.000000E+000
 0.176531E+000  0.500748E+000  0.000000E+000
 0.167080E+000  0.476974E+000  0.000000E+000
 0.157629E+000  0.453200E+000  0.000000E+000
 0.148178E+000  0.429426E+000  0.000000E+000
 0.138727E+000  0.405652E+000  0.000000E+000
 0.129277E+000  0.381879E+000  0.000000E+000
 0.119826E+000  0.358105E+000  0.000000E+000
 0.110375E+000  0.334331E+000  0.000000E+000
 0.100924E+000  0.310557E+000  0.000000E+000
 0.914730E-001  0.286783E+000  0.000000E+000
 0.820221E-001  0.263009E+000  0.000000E+000
 0.725712E-001  0.239235E+000  0.000000E+000
 0.100000E+001  0.406250E+000  0.000000E+000
 0.976168E+000  0.396005E+000  0.000000E+000
 0.952336E+000  0.385761E+000  0.000000E+000
 0.928505E+000  0.375516E+000  0.000000E+000
 0.904673E+000  0.365271E+000  0.000000E+000
 0.880841E+000  0.355027E+000  0.000000E+000
 0.857009E+000  0.344782E+000  0.000000E+000
 0.833177E+000  0.334537E+000  0.000000E+000
 0.809346E+000  0.324293E+000  0.000000E+000
 0.785514E+000  0.314048E+000  0.000000E+000
 0.761682E+000  0.303803E+000  0.000000E+000
 0.737850E+000  0.293559E+000  0.000000E+000
 0.714018E+000  0.283314E+000  0.000000E+000
 0.690186E+000  0.273069E+000  0.000000E+000
 0.666355E+000  0.262825E+000  0.000000E+000
 0.642523E+000  0.252580E+000  0.000000E+000
 0.618691E+000  0.242335E+000  0.000000E+000
 0.594859E+000  0.232091E+000  0.000000E+000
 0.571027E+000  0.221846E+000  0.000000E+000
 0.547196E+000  0.211601E+000  0.000000E+000
 0.523364E+000  0.201357E+000  0.000000E+000
 0.499532E+000  0.191112E+000  0.000000E+000
 0.475700E+000  0.180867E+000  0.000000E+000
 0.451868E+000  0.170623E+000  0.000000E+000
 0.428037E+000  0.160378E+000  0.000000E+000
 0.404205E+000  0.150133E+000  0.000000E+000
 0.380373E+000  0.139888E+000  0.000000E+000
 0.356541E+000  0.129644E+000  0.000000E+000
 0.332709E+000  0.119399E+000  0.000000E+000
 0.308877E+000  0.109154E+000  0.000000E+000
 0.285046E+000  0.989098E-001  0.000000E+000
 0.261214E+000  0.886651E-001  0.000000E+000
 0.237382E+000  0.784204E-001  0.000000E+000
 0.406250E+000  0.100000E+001  0.000000E+000
 0.396005E+000  0.976168E+000  0.000000E+000
 0.385761E+000  0.952336E+000  0.000000E+000
 0.375516E+000  0.928505E+000  0.000000E+000
 0.365271E+000  0.904673E+000  0.000000E+000
 0.355027E+000  0.880841E+000  0.000000E+000
 0.344782E+000  0.857009E+000  0.000000E+000
 0.334537E+000  0.833177E+000  0.000000E+000
 0.324293E+000  0.809346E+000  0.000000E+000
 0.314048E+000  0.785514E+000  0.000000E+000
 0.303803E+000  0.761682E+000  0.000000E+000
 0.293559E+000  0.737850E+000  0.000000E+000
 0.283314E+000  0.714018E+000  0.000000E+000
 0.273069E+000  0.690186E+000  0.000000E+000
 0.262825E+000  0.666355E+000  0.000000E+000
 0.252580E+000  0.642523E+000  0.000000E+000
 0.242335E+000  0.618691E+000  0.000000E+000
 0.232091E+000  0.594859E+000  0.000000E+000
 0.221846E+000  0.571027E+000  0.000000E+000
 0.211601E+000  0.547196E+000  0.000000E+000
 0.201357E+000  0.523364E+000  0.000000E+000
 0.191112E+000  0.499532E+000  0.000000E+000
 0.180867E+000  0.475700E+000  0.000000E+000
 0.170623E+000  0.451868E+000  0.000000E+000
 0.160378E+000  0.428037E+000  0.000000E+000
 0.150133E+000  0.404205E+000  0.000000E+000
 0.139888E+000  0.380373E+000  0.000000E+000
 0.129644E+000  0.356541E+000  0.000000E+000
 0.119399E+000  0.332709E+000  0.000000E+000
 0.109154E+000  0.308877E+000  0.000000E+000
 0.989098E-001  0.285046E+000  0.000000E+000
 0.886651E-001  0.261214E+000  0.000000E+000
 0.784204E-001  0.237382E+000  0.000000E+000
 0.100000E+001  0.437500E+000  0.000000E+000
 0.976106E+000  0.426460E+000  0.000000E+000
 0.952212E+000  0.415420E+000  0.000000E+000
 0.928317E+000  0.404380E+000  0.000000E+000
 0.904423E+000  0.393340E+000  0.000000E+000
 0.880529E+000  0.382300E+000  0.000000E+000
 0.856635E+000  0.371260E+000  0.000000E+000
 0.832741E+000  0.360221E+000  0.000000E+000
 0.808847E+000  0.349181E+000  0.000000E+000
 0.784952E+000  0.338141E+000  0.000000E+000
 0.761058E+000  0.327101E+000  0.000000E+000
 0.737164E+000  0.316061E+000  0.000000E+000
 0.713270E+000  0.305021E+000  0.000000E+000
 0.689376E+000  0.293981E+000  0.000000E+000
 0.665481E+000  0.282941E+000  0.000000E+000
 0.641587E+000  0.271901E+000  0.000000E+000
 0.617693E+000  0.260861E+000  0.000000E+000
 0.593799E+000  0.249821E+000  0.000000E+000
 0.569905E+000  0.238781E+000  0.000000E+000
 0.546010E+000  0.227741E+000  0.000000E+000
 0.522116E+000  0.216702E+000  0.000000E+000
 0.498222E+000  0.205662E+000  0.000000E+000
 0.474328E+000  0.194622E+000  0.000000E+000
 0.450434E+000  0.183582E+000  0.000000E+000
 0.426540E+000  0.172542E+000  0.000000E+000
 0.402645E+000  0.161502E+000  0.000000E+000
 0.378751E+000  0.150462E+000  0.000000E+000
 0.354857E+000  0.139422E+000  0.000000E+000
 0.330963E+000  0.128382E+000  0.000000E+000
 0.307069E+000  0.117342E+000  0.000000E+000
 0.283174E+000  0.106302E+000  0.000000E+000
 0.259280E+000  0.952624E-001  0.000000E+000
 0.235386E+000  0.842225E-001  0.000000E+000
 0.437500E+000  0.100000E+001  0.000000E+000
 0.426460E+000  0.976106E+000  0.000000E+000
 0.415420E+000  0.952212E+000  0.000000E+000
 0.404380E+000  0.928317E+000  0.000000E+000
 0.393340E+000  0.904423E+000  0.000000E+000
 0.382300E+000  0.880529E+000  0.000000E+000
 0.371260E+000  0.856635E+000  0.000000E+000
 0.360221E+000  0.832741E+000  0.000000E+000
 0.349181E+000  0.808847E+000  0.000000E+000
 0.338141E+000  0.784952E+000  0.000000E+000
 0.327101E+000  0.761058E+000  0.000000E+000
 0.316061E+000  0.737164E+000  0.000000E+000
 0.305021E+000  0.713270E+000  0.000000E+000
 0.293981E+000  0.689376E+000  0.000000E+000
 0.282941E+000  0.665481E+000  0.000000E+000
 0.271901E+000  0.641587E+000  0.000000E+000
 0.260861E+000  0.617693E+000  0.000000E+000
 0.249821E+000  0.593799E+000  0.000000E+000
 0.238781E+000  0.569905E+000  0.000000E+000
 0.227741E+000  0.546010E+000  0.000000E+000
 0.216702E+000  0.522116E+000  0.000000E+000
 0.205662E+000  0.498222E+000  0.000000E+000
 0.194622E+000  0.474328E+000  0.000000E+000
 0.183582E+000  0.450434E+000  0.000000E+000
 0.172542E+000  0.426540E+000  0.000000E+000
 0.161502E+000  0.402645E+000  0.000000E+000
 0.150462E+000  0.378751E+000  0.000000E+000
 0.139422E+000  0.354857E+000  0.000000E+000
 0.128382E+000  0.330963E+000  0.000000E+000
 0.117342E+000  0.307069E+000  0.000000E+000
 0.106302E+000  0.283174E+000  0.000000E+000
 0.952624E-001  0.259280E+000  0.000000E+000
 0.842225E-001  0.235386E+000  0.000000E+000
 0.100000E+001  0.468750E+000  0.000000E+000
 0.976039E+000  0.456913E+000  0.000000E+000
 0.952078E+000  0.445076E+000  0.000000E+000
 0.928117E+000  0.433240E+000  0.000000E+000
 0.904156E+000  0.421403E+000  0.000000E+000
 0.880195E+000  0.409566E+000  0.000000E+000
 0.856234E+000  0.397729E+000  0.000000E+000
 0.832273E+000  0.385893E+000  0.000000E+000
 0.808312E+000  0.374056E+000  0.000000E+000
 0.784351E+000  0.362219E+000  0.000000E+000
 0.760390E+000  0.350382E+000  0.000000E+000
 0.736429E+000  0.338546E+000  0.000000E+000
 0.712468E+000  0.326709E+000  0.000000E+000
 0.688507E+000  0.314872E+000  0.000000E+000
 0.664546E+000  0.303035E+000  0.000000E+000
 0.640585E+000  0.291199E+000  0.000000E+000
 0.616624E+000  0.279362E+000  0.000000E+000
 0.592663E+000  0.267525E+000  0.000000E+000
 0.568702E+000  0.255688E+000  0.000000E+000
 0.544741E+000  0.243852E+000  0.000000E+000
 0.520780E+000  0.232015E+000  0.000000E+000
 0.496819E+000  0.220178E+000  0.000000E+000
 0.472858E+000  0.208341E+000  0.000000E+000
 0.448897E+000  0.196505E+000  0.000000E+000
 0.424936E+000  0.184668E+000  0.000000E+000
 0.400975E+000  0.172831E+000  0.000000E+000
 0.377014E+000  0.160994E+000  0.000000E+000
 0.353053E+000  0.149158E+000  0.000000E+000
 0.329092E+000  0.137321E+000  0.000000E+000
 0.305131E+000  0.125484E+000  0.000000E+000
 0.281170E+000  0.113647E+000  0.000000E+000
 0.257209E+000  0.101811E+000  0.000000E+000
 0.233248E+000  0.899738E-001  0.000000E+000
 0.468750E+000  0.100000E+001  0.000000E+000
 0.456913E+000  0.976039E+000  0.000000E+000
 0.445076E+000  0.952078E+000  0.000000E+000
 0.433240E+000  0.928117E+000  0.000000E+000
 0.421403E+000  0.904156E+000  0.000000E+000
 0.409566E+000  0.880195E+000  0.000000E+000
 0.397729E+000  0.856234E+000  0.000000E+000
 0.385893E+000  0.832273E+000  0.000000E+000
 0.374056E+000  0.808312E+000  0.000000E+000
 0.362219E+000  0.784351E+000  0.000000E+000
 0.350382E+000  0.760390E+000  0.000000E+000
 0.338546E+000  0.736429E+000  0.000000E+000
 0.326709E+000  0.712468E+000  0.000000E+000
 0.314872E+000  0.688507E+000  0.000000E+000
 0.303035E+000  0.664546E+000  0.000000E+000
 0.291199E+000  0.640585E+000  0.000000E+000
 0.279362E+000  0.616624E+000  0.000000E+000
 0.267525E+000  0.592663E+000  0.000000E+000
 0.255688E+000  0.568702E+000  0.000000E+000
 0.243852E+000  0.544741E+000  0.000000E+000
 0.232015E+000  0.520780E+000  0.000000E+000
 0.220178E+000  0.496819E+000  0.000000E+000
 0.208341E+000  0.472858E+000  0.000000E+000
 0.196505E+000  0.448897E+000  0.000000E+000
 0.184668E+000  0.424936E+000  0.000000E+000
 0.172831E+000  0.400975E+000  0.000000E+000
 0.160994E+000  0.377014E+000  0.000000E+000
 0.149158E+000  0.353053E+000  0.000000E+000
 0.137321E+000  0.329092E+000  0.000000E+000
 0.125484E+000  0.305131E+000  0.000000E+000
 0.113647E+000  0.281170E+000  0.000000E+000
 0.101811E+000  0.257209E+000  0.000000E+000
 0.899738E-001  0.233248E+000  0.000000E+000
 0.100000E+001  0.500000E+000  0.000000E+000
 0.975968E+000  0.487365E+000  0.000000E+000
 0.951936E+000  0.474729E+000  0.000000E+000
 0.927903E+000  0.462094E+000  0.000000E+000
 0.903871E+000  0.449459E+000  0.000000E+000
 0.879839E+000  0.436824E+000  0.000000E+000
 0.855807E+000  0.424188E+000  0.000000E+000
 0.831775E+000  0.411553E+000  0.000000E+000
 0.807742E+000  0.398918E+000  0.000000E+000
 0.783710E+000  0.386282E+000  0.000000E+000
 0.759678E+000  0.373647E+000  0.000000E+000
 0.735646E+000  0.361012E+000  0.000000E+000
 0.711614E+000  0.348377E+000  0.000000E+000
 0.687582E+000  0.335741E+000  0.000000E+000
 0.663549E+000  0.323106E+000  0.000000E+000
 0.639517E+000  0.310471E+000  0.000000E+000
 0.615485E+000  0.297835E+000  0.000000E+000
 0.591453E+000  0.285200E+000  0.000000E+000
 0.567421E+000  0.272565E+000  0.000000E+000
 0.543388E+000  0.259930E+000  0.000000E+000
 0.519356E+000  0.247294E+000  0.000000E+000
 0.495324E+000  0.234659E+000  0.000000E+000
 0.471292E+000  0.222024E+000  0.000000E+000
 0.447260E+000  0.209388E+000  0.000000E+000
 0.423227E+000  0.196753E+000  0.000000E+000
 0.399195E+000  0.184118E+000  0.000000E+000
 0.375163E+000  0.171483E+000  0.000000E+000
 0.351131E+000  0.158847E+000  0.000000E+000
 0.327099E+000  0.146212E+000  0.000000E+000
 0.303066E+000  0.133577E+000  0.000000E+000
 0.279034E+000  0.120941E+000  0.000000E+000
 0.255002E+000  0.108306E+000  0.000000E+000
 0.230970E+000  0.956709E-001  0.000000E+000
 0.500000E+000  0.100000E+001  0.000000E+000
 0.487365E+000  0.975968E+000  0.000000E+000
 0.474729E+000  0.951936E+000  0.000000E+000
 0.462094E+000  0.927903E+000  0.000000E+000
 0.449459E+000  0.903871E+000  0.000000E+000
 0.436824E+000  0.879839E+000  0.000000E+000
 0.424188E+000  0.855807E+000  0.000000E+000
 0.411553E+000  0.831775E+000  0.000000E+000
 0.398918E+000  0.807742E+000  0.000000E+000
 0.386282E+000  0.783710E+000  0.000000E+000
 0.373647E+000  0.759678E+000  0.000000E+000
 0.361012E+000  0.735646E+000  0.000000E+000
 0.348377E+000  0.711614E+000  0.000000E+000
 0.335741E+000  0.687582E+000  0.000000E+000
 0.323106E+000  0.663549E+000  0.000000E+000
 0.310471E+000  0.639517E+000  0.000000E+000
 0.297835E+000  0.615485E+000  0.000000E+000
 0.285200E+000  0.591453E+000  0.000000E+000
 0.272565E+000  0.567421E+000  0.000000E+000
 0.259930E+000  0.543388E+000  0.000000E+000
 0.247294E+000  0.519356E+000  0.000000E+000
 0.234659E+000  0.495324E+000  0.000000E+000
 0.222024E+000  0.471292E+000  0.000000E+000
 0.209388E+000  0.447260E+000  0.000000E+000
 0.196753E+000  0.423227E+000  0.000000E+000
 0.184118E+000  0.399195E+000  0.000000E+000
 0.171483E+000  0.375163E+000  0.000000E+000
 0.158847E+000  0.351131E+000  0.000000E+000
 0.146212E+000  0.327099E+000  0.000000E+000
 0.133577E+000  0.303066E+000  0.000000E+000
 0.120941E+000  0.279034E+000  0.000000E+000
 0.108306E+000  0.255002E+000  0.000000E+000
 0.956709E-001  0.230970E+000  0.000000E+000
 0.100000E+001  0.531250E+000  0.000000E+000
 0.975892E+000  0.517814E+000  0.000000E+000
 0.951785E+000  0.504379E+000  0.000000E+000
 0.927677E+000  0.490943E+000  0.000000E+000
 0.903569E+000  0.477508E+000  0.000000E+000
 0.879461E+000  0.464072E+000  0.000000E+000
 0.855354E+000  0.450636E+000  0.000000E+000
 0.831246E+000  0.437201E+000  0.000000E+000
 0.807138E+000  0.423765E+000  0.000000E+000
 0.783030E+000  0.410329E+000  0.000000E+000
 0.758923E+000  0.396894E+000  0.000000E+000
 0.734815E+000  0.383458E+000  0.000000E+000
 0.710707E+000  0.370023E+000  0.000000E+000
 0.686599E+000  0.356587E+000  0.000000E+000
 0.662492E+000  0.343151E+000  0.000000E+000
 0.638384E+000  0.329716E+000  0.000000E+000
 0.614276E+000  0.316280E+000  0.000000E+000
 0.590168E+000  0.302845E+000  0.000000E+000
 0.566061E+000  0.289409E+000  0.000000E+000
 0.541953E+000  0.275973E+000  0.000000E+000
 0.517845E+000  0.262538E+000  0.000000E+000
 0.493738E+000  0.249102E+000  0.000000E+000
 0.469630E+000  0.235666E+000  0.000000E+000
 0.445522E+000  0.222231E+000  0.000000E+000
 0.421414E+000  0.208795E+000  0.000000E+000
 0.397307E+000  0.195360E+000  0.000000E+000
 0.373199E+000  0.181924E+000  0.000000E+000
 0.349091E+000  0.168488E+000  0.000000E+000
 0.324983E+000  0.155053E+000  0.000000E+000
 0.300876E+000  0.141617E+000  0.000000E+000
 0.276768E+000  0.128182E+000  0.000000E+000
 0.252660E+000  0.114746E+000  0.000000E+000
 0.228552E+000  0.101310E+000  0.000000E+000
 0.531250E+000  0.100000E+001  0.000000E+000
 0.517814E+000  0.975892E+000  0.000000E+000
 0.504379E+000  0.951785E+000  0.000000E+000
 0.490943E+000  0.927677E+000  0.000000E+000
 0.477508E+000  0.903569E+000  0.000000E+000
 0.464072E+000  0.879461E+000  0.000000E+000
 0.450636E+000  0.855354E+000  0.000000E+000
 0.437201E+000  0.831246E+000  0.000000E+000
 0.423765E+000  0.807138E+000  0.000000E+000
 0.410329E+000  0.783030E+000  0.000000E+000
 0.396894E+000  0.758923E+000  0.000000E+000
 0.383458E+000  0.734815E+000  0.000000E+000
 0.370023E+000  0.710707E+000  0.000000E+000
 0.356587E+000  0.686599E+000  0.000000E+000
 0.343151E+000  0.662492E+000  0.000000E+000
 0.329716E+000  0.638384E+000  0.000000E+000
 0.316280E+000  0.614276E+000  0.000000E+000
 0.302845E+000  0.590168E+000  0.000000E+000
 0.289409E+000  0.566061E+000  0.000000E+000
 0.275973E+000  0.541953E+000  0.000000E+000
 0.262538E+000  0.517845E+000  0.000000E+000
 0.249102E+000  0.493738E+000  0.000000E+000
 0.235666E+000  0.469630E+000  0.000000E+000
 0.222231E+000  0.445522E+000  0.000000E+000
 0.208795E+000  0.421414E+000  0.000000E+000
 0.195360E+000  0.397307E+000  0.000000E+000
 0.181924E+000  0.373199E+000  0.000000E+000
 0.168488E+000  0.349091E+000  0.000000E+000
 0.155053E+000  0.324983E+000  0.000000E+000
 0.141617E+000  0.300876E+000  0.000000E+000
 0.128182E+000  0.276768E+000  0.000000E+000
 0.114746E+000  0.252660E+000  0.000000E+000
 0.101310E+000  0.228552E+000  0.000000E+000
 0.100000E+001  0.562500E+000  0.000000E+000
 0.975812E+000  0.548262E+000  0.000000E+000
 0.951625E+000  0.534024E+000  0.000000E+000
 0.927437E+000  0.519786E+000  0.000000E+000
 0.903250E+000  0.505549E+000  0.000000E+000
 0.879062E+000  0.491311E+000  0.000000E+000
 0.854874E+000  0.477073E+000  0.000000E+000
 0.830687E+000  0.462835E+000  0.000000E+000
 0.806499E+000  0.448597E+000  0.000000E+000
 0.782312E+000  0.434359E+000  0.000000E+000
 0.758124E+000  0.420121E+000  0.000000E+000
 0.733937E+000  0.405884E+000  0.000000E+000
 0.709749E+000  0.391646E+000  0.000000E+000
 0.685561E+000  0.377408E+000  0.000000E+000
 0.661374E+000  0.363170E+000  0.000000E+000
 0.637186E+000  0.348932E+000  0.000000E+000
 0.612999E+000  0.334694E+000  0.000000E+000
 0.588811E+000  0.320457E+000  0.000000E+000
 0.564623E+000  0.306219E+000  0.000000E+000
 0.540436E+000  0.291981E+000  0.000000E+000
 0.516248E+000  0.277743E+000  0.000000E+000
 0.492061E+000  0.263505E+000  0.000000E+000
 0.467873E+000  0.249267E+000  0.000000E+000
 0.443686E+000  0.235029E+000  0.000000E+000
 0.419498E+000  0.220792E+000  0.000000E+000
 0.395310E+000  0.206554E+000  0.000000E+000
 0.371123E+000  0.192316E+000  0.000000E+000
 0.346935E+000  0.178078E+000  0.000000E+000
 0.322748E+000  0.163840E+000  0.000000E+000
 0.298560E+000  0.149602E+000  0.000000E+000
 0.274372E+000  0.135364E+000  0.000000E+000
 0.250185E+000  0.121127E+000  0.000000E+000
 0.225997E+000  0.106889E+000  0.000000E+000
 0.562500E+000  0.100000E+001  0.000000E+000
 0.548262E+000  0.975812E+000  0.000000E+000
 0.534024E+000  0.951625E+000  0.000000E+000
 0.519786E+000  0.927437E+000  0.000000E+000
 0.505549E+000  0.903250E+000  0.000000E+000
 0.491311E+000  0.879062E+000  0.000000E+000
 0.477073E+000  0.854874E+000  0.000000E+000
 0.462835E+000  0.830687E+000  0.000000E+000
 0.448597E+000  0.806499E+000  0.000000E+000
 0.434359E+000  0.782312E+000  0.000000E+000
 0.420121E+000  0.758124E+000  0.000000E+000
 0.405884E+000  0.733937E+000  0.000000E+000
 0.391646E+000  0.709749E+000  0.000000E+000
 0.377408E+000  0.685561E+000  0.000000E+000
 0.363170E+000  0.661374E+000  0.000000E+000
 0.348932E+000  0.637186E+000  0.000000E+000
 0.334694E+000  0.612999E+000  0.000000E+000
 0.320457E+000  0.588811E+000  0.000000E+000
 0.306219E+000  0.564623E+000  0.000000E+000
 0.291981E+000  0.540436E+000  0.000000E+000
 0.277743E+000  0.516248E+000  0.000000E+000
 0.263505E+000  0.492061E+000  0.000000E+000
 0.249267E+000  0.467873E+000  0.000000E+000
 0.235029E+000  0.443686E+000  0.000000E+000
 0.220792E+000  0.419498E+000  0.000000E+000
 0.206554E+000  0.395310E+000  0.000000E+000
 0.192316E+000  0.371123E+000  0.000000E+000
 0.178078E+000  0.346935E+000  0.000000E+000
 0.163840E+000  0.322748E+000  0.000000E+000
 0.149602E+000  0.298560E+000  0.000000E+000
 0.135364E+000  0.274372E+000  0.000000E+000
 0.121127E+000  0.250185E+000  0.000000E+000
 0.106889E+000  0.225997E+000  0.000000E+000
 0.100000E+001  0.593750E+000  0.000000E+000
 0.975728E+000  0.578708E+000  0.000000E+000
 0.951457E+000  0.563666E+000  0.000000E+000
 0.927185E+000  0.548624E+000  0.000000E+000
 0.902913E+000  0.533582E+000  0.000000E+000
 0.878642E+000  0.518540E+000  0.000000E+000
 0.854370E+000  0.503497E+000  0.000000E+000
 0.830098E+000  0.488455E+000  0.000000E+000
 0.805827E+000  0.473413E+000  0.000000E+000
 0.781555E+000  0.458371E+000  0.000000E+000
 0.757283E+000  0.443329E+000  0.000000E+000
 0.733011E+000  0.428287E+000  0.000000E+000
 0.708740E+000  0.413245E+000  0.000000E+000
 0.684468E+000  0.398203E+000  0.000000E+000
 0.660196E+000  0.383161E+000  0.000000E+000
 0.635925E+000  0.368119E+000  0.000000E+000
 0.611653E+000  0.353076E+000  0.000000E+000
 0.587381E+000  0.338034E+000  0.000000E+000
 0.563110E+000  0.322992E+000  0.000000E+000
 0.538838E+000  0.307950E+000  0.000000E+000
 0.514566E+000  0.292908E+000  0.000000E+000
 0.490295E+000  0.277866E+000  0.000000E+000
 0.466023E+000  0.262824E+000  0.000000E+000
 0.441751E+000  0.247782E+000  0.000000E+000
 0.417480E+000  0.232740E+000  0.000000E+000
 0.393208E+000  0.217698E+000  0.000000E+000
 0.368936E+000  0.202655E+000  0.000000E+000
 0.344665E+000  0.187613E+000  0.000000E+000
 0.320393E+000  0.172571E+000  0.000000E+000
 0.296121E+000  0.157529E+000  0.000000E+000
 0.271849E+000  0.142487E+000  0.000000E+000
 0.247578E+000  0.127445E+000  0.000000E+000
 0.223306E+000  0.112403E+000  0.000000E+000
 0.593750E+000  0.100000E+001  0.000000E+000
 0.578708E+000  0.975728E+000  0.000000E+000
 0.563666E+000  0.951457E+000  0.000000E+000
 0.548624E+000  0.927185E+000  0.000000E+000
 0.533582E+000  0.902913E+000  0.000000E+000
 0.518540E+000  0.878642E+000  0.000000E+000
 0.503497E+000  0.854370E+000  0.000000E+000
 0.488455E+000  0.830098E+000  0.000000E+000
 0.473413E+000  0.805827E+000  0.000000E+000
 0.458371E+000  0.781555E+000  0.000000E+000
 0.443329E+000  0.757283E+000  0.000000E+000
 0.428287E+000  0.733011E+000  0.000000E+000
 0.413245E+000  0.708740E+000  0.000000E+000
 0.398203E+000  0.684468E+000  0.000000E+000
 0.383161E+000  0.660196E+000  0.000000E+000
 0.368119E+000  0.635925E+000  0.000000E+000
 0.353076E+000  0.611653E+000  0.000000E+000
 0.338034E+000  0.587381E+000  0.000000E+000
 0.322992E+000  0.563110E+000  0.000000E+000
 0.307950E+000  0.538838E+000  0.000000E+000
 0.292908E+000  0.514566E+000  0.000000E+000
 0.277866E+000  0.490295E+000  0.000000E+000
 0.262824E+000  0.466023E+000  0.000000E+000
 0.247782E+000  0.441751E+000  0.000000E+000
 0.232740E+000  0.417480E+000  0.000000E+000
 0.217698E+000  0.393208E+000  0.000000E+000
 0.202655E+000  0.368936E+000  0.000000E+000
 0.187613E+000  0.344665E+000  0.000000E+000
 0.172571E+000  0.320393E+000  0.000000E+000
 0.157529E+000  0.296121E+000  0.000000E+000
 0.142487E+000  0.271849E+000  0.000000E+000
 0.127445E+000  0.247578E+000  0.000000E+000
 0.112403E+000  0.223306E+000  0.000000E+000
 0.100000E+001  0.625000E+000  0.000000E+000
 0.975640E+000  0.609152E+000  0.000000E+000
 0.951280E+000  0.593303E+000  0.000000E+000
 0.926920E+000  0.577455E+000  0.000000E+000
 0.902560E+000  0.561606E+000  0.000000E+000
 0.878200E+000  0.545758E+000  0.000000E+000
 0.853840E+000  0.529909E+000  0.000000E+000
 0.829480E+000  0.514061E+000  0.000000E+000
 0.805120E+000  0.498212E+000  0.000000E+000
 0.780760E+000  0.482364E+000  0.000000E+000
 0.756400E+000  0.466515E+000  0.000000E+000
 0.732040E+000  0.450667E+000  0.000000E+000
 0.707680E+000  0.434818E+000  0.000000E+000
 0.683320E+000  0.418970E+000  0.000000E+000
 0.658960E+000  0.403122E+000  0.000000E+000
 0.634600E+000  0.387273E+000  0.000000E+000
 0.610240E+000  0.371425E+000  0.000000E+000
 0.585880E+000  0.355576E+000  0.000000E+000
 0.561520E+000  0.339728E+000  0.000000E+000
 0.537160E+000  0.323879E+000  0.000000E+000
 0.512800E+000  0.308031E+000  0.000000E+000
 0.488440E+000  0.292182E+000  0.000000E+000
 0.464080E+000  0.276334E+000  0.000000E+000
 0.439720E+000  0.260485E+000  0.000000E+000
 0.415360E+000  0.244637E+000  0.000000E+000
 0.391000E+000  0.228788E+000  0.000000E+000
 0.366640E+000  0.212940E+000  0.000000E+000
 0.342280E+000  0.197091E+000  0.000000E+000
 0.317920E+000  0.181243E+000  0.000000E+000
 0.293560E+000  0.165395E+000  0.000000E+000
 0.269200E+000  0.149546E+000  0.000000E+000
 0.244840E+000  0.133698E+000  0.000000E+000
 0.220480E+000  0.117849E+000  0.000000E+000
 0.625000E+000  0.100000E+001  0.000000E+000
 0.609152E+000  0.975640E+000  0.000000E+000
 0.593303E+000  0.951280E+000  0.000000E+000
 0.577455E+000  0.926920E+000  0.000000E+000
 0.561606E+000  0.902560E+000  0.000000E+000
 0.545758E+000  0.878200E+000  0.000000E+000
 0.529909E+000  0.853840E+000  0.000000E+000
 0.514061E+000  0.829480E+000  0.000000E+000
 0.498212E+000  0.805120E+000  0.000000E+000
 0.482364E+000  0.780760E+000  0.000000E+000
 0.466515E+000  0.756400E+000  0.000000E+000
 0.450667E+000  0.732040E+000  0.000000E+000
 0.434818E+000  0.707680E+000  0.000000E+000
 0.418970E+000  0.683320E+000  0.000000E+000
 0.403122E+000  0.658960E+000  0.000000E+000
 0.387273E+000  0.634600E+000  0.000000E+000
 0.371425E+000  0.610240E+000  0.000000E+000
 0.355576E+000  0.585880E+000  0.000000E+000
 0.339728E+000  0.561520E+000  0.000000E+000
 0.323879E+000  0.537160E+000  0.000000E+000
 0.308031E+000  0.512800E+000  0.000000E+000
 0.292182E+000  0.488440E+000  0.000000E+000
 0.276334E+000  0.464080E+000  0.000000E+000
 0.260485E+000  0.439720E+000  0.000000E+000
 0.244637E+000  0.415360E+000  0.000000E+000
 0.228788E+000  0.391000E+000  0.000000E+000
 0.212940E+000  0.366640E+000  0.000000E+000
 0.197091E+000  0.342280E+000  0.000000E+000
 0.181243E+000  0.317920E+000  0.000000E+000
 0.165395E+000  0.293560E+000  0.000000E+000
 0.149546E+000  0.269200E+000  0.000000E+000
 0.133698E+000  0.244840E+000  0.000000E+000
 0.117849E+000  0.220480E+000  0.000000E+000
 0.100000E+001  0.656250E+000  0.000000E+000
 0.975548E+000  0.639593E+000  0.000000E+000
 0.951095E+000  0.622936E+000  0.000000E+000
 0.926643E+000  0.606279E+000  0.000000E+000
 0.902190E+000  0.589622E+000  0.000000E+000
 0.877738E+000  0.572965E+000  0.000000E+000
 0.853285E+000  0.556308E+000  0.000000E+000
 0.828833E+000  0.539651E+000  0.000000E+000
 0.804380E+000  0.522994E+000  0.000000E+000
 0.779928E+000  0.506337E+000  0.000000E+000
 0.755476E+000  0.489680E+000  0.000000E+000
 0.731023E+000  0.473023E+000  0.000000E+000
 0.706571E+000  0.456365E+000  0.000000E+000
 0.682118E+000  0.439708E+000  0.000000E+000
 0.657666E+000  0.423051E+000  0.000000E+000
 0.633213E+000  0.406394E+000  0.000000E+000
 0.608761E+000  0.389737E+000  0.000000E+000
 0.584308E+000  0.373080E+000  0.000000E+000
 0.559856E+000  0.356423E+000  0.000000E+000
 0.535404E+000  0.339766E+000  0.000000E+000
 0.510951E+000  0.323109E+000  0.000000E+000
 0.486499E+000  0.306452E+000  0.000000E+000
 0.462046E+000  0.289795E+000  0.000000E+000
 0.437594E+000  0.273138E+000  0.000000E+000
 0.413141E+000  0.256481E+000  0.000000E+000
 0.388689E+000  0.239824E+000  0.000000E+000
 0.364236E+000  0.223167E+000  0.000000E+000
 0.339784E+000  0.206510E+000  0.000000E+000
 0.315332E+000  0.189853E+000  0.000000E+000
 0.290879E+000  0.173196E+000  0.000000E+000
 0.266427E+000  0.156539E+000  0.000000E+000
 0.241974E+000  0.139882E+000  0.000000E+000
 0.217522E+000  0.123225E+000  0.000000E+000
 0.656250E+000  0.100000E+001  0.000000E+000
 0.639593E+000  0.975548E+000  0.000000E+000
 0.622936E+000  0.951095E+000  0.000000E+000
 0.606279E+000  0.926643E+000  0.000000E+000
 0.589622E+000  0.902190E+000  0.000000E+000
 0.572965E+000  0.877738E+000  0.000000E+000
 0.556308E+000  0.853285E+000  0.000000E+000
 0.539651E+000  0.828833E+000  0.000000E+000
 0.522994E+000  0.804380E+000  0.000000E+000
 0.506337E+000  0.779928E+000  0.000000E+000
 0.489680E+000  0.755476E+000  0.000000E+000
 0.473023E+000  0.731023E+000  0.000000E+000
 0.456365E+000  0.706571E+000  0.000000E+000
 0.439708E+000  0.682118E+000  0.000000E+000
 0.423051E+000  0.657666E+000  0.000000E+000
 0.406394E+000  0.633213E+000  0.000000E+000
 0.389737E+000  0.608761E+000  0.000000E+000
 0.373080E+000  0.584308E+000  0.000000E+000
 0.356423E+000  0.559856E+000  0.000000E+000
 0.339766E+000  0.535404E+000  0.000000E+000
 0.323109E+000  0.510951E+000  0.000000E+000
 0.306452E+000  0.486499E+000  0.000000E+000
 0.289795E+000  0.462046E+000  0.000000E+000
 0.273138E+000  0.437594E+000  0.000000E+000
 0.256481E+000  0.413141E+000  0.000000E+000
 0.239824E+000  0.388689E+000  0.000000E+000
 0.223167E+000  0.364236E+000  0.000000E+000
 0.206510E+000  0.339784E+000  0.000000E+000
 0.189853E+000  0.315332E+000  0.000000E+000
 0.173196E+000  0.290879E+000  0.000000E+000
 0.156539E+000  0.266427E+000  0.000000E+000
 0.139882E+000  0.241974E+000  0.000000E+000
 0.123225E+000  0.217522E+000  0.000000E+000
 0.100000E+001  0.687500E+000  0.000000E+000
 0.975451E+000  0.670032E+000  0.000000E+000
 0.950902E+000  0.652564E+000  0.000000E+000
 0.926353E+000  0.635096E+000  0.000000E+000
 0.901804E+000  0.617628E+000  0.000000E+000
 0.877255E+000  0.600160E+000  0.000000E+000
 0.852706E+000  0.582692E+000  0.000000E+000
 0.828157E+000  0.565224E+000  0.000000E+000
 0.803608E+000  0.547756E+000  0.000000E+000
 0.779059E+000  0.530288E+000  0.000000E+000
 0.754510E+000  0.512821E+000  0.000000E+000
 0.729961E+000  0.495353E+000  0.000000E+000
 0.705412E+000  0.477885E+000  0.000000E+000
 0.680863E+000  0.460417E+000  0.000000E+000
 0.656314E+000  0.442949E+000  0.000000E+000
 0.631765E+000  0.425481E+000  0.000000E+000
 0.607216E+000  0.408013E+000  0.000000E+000
 0.582667E+000  0.390545E+000  0.000000E+000
 0.558118E+000  0.373077E+000  0.000000E+000
 0.533569E+000  0.355609E+000  0.000000E+000
 0.509020E+000  0.338141E+000  0.000000E+000
 0.484471E+000  0.320673E+000  0.000000E+000
 0.459922E+000  0.303205E+000  0.000000E+000
 0.435373E+000  0.285737E+000  0.000000E+000
 0.410824E+000  0.268269E+000  0.000000E+000
 0.386275E+000  0.250801E+000  0.000000E+000
 0.361726E+000  0.233333E+000  0.000000E+000
 0.337177E+000  0.215865E+000  0.000000E+000
 0.312628E+000  0.198397E+000  0.000000E+000
 0.288079E+000  0.180930E+000  0.000000E+000
 0.263530E+000  0.163462E+000  0.000000E+000
 0.238981E+000  0.145994E+000  0.000000E+000
 0.214432E+000  0.128526E+000  0.000000E+000
 0.687500E+000  0.100000E+001  0.000000E+000
 0.670032E+000  0.975451E+000  0.000000E+000
 0.652564E+000  0.950902E+000  0.000000E+000
 0.635096E+000  0.926353E+000  0.000000E+000
 0.617628E+000  0.901804E+000  0.000000E+000
 0.600160E+000  0.877255E+000  0.000000E+000
 0.582692E+000  0.852706E+000  0.000000E+000
 0.565224E+000  0.828157E+000  0.000000E+000
 0.547756E+000  0.803608E+000  0.000000E+000
 0.530288E+000  0.779059E+000  0.000000E+000
 0.512821E+000  0.754510E+000  0.000000E+000
 0.495353E+000  0.729961E+000  0.000000E+000
 0.477885E+000  0.705412E+000  0.000000E+000
 0.460417E+000  0.680863E+000  0.000000E+000
 0.442949E+000  0.656314E+000  0.000000E+000
 0.425481E+000  0.631765E+000  0.000000E+000
 0.408013E+000  0.607216E+000  0.000000E+000
 0.390545E+000  0.582667E+000  0.000000E+000
 0.373077E+000  0.558118E+000  0.000000E+000
 0.355609E+000  0.533569E+000  0.000000E+000
 0.338141E+000  0.509020E+000  0.000000E+000
 0.320673E+000  0.484471E+000  0.000000E+000
 0.303205E+000  0.459922E+000  0.000000E+000
 0.285737E+000  0.435373E+000  0.000000E+000
 0.268269E+000  0.410824E+000  0.000000E+000
 0.250801E+000  0.386275E+000  0.000000E+000
 0.233333E+000  0.361726E+000  0.000000E+000
 0.215865E+000  0.337177E+000  0.000000E+000
 0.198397E+000  0.312628E+000  0.000000E+000
 0.180930E+000  0.288079E+000  0.000000E+000
 0.163462E+000  0.263530E+000  0.000000E+000
 0.145994E+000  0.238981E+000  0.000000E+000
 0.128526E+000  0.214432E+000  0.000000E+000
 0.100000E+001  0.718750E+000  0.000000E+000
 0.975350E+000  0.700469E+000  0.000000E+000
 0.950701E+000  0.682187E+000  0.000000E+000
 0.926051E+000  0.663906E+000  0.000000E+000
 0.901402E+000  0.645625E+000  0.000000E+000
 0.876752E+000  0.627344E+000  0.000000E+000
 0.852103E+000  0.609062E+000  0.000000E+000
 0.827453E+000  0.590781E+000  0.000000E+000
 0.802803E+000  0.572500E+000  0.000000E+000
 0.778154E+000  0.554219E+000  0.000000E+000
 0.753504E+000  0.535937E+000  0.000000E+000
 0.728855E+000  0.517656E+000  0.000000E+000
 0.704205E+000  0.499375E+000  0.000000E+000
 0.679555E+000  0.481094E+000  0.000000E+000
 0.654906E+000  0.462812E+000  0.000000E+000
 0.630256E+000  0.444531E+000  0.000000E+000
 0.605607E+000  0.426250E+000  0.000000E+000
 0.580957E+000  0.407968E+000  0.000000E+000
 0.556308E+000  0.389687E+000  0.000000E+000
 0.531658E+000  0.371406E+000  0.000000E+000
 0.507008E+000  0.353125E+000  0.000000E+000
 0.482359E+000  0.334843E+000  0.000000E+000
 0.457709E+000  0.316562E+000  0.000000E+000
 0.433060E+000  0.298281E+000  0.000000E+000
 0.408410E+000  0.280000E+000  0.000000E+000
 0.383760E+000  0.261718E+000  0.000000E+000
 0.359111E+000  0.243437E+000  0.000000E+000
 0.334461E+000  0.225156E+000  0.000000E+000
 0.309812E+000  0.206874E+000  0.000000E+000
 0.285162E+000  0.188593E+000  0.000000E+000
 0.260513E+000  0.170312E+000  0.000000E+000
 0.235863E+000  0.152031E+000  0.000000E+000
 0.211213E+000  0.133749E+000  0.000000E+000
 0.718750E+000  0.100000E+001  0.000000E+000
 0.700469E+000  0.975350E+000  0.000000E+000
 0.682187E+000  0.950701E+000  0.000000E+000
 0.663906E+000  0.926051E+000  0.000000E+000
 0.645625E+000  0.901402E+000  0.000000E+000
 0.627344E+000  0.876752E+000  0.000000E+000
 0.609062E+000  0.852103E+000  0.000000E+000
 0.590781E+000  0.827453E+000  0.000000E+000
 0.572500E+000  0.802803E+000  0.000000E+000
 0.554219E+000  0.778154E+000  0.000000E+000
 0.535937E+000  0.753504E+000  0.000000E+000
 0.517656E+000  0.728855E+000  0.000000E+000
 0.499375E+000  0.704205E+000  0.000000E+000
 0.481094E+000  0.679555E+000  0.000000E+000
 0.462812E+000  0.654906E+000  0.000000E+000
 0.444531E+000  0.630256E+000  0.000000E+000
 0.426250E+000  0.605607E+000  0.000000E+000
 0.407968E+000  0.580957E+000  0.000000E+000
 0.389687E+000  0.556308E+000  0.000000E+000
 0.371406E+000  0.531658E+000  0.000000E+000
 0.353125E+000  0.507008E+000  0.000000E+000
 0.334843E+000  0.482359E+000  0.000000E+000
 0.316562E+000  0.457709E+000  0.000000E+000
 0.298281E+000  0.433060E+000  0.000000E+000
 0.280000E+000  0.408410E+000  0.000000E+000
 0.261718E+000  0.383760E+000  0.000000E+000
 0.243437E+000  0.359111E+000  0.000000E+000
 0.225156E+000  0.334461E+000  0.000000E+000
 0.206874E+000  0.309812E+000  0.000000E+000
 0.188593E+000  0.285162E+000  0.000000E+000
 0.170312E+000  0.260513E+000  0.000000E+000
 0.152031E+000  0.235863E+000  0.000000E+000
 0.133749E+000  0.211213E+000  0.000000E+000
 0.100000E+001  0.750000E+000  0.000000E+000
 0.975246E+000  0.730903E+000  0.000000E+000
 0.950492E+000  0.711806E+000  0.000000E+000
 0.925738E+000  0.692709E+000  0.000000E+000
 0.900983E+000  0.673612E+000  0.000000E+000
 0.876229E+000  0.654514E+000  0.000000E+000
 0.851475E+000  0.635417E+000  0.000000E+000
 0.826721E+000  0.616320E+000  0.000000E+000
 0.801967E+000  0.597223E+000  0.000000E+000
 0.777213E+000  0.578126E+000  0.000000E+000
 0.752459E+000  0.559029E+000  0.000000E+000
 0.727704E+000  0.539932E+000  0.000000E+000
 0.702950E+000  0.520835E+000  0.000000E+000
 0.678196E+000  0.501738E+000  0.000000E+000
 0.653442E+000  0.482640E+000  0.000000E+000
 0.628688E+000  0.463543E+000  0.000000E+000
 0.603934E+000  0.444446E+000  0.000000E+000
 0.579180E+000  0.425349E+000  0.000000E+000
 0.554425E+000  0.406252E+000  0.000000E+000
 0.529671E+000  0.387155E+000  0.000000E+000
 0.504917E+000  0.368058E+000  0.000000E+000
 0.480163E+000  0.348961E+000  0.000000E+000
 0.455409E+000  0.329864E+000  0.000000E+000
 0.430655E+000  0.310767E+000  0.000000E+000
 0.405901E+000  0.291669E+000  0.000000E+000
 0.381146E+000  0.272572E+000  0.000000E+000
 0.356392E+000  0.253475E+000  0.000000E+000
 0.331638E+000  0.234378E+000  0.000000E+000
 0.306884E+000  0.215281E+000  0.000000E+000
 0.282130E+000  0.196184E+000  0.000000E+000
 0.257376E+000  0.177087E+000  0.000000E+000
 0.232622E+000  0.157990E+000  0.000000E+000
 0.207867E+000  0.138893E+000  0.000000E+000
 0.750000E+000  0.100000E+001  0.000000E+000
 0.730903E+000  0.975246E+000  0.000000E+000
 0.711806E+000  0.950492E+000  0.000000E+000
 0.692709E+000  0.925738E+000  0.000000E+000
 0.673612E+000  0.900983E+000  0.000000E+000
 0.654514E+000  0.876229E+000  0.000000E+000
 0.635417E+000  0.851475E+000  0.000000E+000
 0.616320E+000  0.826721E+000  0.000000E+000
 0.597223E+000  0.801967E+000  0.000000E+000
 0.578126E+000  0.777213E+000  0.000000E+000
 0.559029E+000  0.752459E+000  0.000000E+000
 0.539932E+000  0.727704E+000  0.000000E+000
 0.520835E+000  0.702950E+000  0.000000E+000
 0.501738E+000  0.678196E+000  0.000000E+000
 0.482640E+000  0.653442E+000  0.000000E+000
 0.463543E+000  0.628688E+000  0.000000E+000
 0.444446E+000  0.603934E+000  0.000000E+000
 0.425349E+000  0.579180E+000  0.000000E+000
 0.406252E+000  0.554425E+000  0.000000E+000
 0.387155E+000  0.529671E+000  0.000000E+000
 0.368058E+000  0.504917E+000  0.000000E+000
 0.348961E+000  0.480163E+000  0.000000E+000
 0.329864E+000  0.455409E+000  0.000000E+000
 0.310767E+000  0.430655E+000  0.000000E+000
 0.291669E+000  0.405901E+000  0.000000E+000
 0.272572E+000  0.381146E+000  0.000000E+000
 0.253475E+000  0.356392E+000  0.000000E+000
 0.234378E+000  0.331638E+000  0.000000E+000
 0.215281E+000  0.306884E+000  0.000000E+000
 0.196184E+000  0.282130E+000  0.000000E+000
 0.177087E+000  0.257376E+000  0.000000E+000
 0.157990E+000  0.232622E+000  0.000000E+000
 0.138893E+000  0.207867E+000  0.000000E+000
 0.100000E+001  0.781250E+000  0.000000E+000
 0.975137E+000  0.761334E+000  0.000000E+000
 0.950275E+000  0.741419E+000  0.000000E+000
 0.925412E+000  0.721503E+000  0.000000E+000
 0.900550E+000  0.701588E+000  0.000000E+000
 0.875687E+000  0.681672E+000  0.000000E+000
 0.850824E+000  0.661757E+000  0.000000E+000
 0.825962E+000  0.641841E+000  0.000000E+000
 0.801099E+000  0.621926E+000  0.000000E+000
 0.776236E+000  0.602010E+000  0.000000E+000
 0.751374E+000  0.582094E+000  0.000000E+000
 0.726511E+000  0.562179E+000  0.000000E+000
 0.701649E+000  0.542263E+000  0.000000E+000
 0.676786E+000  0.522348E+000  0.000000E+000
 0.651923E+000  0.502432E+000  0.000000E+000
 0.627061E+000  0.482517E+000  0.000000E+000
 0.602198E+000  0.462601E+000  0.000000E+000
 0.577335E+000  0.442685E+000  0.000000E+000
 0.552473E+000  0.422770E+000  0.000000E+000
 0.527610E+000  0.402854E+000  0.000000E+000
 0.502748E+000  0.382939E+000  0.000000E+000
 0.477885E+000  0.363023E+000  0.000000E+000
 0.453022E+000  0.343108E+000  0.000000E+000
 0.428160E+000  0.323192E+000  0.000000E+000
 0.403297E+000  0.303277E+000  0.000000E+000
 0.378435E+000  0.283361E+000  0.000000E+000
 0.353572E+000  0.263445E+000  0.000000E+000
 0.328709E+000  0.243530E+000  0.000000E+000
 0.303847E+000  0.223614E+000  0.000000E+000
 0.278984E+000  0.203699E+000  0.000000E+000
 0.254121E+000  0.183783E+000  0.000000E+000
 0.229259E+000  0.163868E+000  0.000000E+000
 0.204396E+000  0.143952E+000  0.000000E+000
 0.781250E+000  0.100000E+001  0.000000E+000
 0.761334E+000  0.975137E+000  0.000000E+000
 0.741419E+000  0.950275E+000  0.000000E+000
 0.721503E+000  0.925412E+000  0.000000E+000
 0.701588E+000  0.900550E+000  0.000000E+000
 0.681672E+000  0.875687E+000  0.000000E+000
 0.661757E+000  0.850824E+000  0.000000E+000
 0.641841E+000  0.825962E+000  0.000000E+000
 0.621926E+000  0.801099E+000  0.000000E+000
 0.602010E+000  0.776236E+000  0.000000E+000
 0.582094E+000  0.751374E+000  0.000000E+000
 0.562179E+000  0.726511E+000  0.000000E+000
 0.542263E+000  0.701649E+000  0.000000E+000
 0.522348E+000  0.676786E+000  0.000000E+000
 0.502432E+000  0.651923E+000  0.000000E+000
 0.482517E+000  0.627061E+000  0.000000E+000
 0.462601E+000  0.602198E+000  0.000000E+000
 0.442685E+000  0.577335E+000  0.000000E+000
 0.422770E+000  0.552473E+000  0.000000E+000
 0.402854E+000  0.527610E+000  0.000000E+000
 0.382939E+000  0.502748E+000  0.000000E+000
 0.363023E+000  0.477885E+000  0.000000E+000
 0.343108E+000  0.453022E+000  0.000000E+000
 0.323192E+000  0.428160E+000  0.000000E+000
 0.303277E+000  0.403297E+000  0.000000E+000
 0.283361E+000  0.378435E+000  0.000000E+000
 0.263445E+000  0.353572E+000  0.000000E+000
 0.243530E+000  0.328709E+000  0.000000E+000
 0.223614E+000  0.303847E+000  0.000000E+000
 0.203699E+000  0.278984E+000  0.000000E+000
 0.183783E+000  0.254121E+000  0.000000E+000
 0.163868E+000  0.229259E+000  0.000000E+000
 0.143952E+000  0.204396E+000  0.000000E+000
 0.100000E+001  0.812500E+000  0.000000E+000
 0.975025E+000  0.791763E+000  0.000000E+000
 0.950050E+000  0.771027E+000  0.000000E+000
 0.925075E+000  0.750290E+000  0.000000E+000
 0.900100E+000  0.729553E+000  0.000000E+000
 0.875125E+000  0.708816E+000  0.000000E+000
 0.850150E+000  0.688080E+000  0.000000E+000
 0.825175E+000  0.667343E+000  0.000000E+000
 0.800200E+000  0.646606E+000  0.000000E+000
 0.775226E+000  0.625869E+000  0.000000E+000
 0.750251E+000  0.605133E+000  0.000000E+000
 0.725276E+000  0.584396E+000  0.000000E+000
 0.700301E+000  0.563659E+000  0.000000E+000
 0.675326E+000  0.542923E+000  0.000000E+000
 0.650351E+000  0.522186E+000  0.000000E+000
 0.625376E+000  0.501449E+000  0.000000E+000
 0.600401E+000  0.480712E+000  0.000000E+000
 0.575426E+000  0.459976E+000  0.000000E+000
 0.550451E+000  0.439239E+000  0.000000E+000
 0.525476E+000  0.418502E+000  0.000000E+000
 0.500501E+000  0.397766E+000  0.000000E+000
 0.475526E+000  0.377029E+000  0.000000E+000
 0.450551E+000  0.356292E+000  0.000000E+000
 0.425576E+000  0.335555E+000  0.000000E+000
 0.400601E+000  0.314819E+000  0.000000E+000
 0.375626E+000  0.294082E+000  0.000000E+000
 0.350652E+000  0.273345E+000  0.000000E+000
 0.325677E+000  0.252608E+000  0.000000E+000
 0.300702E+000  0.231872E+000  0.000000E+000
 0.275727E+000  0.211135E+000  0.000000E+000
 0.250752E+000  0.190398E+000  0.000000E+000
 0.225777E+000  0.169662E+000  0.000000E+000
 0.200802E+000  0.148925E+000  0.000000E+000
 0.812500E+000  0.100000E+001  0.000000E+000
 0.791763E+000  0.975025E+000  0.000000E+000
 0.771027E+000  0.950050E+000  0.000000E+000
 0.750290E+000  0.925075E+000  0.000000E+000
 0.729553E+000  0.900100E+000  0.000000E+000
 0.708816E+000  0.875125E+000  0.000000E+000
 0.688080E+000  0.850150E+000  0.000000E+000
 0.667343E+000  0.825175E+000  0.000000E+000
 0.646606E+000  0.800200E+000  0.000000E+000
 0.625869E+000  0.775226E+000  0.000000E+000
 0.605133E+000  0.750251E+000  0.000000E+000
 0.584396E+000  0.725276E+000  0.000000E+000
 0.563659E+000  0.700301E+000  0.000000E+000
 0.542923E+000  0.675326E+000  0.000000E+000
 0.522186E+000  0.650351E+000  0.000000E+000
 0.501449E+000  0.625376E+000  0.000000E+000
 0.480712E+000  0.600401E+000  0.000000E+000
 0.459976E+000  0.575426E+000  0.000000E+000
 0.439239E+000  0.550451E+000  0.000000E+000
 0.418502E+000  0.525476E+000  0.000000E+000
 0.397766E+000  0.500501E+000  0.000000E+000
 0.377029E+000  0.475526E+000  0.000000E+000
 0.356292E+000  0.450551E+000  0.000000E+000
 0.335555E+000  0.425576E+000  0.000000E+000
 0.314819E+000  0.400601E+000  0.000000E+000
 0.294082E+000  0.375626E+000  0.000000E+000
 0.273345E+000  0.350652E+000  0.000000E+000
 0.252608E+000  0.325677E+000  0.000000E+000
 0.231872E+000  0.300702E+000  0.000000E+000
 0.211135E+000  0.275727E+000  0.000000E+000
 0.190398E+000  0.250752E+000  0.000000E+000
 0.169662E+000  0.225777E+000  0.000000E+000
 0.148925E+000  0.200802E+000  0.000000E+000
 0.100000E+001  0.843750E+000  0.000000E+000
 0.974909E+000  0.822189E+000  0.000000E+000
 0.949818E+000  0.800629E+000  0.000000E+000
 0.924727E+000  0.779068E+000  0.000000E+000
 0.899636E+000  0.757507E+000  0.000000E+000
 0.874545E+000  0.735947E+000  0.000000E+000
 0.849454E+000  0.714386E+000  0.000000E+000
 0.824363E+000  0.692825E+000  0.000000E+000
 0.799272E+000  0.671264E+000  0.000000E+000
 0.774181E+000  0.649704E+000  0.000000E+000
 0.749090E+000  0.628143E+000  0.000000E+000
 0.723999E+000  0.606582E+000  0.000000E+000
 0.698907E+000  0.585022E+000  0.000000E+000
 0.673816E+000  0.563461E+000  0.000000E+000
 0.648725E+000  0.541900E+000  0.000000E+000
 0.623634E+000  0.520340E+000  0.000000E+000
 0.598543E+000  0.498779E+000  0.000000E+000
 0.573452E+000  0.477218E+000  0.000000E+000
 0.548361E+000  0.455658E+000  0.000000E+000
 0.523270E+000  0.434097E+000  0.000000E+000
 0.498179E+000  0.412536E+000  0.000000E+000
 0.473088E+000  0.390975E+000  0.000000E+000
 0.447997E+000  0.369415E+000  0.000000E+000
 0.422906E+000  0.347854E+000  0.000000E+000
 0.397815E+000  0.326293E+000  0.000000E+000
 0.372724E+000  0.304733E+000  0.000000E+000
 0.347633E+000  0.283172E+000  0.000000E+000
 0.322542E+000  0.261611E+000  0.000000E+000
 0.297451E+000  0.240051E+000  0.000000E+000
 0.272360E+000  0.218490E+000  0.000000E+000
 0.247269E+000  0.196929E+000  0.000000E+000
 0.222178E+000  0.175369E+000  0.000000E+000
 0.197087E+000  0.153808E+000  0.000000E+000
 0.843750E+000  0.100000E+001  0.000000E+000
 0.822189E+000  0.974909E+000  0.000000E+000
 0.800629E+000  0.949818E+000  0.000000E+000
 0.779068E+000  0.924727E+000  0.000000E+000
 0.757507E+000  0.899636E+000  0.000000E+000
 0.735947E+000  0.874545E+000  0.000000E+000
 0.714386E+000  0.849454E+000  0.000000E+000
 0.692825E+000  0.824363E+000  0.000000E+000
 0.671264E+000  0.799272E+000  0.000000E+000
 0.649704E+000  0.774181E+000  0.000000E+000
 0.628143E+000  0.749090E+000  0.000000E+000
 0.606582E+000  0.723999E+000  0.000000E+000
 0.585022E+000  0.698907E+000  0.000000E+000
 0.563461E+000  0.673816E+000  0.000000E+000
 0.541900E+000  0.648725E+000  0.000000E+000
 0.520340E+000  0.623634E+000  0.000000E+000
 0.498779E+000  0.598543E+000  0.000000E+000
 0.477218E+000  0.573452E+000  0.000000E+000
 0.455658E+000  0.548361E+000  0.000000E+000
 0.434097E+000  0.523270E+000  0.000000E+000
 0.412536E+000  0.498179E+000  0.000000E+000
 0.390975E+000  0.473088E+000  0.000000E+000
 0.369415E+000  0.447997E+000  0.000000E+000
 0.347854E+000  0.422906E+000  0.000000E+000
 0.326293E+000  0.397815E+000  0.000000E+000
 0.304733E+000  0.372724E+000  0.000000E+000
 0.283172E+000  0.347633E+000  0.000000E+000
 0.261611E+000  0.322542E+000  0.000000E+000
 0.240051E+000  0.297451E+000  0.000000E+000
 0.218490E+000  0.272360E+000  0.000000E+000
 0.196929E+000  0.247269E+000  0.000000E+000
 0.175369E+000  0.222178E+000  0.000000E+000
 0.153808E+000  0.197087E+000  0.000000E+000
 0.100000E+001  0.875000E+000  0.000000E+000
 0.974789E+000  0.852612E+000  0.000000E+000
 0.949578E+000  0.830225E+000  0.000000E+000
 0.924367E+000  0.807837E+000  0.000000E+000
 0.899157E+000  0.785450E+000  0.000000E+000
 0.873946E+000  0.763062E+000  0.000000E+000
 0.848735E+000  0.740675E+000  0.000000E+000
 0.823524E+000  0.718287E+000  0.000000E+000
 0.798313E+000  0.695900E+000  0.000000E+000
 0.773102E+000  0.673512E+000  0.000000E+000
 0.747891E+000  0.651124E+000  0.000000E+000
 0.722681E+000  0.628737E+000  0.000000E+000
 0.697470E+000  0.606349E+000  0.000000E+000
 0.672259E+000  0.583962E+000  0.000000E+000
 0.647048E+000  0.561574E+000  0.000000E+000
 0.621837E+000  0.539187E+000  0.000000E+000
 0.596626E+000  0.516799E+000  0.000000E+000
 0.571415E+000  0.494412E+000  0.000000E+000
 0.546205E+000  0.472024E+000  0.000000E+000
 0.520994E+000  0.449637E+000  0.000000E+000
 0.495783E+000  0.427249E+000  0.000000E+000
 0.470572E+000  0.404861E+000  0.000000E+000
 0.445361E+000  0.382474E+000  0.000000E+000
 0.420150E+000  0.360086E+000  0.000000E+000
 0.394939E+000  0.337699E+000  0.000000E+000
 0.369729E+000  0.315311E+000  0.000000E+000
 0.344518E+000  0.292924E+000  0.000000E+000
 0.319307E+000  0.270536E+000  0.000000E+000
 0.294096E+000  0.248149E+000  0.000000E+000
 0.268885E+000  0.225761E+000  0.000000E+000
 0.243674E+000  0.203373E+000  0.000000E+000
 0.218463E+000  0.180986E+000  0.000000E+000
 0.193253E+000  0.158598E+000  0.000000E+000
 0.875000E+000  0.100000E+001  0.000000E+000
 0.852612E+000  0.974789E+000  0.000000E+000
 0.830225E+000  0.949578E+000  0.000000E+000
 0.807837E+000  0.924367E+000  0.000000E+000
 0.785450E+000  0.899157E+000  0.000000E+000
 0.763062E+000  0.873946E+000  0.000000E+000
 0.740675E+000  0.848735E+000  0.000000E+000
 0.718287E+000  0.823524E+000  0.000000E+000
 0.695900E+000  0.798313E+000  0.000000E+000
 0.673512E+000  0.773102E+000  0.000000E+000
 0.651124E+000  0.747891E+000  0.000000E+000
 0.628737E+000  0.722681E+000  0.000000E+000
 0.606349E+000  0.697470E+000  0.000000E+000
 0.583962E+000  0.672259E+000  0.000000E+000
 0.561574E+000  0.647048E+000  0.000000E+000
 0.539187E+000  0.621837E+000  0.000000E+000
 0.516799E+000  0.596626E+000  0.000000E+000
 0.494412E+000  0.571415E+000  0.000000E+000
 0.472024E+000  0.546205E+000  0.000000E+000
 0.449637E+000  0.520994E+000  0.000000E+000
 0.427249E+000  0.495783E+000  0.000000E+000
 0.404861E+000  0.470572E+000  0.000000E+000
 0.382474E+000  0.445361E+000  0.000000E+000
 0.360086E+000  0.420150E+000  0.000000E+000
 0.337699E+000  0.394939E+000  0.000000E+000
 0.315311E+000  0.369729E+000  0.000000E+000
 0.292924E+000  0.344518E+000  0.000000E+000
 0.270536E+000  0.319307E+000  0.000000E+000
 0.248149E+000  0.294096E+000  0.000000E+000
 0.225761E+000  0.268885E+000  0.000000E+000
 0.203373E+000  0.243674E+000  0.000000E+000
 0.180986E+000  0.218463E+000  0.000000E+000
 0.158598E+000  0.193253E+000  0.000000E+000
 0.100000E+001  0.906250E+000  0.000000E+000
 0.974666E+000  0.883033E+000  0.000000E+000
 0.949331E+000  0.859815E+000  0.000000E+000
 0.923997E+000  0.836598E+000  0.000000E+000
 0.898663E+000  0.813380E+000  0.000000E+000
 0.873328E+000  0.790163E+000  0.000000E+000
 0.847994E+000  0.766946E+000  0.000000E+000
 0.822660E+000  0.743728E+000  0.000000E+000
 0.797326E+000  0.720511E+000  0.000000E+000
 0.771991E+000  0.697293E+000  0.000000E+000
 0.746657E+000  0.674076E+000  0.000000E+000
 0.721323E+000  0.650859E+000  0.000000E+000
 0.695988E+000  0.627641E+000  0.000000E+000
 0.670654E+000  0.604424E+000  0.000000E+000
 0.645320E+000  0.581206E+000  0.000000E+000
 0.619985E+000  0.557989E+000  0.000000E+000
 0.594651E+000  0.534772E+000  0.000000E+000
 0.569317E+000  0.511554E+000  0.000000E+000
 0.543982E+000  0.488337E+000  0.000000E+000
 0.518648E+000  0.465119E+000  0.000000E+000
 0.493314E+000  0.441902E+000  0.000000E+000
 0.467980E+000  0.418685E+000  0.000000E+000
 0.442645E+000  0.395467E+000  0.000000E+000
 0.417311E+000  0.372250E+000  0.000000E+000
 0.391977E+000  0.349032E+000  0.000000E+000
 0.366642E+000  0.325815E+000  0.000000E+000
 0.341308E+000  0.302598E+000  0.000000E+000
 0.315974E+000  0.279380E+000  0.000000E+000
 0.290639E+000  0.256163E+000  0.000000E+000
 0.265305E+000  0.232945E+000  0.000000E+000
 0.239971E+000  0.209728E+000  0.000000E+000
 0.214637E+000  0.186511E+000  0.000000E+000
 0.189302E+000  0.163293E+000  0.000000E+000
 0.906250E+000  0.100000E+001  0.000000E+000
 0.883033E+000  0.974666E+000  0.000000E+000
 0.859815E+000  0.949331E+000  0.000000E+000
 0.836598E+000  0.923997E+000  0.000000E+000
 0.813380E+000  0.898663E+000  0.000000E+000
 0.790163E+000  0.873328E+000  0.000000E+000
 0.766946E+000  0.847994E+000  0.000000E+000
 0.743728E+000  0.822660E+000  0.000000E+000
 0.720511E+000  0.797326E+000  0.000000E+000
 0.697293E+000  0.771991E+000  0.000000E+000
 0.674076E+000  0.746657E+000  0.000000E+000
 0.650859E+000  0.721323E+000  0.000000E+000
 0.627641E+000  0.695988E+000  0.000000E+000
 0.604424E+000  0.670654E+000  0.000000E+000
 0.581206E+000  0.645320E+000  0.000000E+000
 0.557989E+000  0.619985E+000  0.000000E+000
 0.534772E+000  0.594651E+000  0.000000E+000
 0.511554E+000  0.569317E+000  0.000000E+000
 0.488337E+000  0.543982E+000  0.000000E+000
 0.465119E+000  0.518648E+000  0.000000E+000
 0.441902E+000  0.493314E+000  0.000000E+000
 0.418685E+000  0.467980E+000  0.000000E+000
 0.395467E+000  0.442645E+000  0.000000E+000
 0.372250E+000  0.417311E+000  0.000000E+000
 0.349032E+000  0.391977E+000  0.000000E+000
 0.325815E+000  0.366642E+000  0.000000E+000
 0.302598E+000  0.341308E+000  0.000000E+000
 0.279380E+000  0.315974E+000  0.000000E+000
 0.256163E+000  0.290639E+000  0.000000E+000
 0.232945E+000  0.265305E+000  0.000000E+000
 0.209728E+000  0.239971E+000  0.000000E+000
 0.186511E+000  0.214637E+000  0.000000E+000
 0.163293E+000  0.189302E+000  0.000000E+000
 0.100000E+001  0.937500E+000  0.000000E+000
 0.974539E+000  0.913450E+000  0.000000E+000
 0.949077E+000  0.889399E+000  0.000000E+000
 0.923616E+000  0.865349E+000  0.000000E+000
 0.898155E+000  0.841299E+000  0.000000E+000
 0.872693E+000  0.817248E+000  0.000000E+000
 0.847232E+000  0.793198E+000  0.000000E+000
 0.821771E+000  0.769148E+000  0.000000E+000
 0.796309E+000  0.745097E+000  0.000000E+000
 0.770848E+000  0.721047E+000  0.000000E+000
 0.745387E+000  0.696997E+000  0.000000E+000
 0.719925E+000  0.672946E+000  0.000000E+000
 0.694464E+000  0.648896E+000  0.000000E+000
 0.669003E+000  0.624846E+000  0.000000E+000
 0.643542E+000  0.600796E+000  0.000000E+000
 0.618080E+000  0.576745E+000  0.000000E+000
 0.592619E+000  0.552695E+000  0.000000E+000
 0.567158E+000  0.528645E+000  0.000000E+000
 0.541696E+000  0.504594E+000  0.000000E+000
 0.516235E+000  0.480544E+000  0.000000E+000
 0.490774E+000  0.456494E+000  0.000000E+000
 0.465312E+000  0.432443E+000  0.000000E+000
 0.439851E+000  0.408393E+000  0.000000E+000
 0.414390E+000  0.384343E+000  0.000000E+000
 0.388928E+000  0.360292E+000  0.000000E+000
 0.363467E+000  0.336242E+000  0.000000E+000
 0.338006E+000  0.312192E+000  0.000000E+000
 0.312544E+000  0.288141E+000  0.000000E+000
 0.287083E+000  0.264091E+000  0.000000E+000
 0.261622E+000  0.240041E+000  0.000000E+000
 0.236160E+000  0.215990E+000  0.000000E+000
 0.210699E+000  0.191940E+000  0.000000E+000
 0.185238E+000  0.167890E+000  0.000000E+000
 0.937500E+000  0.100000E+001  0.000000E+000
 0.913450E+000  0.974539E+000  0.000000E+000
 0.889399E+000  0.949077E+000  0.000000E+000
 0.865349E+000  0.923616E+000  0.000000E+000
 0.841299E+000  0.898155E+000  0.000000E+000
 0.817248E+000  0.872693E+000  0.000000E+000
 0.793198E+000  0.847232E+000  0.000000E+000
 0.769148E+000  0.821771E+000  0.000000E+000
 0.745097E+000  0.796309E+000  0.000000E+000
 0.721047E+000  0.770848E+000  0.000000E+000
 0.696997E+000  0.745387E+000  0.000000E+000
 0.672946E+000  0.719925E+000  0.000000E+000
 0.648896E+000  0.694464E+000  0.000000E+000
 0.624846E+000  0.669003E+000  0.000000E+000
 0.600796E+000  0.643542E+000  0.000000E+000
 0.576745E+000  0.618080E+000  0.000000E+000
 0.552695E+000  0.592619E+000  0.000000E+000
 0.528645E+000  0.567158E+000  0.000000E+000
 0.504594E+000  0.541696E+000  0.000000E+000
 0.480544E+000  0.516235E+000  0.000000E+000
 0.456494E+000  0.490774E+000  0.000000E+000
 0.432443E+000  0.465312E+000  0.000000E+000
 0.408393E+000  0.439851E+000  0.000000E+000
 0.384343E+000  0.414390E+000  0.000000E+000
 0.360292E+000  0.388928E+000  0.000000E+000
 0.336242E+000  0.363467E+000  0.000000E+000
 0.312192E+000  0.338006E+000  0.000000E+000
 0.288141E+000  0.312544E+000  0.000000E+000
 0.264091E+000  0.287083E+000  0.000000E+000
 0.240041E+000  0.261622E+000  0.000000E+000
 0.215990E+000  0.236160E+000  0.000000E+000
 0.191940E+000  0.210699E+000  0.000000E+000
 0.167890E+000  0.185238E+000  0.000000E+000
 0.100000E+001  0.968750E+000  0.000000E+000
 0.974408E+000  0.943864E+000  0.000000E+000
 0.948816E+000  0.918977E+000  0.000000E+000
 0.923225E+000  0.894091E+000  0.000000E+000
 0.897633E+000  0.869204E+000  0.000000E+000
 0.872041E+000  0.844318E+000  0.000000E+000
 0.846449E+000  0.819432E+000  0.000000E+000
 0.820857E+000  0.794545E+000  0.000000E+000
 0.795265E+000  0.769659E+000  0.000000E+000
 0.769674E+000  0.744772E+000  0.000000E+000
 0.744082E+000  0.719886E+000  0.000000E+000
 0.718490E+000  0.695000E+000  0.000000E+000
 0.692898E+000  0.670113E+000  0.000000E+000
 0.667306E+000  0.645227E+000  0.000000E+000
 0.641715E+000  0.620340E+000  0.000000E+000
 0.616123E+000  0.595454E+000  0.000000E+000
 0.590531E+000  0.570568E+000  0.000000E+000
 0.564939E+000  0.545681E+000  0.000000E+000
 0.539347E+000  0.520795E+000  0.000000E+000
 0.513755E+000  0.495908E+000  0.000000E+000
 0.488164E+000  0.471022E+000  0.000000E+000
 0.462572E+000  0.446136E+000  0.000000E+000
 0.436980E+000  0.421249E+000  0.000000E+000
 0.411388E+000  0.396363E+000  0.000000E+000
 0.385796E+000  0.371476E+000  0.000000E+000
 0.360205E+000  0.346590E+000  0.000000E+000
 0.334613E+000  0.321704E+000  0.000000E+000
 0.309021E+000  0.296817E+000  0.000000E+000
 0.283429E+000  0.271931E+000  0.000000E+000
 0.257837E+000  0.247044E+000  0.000000E+000
 0.232245E+000  0.222158E+000  0.000000E+000
 0.206654E+000  0.197272E+000  0.000000E+000
 0.181062E+000  0.172385E+000  0.000000E+000
 0.968750E+000  0.100000E+001  0.000000E+000
 0.943864E+000  0.974408E+000  0.000000E+000
 0.918977E+000  0.948816E+000  0.000000E+000
 0.894091E+000  0.923225E+000  0.000000E+000
 0.869204E+000  0.897633E+000  0.000000E+000
 0.844318E+000  0.872041E+000  0.000000E+000
 0.819432E+000  0.846449E+000  0.000000E+000
 0.794545E+000  0.820857E+000  0.000000E+000
 0.769659E+000  0.795265E+000  0.000000E+000
 0.744772E+000  0.769674E+000  0.000000E+000
 0.719886E+000  0.744082E+000  0.000000E+000
 0.695000E+000  0.718490E+000  0.000000E+000
 0.670113E+000  0.692898E+000  0.000000E+000
 0.645227E+000  0.667306E+000  0.000000E+000
 0.620340E+000  0.641715E+000  0.000000E+000
 0.595454E+000  0.616123E+000  0.000000E+000
 0.570568E+000  0.590531E+000  0.000000E+000
 0.545681E+000  0.564939E+000  0.000000E+000
 0.520795E+000  0.539347E+000  0.000000E+000
 0.495908E+000  0.513755E+000  0.000000E+000
 0.471022E+000  0.488164E+000  0.000000E+000
 0.446136E+000  0.462572E+000  0.000000E+000
 0.421249E+000  0.436980E+000  0.000000E+000
 0.396363E+000  0.411388E+000  0.000000E+000
 0.371476E+000  0.385796E+000  0.000000E+000
 0.346590E+000  0.360205E+000  0.000000E+000
 0.321704E+000  0.334613E+000  0.000000E+000
 0.296817E+000  0.309021E+000  0.000000E+000
 0.271931E+000  0.283429E+000  0.000000E+000
 0.247044E+000  0.257837E+000  0.000000E+000
 0.222158E+000  0.232245E+000  0.000000E+000
 0.197272E+000  0.206654E+000  0.000000E+000
 0.172385E+000  0.181062E+000  0.000000E+000
 0.100000E+001  0.100000E+001  0.000000E+000
 0.974274E+000  0.974274E+000  0.000000E+000
 0.948549E+000  0.948549E+000  0.000000E+000
 0.922823E+000  0.922823E+000  0.000000E+000
 0.897097E+000  0.897097E+000  0.000000E+000
 0.871371E+000  0.871371E+000  0.000000E+000
 0.845646E+000  0.845646E+000  0.000000E+000
 0.819920E+000  0.819920E+000  0.000000E+000
 0.794194E+000  0.794194E+000  0.000000E+000
 0.768468E+000  0.768468E+000  0.000000E+000
 0.742743E+000  0.742743E+000  0.000000E+000
 0.717017E+000  0.717017E+000  0.000000E+000
 0.691291E+000  0.691291E+000  0.000000E+000
 0.665566E+000  0.665566E+000  0.000000E+000
 0.639840E+000  0.639840E+000  0.000000E+000
 0.614114E+000  0.614114E+000  0.000000E+000
 0.588388E+000  0.588388E+000  0.000000E+000
 0.562663E+000  0.562663E+000  0.000000E+000
 0.536937E+000  0.536937E+000  0.000000E+000
 0.511211E+000  0.511211E+000  0.000000E+000
 0.485485E+000  0.485485E+000  0.000000E+000
 0.459760E+000  0.459760E+000  0.000000E+000
 0.434034E+000  0.434034E+000  0.000000E+000
 0.408308E+000  0.408308E+000  0.000000E+000
 0.382583E+000  0.382583E+000  0.000000E+000
 0.356857E+000  0.356857E+000  0.000000E+000
 0.331131E+000  0.331131E+000  0.000000E+000
 0.305405E+000  0.305405E+000  0.000000E+000
 0.279680E+000  0.279680E+000  0.000000E+000
 0.253954E+000  0.253954E+000  0.000000E+000
 0.228228E+000  0.228228E+000  0.000000E+000
 0.202502E+000  0.202502E+000  0.000000E+000
 0.176777E+000  0.176777E+000  0.000000E+000
CELLS  8192 40960
    4    0     1     3     2
    4    2     3     9     8
    4    8     9    19    18
    4   18    19    33    32
    4   32    33    51    50
    4   50    51    73    72
    4   72    73    99    98
    4   98    99   129   128
    4  128   129   163   162
    4  162   163   201   200
    4  200   201   243   242
    4  242   243   289   288
    4  288   289   339   338
    4  338   339   393   392
    4  392   393   451   450
    4  450   451   513   512
    4  512   513   579   578
    4  578   579   649   648
    4  648   649   723   722
    4  722   723   801   800
    4  800   801   883   882
    4  882   883   969   968
    4  968   969  1059  1058
    4 1058  1059  1153  1152
    4 1152  1153  1251  1250
    4 1250  1251  1353  1352
    4 1352  1353  1459  1458
    4 1458  1459  1569  1568
    4 1568  1569  1683  1682
    4 1682  1683  1801  1800
    4 1800  1801  1923  1922
    4 1922  1923  2049  2048
    4    1     6     7     3
    4    3     7    11     9
    4    9    11    21    19
    4   19    21    35    33
    4   33    35    53    51
    4   51    53    75    73
    4   73    75   101    99
    4   99   101   131   129
    4  129   131   165   163
    4  163   165   203   201
    4  201   203   245   243
    4  243   245   291   289
    4  289   291   341   339
    4  339   341   395   393
    4  393   395   453   451
    4  451   453   515   513
    4  513   515   581   579
    4  579   581   651   649
    4  649   651   725   723
    4  723   725   803   801
    4  801   803   885   883
    4  883   885   971   969
    4  969   971  1061  1059
    4 1059  1061  1155  1153
    4 1153  1155  1253  1251
    4 1251  1253  1355  1353
    4 1353  1355  1461  1459
    4 1459  1461  1571  1569
    4 1569  1571  1685  1683
    4 1683  1685  1803  1801
    4 1801  1803  1925  1923
    4 1923  1925  2051  2049
    4    6    15    16     7
    4    7    16    17    11
    4   11    17    23    21
    4   21    23    37    35
    4   35    37    55    53
    4   53    55    77    75
    4   75    77   103   101
    4  101   103   133   131
    4  131   133   167   165
    4  165   167   205   203
    4  203   205   247   245
    4  245   247   293   291
    4  291   293   343   341
    4  341   343   397   395
    4  395   397   455   453
    4  453   455   517   515
    4  515   517   583   581
    4  581   583   653   651
    4  651   653   727   725
    4  725   727   805   803
    4  803   805   887   885
    4  885   887   973   971
    4  971   973  1063  1061
    4 1061  1063  1157  1155
    4 1155  1157  1255  1253
    4 1253  1255  1357  1355
    4 1355  1357  1463  1461
    4 1461  1463  1573  1571
    4 1571  1573  1687  1685
    4 1685  1687  1805  1803
    4 1803  1805  1927  1925
    4 1925  1927  2053  2051
    4   15    28    29    16
    4   16    29    30    17
    4   17    30    31    23
    4   23    31    39    37
    4   37    39    57    55
    4   55    57    79    77
    4   77    79   105   103
    4  103   105   135   133
    4  133   135   169   167
    4  167   169   207   205
    4  205   207   249   247
    4  247   249   295   293
    4  293   295   345   343
    4  343   345   399   397
    4  397   399   457   455
    4  455   457   519   517
    4  517   519   585   583
    4  583   585   655   653
    4  653   655   729   727
    4  727   729   807   805
    4  805   807   889   887
    4  887   889   975   973
    4  973   975  1065  1063
    4 1063  1065  1159  1157
    4 1157  1159  1257  1255
    4 1255  1257  1359  1357
    4 1357  1359  1465  1463
    4 1463  1465  1575  1573
    4 1573  1575  1689  1687
    4 1687  1689  1807  1805
    4 1805  1807  1929  1927
    4 1927  1929  2055  2053
    4   28    45    46    29
    4   29    46    47    30
    4   30    47    48    31
    4   31    48    49    39
    4   39    49    59    57
    4   57    59    81    79
    4   79    81   107   105
    4  105   107   137   135
    4  135   137   171   169
    4  169   171   209   207
    4  207   209   251   249
    4  249   251   297   295
    4  295   297   347   345
    4  345   347   401   399
    4  399   401   459   457
    4  457   459   521   519
    4  519   521   587   585
    4  585   587   657   655
    4  655   657   731   729
    4  729   731   809   807
    4  807   809   891   889
    4  889   891   977   975
    4  975   977  1067  1065
    4 1065  1067  1161  1159
    4 1159  1161  1259  1257
    4 1257  1259  1361  1359
    4 1359  1361  1467  1465
    4 1465  1467  1577  1575
    4 1575  1577  1691  1689
    4 1689  1691  1809  1807
    4 1807  1809  1931  1929
    4 1929  1931  2057  2055
    4   45    66    67    46
    4   46    67    68    47
    4   47    68    69    48
    4   48    69    70    49
    4   49    70    71    59
    4   59    71    83    81
    4   81    83   109   107
    4  107   109   139   137
    4  137   139   173   171
    4  171   173   211   209
    4  209   211   253   251
    4  251   253   299   297
    4  297   299   349   347
    4  347   349   403   401
    4  401   403   461   459
    4  459   461   523   521
    4  521   523   589   587
    4  587   589   659   657
    4  657   659   733   731
    4  731   733   811   809
    4  809   811   893   891
    4  891   893   979   977
    4  977   979  1069  1067
    4 1067  1069  1163  1161
    4 1161  1163  1261  1259
    4 1259  1261  1363  1361
    4 1361  1363  1469  1467
    4 1467  1469  1579  1577
    4 1577  1579  1693  1691
    4 1691  1693  1811  1809
    4 1809  1811  1933  1931
    4 1931  1933  2059  2057
    4   66    91    92    67
    4   67    92    93    68
    4   68    93    94    69
    4   69    94    95    70
    4   70    95    96    71
    4   71    96    97    83
    4   83    97   111   109
    4  109   111   141   139
    4  139   141   175   173
    4  173   175   213   211
    4  211   213   255   253
    4  253   255   301   299
    4  299   301   351   349
    4  349   351   405   403
    4  403   405   463   461
    4  461   463   525   523
    4  523   525   591   589
    4  589   591   661   659
    4  659   661   735   733
    4  733   735   813   811
    4  811   813   895   893
    4  893   895   981   979
    4  979   981  1071  1069
    4 1069  1071  1165  1163
    4 1163  1165  1263  1261
    4 1261  1263  1365  1363
    4 1363  1365  1471  1469
    4 1469  1471  1581  1579
    4 1579  1581  1695  1693
    4 1693  1695  1813  1811
    4 1811  1813  1935  1933
    4 1933  1935  2061  2059
    4   91   120   121    92
    4   92   121   122    93
    4   93   122   123    94
    4   94   123   124    95
    4   95   124   125    96
    4   96   125   126    97
    4   97   126   127   111
    4  111   127   143   141
    4  141   143   177   175
    4  175   177   215   213
    4  213   215   257   255
    4  255   257   303   301
    4  301   303   353   351
    4  351   353   407   405
    4  405   407   465   463
    4  463   465   527   525
    4  525   527   593   591
    4  591   593   663   661
    4  661   663   737   735
    4  735   737   815   813
    4  813   815   897   895
    4  895   897   983   981
    4  981   983  1073  1071
    4 1071  1073  1167  1165
    4 1165  1167  1265  1263
    4 1263  1265  1367  1365
    4 1365  1367  1473  1471
    4 1471  1473  1583  1581
    4 1581  1583  1697  1695
    4 1695  1697  1815  1813
    4 1813  1815  1937  1935
    4 1935  1937  2063  2061
    4  120   153   154   121
    4  121   154   155   122
    4  122   155   156   123
    4  123   156   157   124
    4  124   157   158   125
    4  125   158   159   126
    4  126   159   160   127
    4  127   160   161   143
    4  143   161   179   177
    4  177   179   217   215
    4  215   217   259   257
    4  257   259   305   303
    4  303   305   355   353
    4  353   355   409   407
    4  407   409   467   465
    4  465   467   529   527
    4  527   529   595   593
    4  593   595   665   663
    4  663   665   739   737
    4  737   739   817   815
    4  815   817   899   897
    4  897   899   985   983
    4  983   985  1075  1073
    4 1073  1075  1169  1167
    4 1167  1169  1267  1265
    4 1265  1267  1369  1367
    4 1367  1369  1475  1473
    4 1473  1475  1585  1583
    4 1583  1585  1699  1697
    4 1697  1699  1817  1815
    4 1815  1817  1939  1937
    4 1937  1939  2065  2063
    4  153   190   191   154
    4  154   191   192   155
    4  155   192   193   156
    4  156   193   194   157
    4  157   194   195   158
    4  158   195   196   159
    4  159   196   197   160
    4  160   197   198   161
    4  161   198   199   179
    4  179   199   219   217
    4  217   219   261   259
    4  259   261   307   305
    4  305   307   357   355
    4  355   357   411   409
    4  409   411   469   467
    4  467   469   531   529
    4  529   531   597   595
    4  595   597   667   665
    4  665   667   741   739
    4  739   741   819   817
    4  817   819   901   899
    4  899   901   987   985
    4  985   987  1077  1075
    4 1075  1077  1171  1169
    4 1169  1171  1269  1267
    4 1267  1269  1371  1369
    4 1369  1371  1477  1475
    4 1475  1477  1587  1585
    4 1585  1587  1701  1699
    4 1699  1701  1819  1817
    4 1817  1819  1941  1939
    4 1939  1941  2067  2065
    4  190   231   232   191
    4  191   232   233   192
    4  192   233   234   193
    4  193   234   235   194
    4  194   235   236   195
    4  195   236   237   196
    4  196   237   238   197
    4  197   238   239   198
    4  198   239   240   199
    4  199   240   241   219
    4  219   241   263   261
    4  261   263   309   307
    4  307   309   359   357
    4  357   359   413   411
    4  411   413   471   469
    4  469   471   533   531
    4  531   533   599   597
    4  597   599   669   667
    4  667   669   743   741
    4  741   743   821   819
    4  819   821   903   901
    4  901   903   989   987
    4  987   989  1079  1077
    4 1077  1079  1173  1171
    4 1171  1173  1271  1269
    4 1269  1271  1373  1371
    4 1371  1373  1479  1477
    4 1477  1479  1589  1587
    4 1587  1589  1703  1701
    4 1701  1703  1821  1819
    4 1819  1821  1943  1941
    4 1941  1943  2069  2067
    4  231   276   277   232
    4  232   277   278   233
    4  233   278   279   234
    4  234   279   280   235
    4  235   280   281   236
    4  236   281   282   237
    4  237   282   283   238
    4  238   283   284   239
    4  239   284   285   240
    4  240   285   286   241
    4  241   286   287   263
    4  263   287   311   309
    4  309   311   361   359
    4  359   361   415   413
    4  413   415   473   471
    4  471   473   535   533
    4  533   535   601   599
    4  599   601   671   669
    4  669   671   745   743
    4  743   745   823   821
    4  821   823   905   903
    4  903   905   991   989
    4  989   991  1081  1079
    4 1079  1081  1175  1173
    4 1173  1175  1273  1271
    4 1271  1273  1375  1373
    4 1373  1375  1481  1479
    4 1479  1481  1591  1589
    4 1589  1591  1705  1703
    4 1703  1705  1823  1821
    4 1821  1823  1945  1943
    4 1943  1945  2071  2069
    4  276   325   326   277
    4  277   326   327   278
    4  278   327   328   279
    4  279   328   329   280
    4  280   329   330   281
    4  281   330   331   282
    4  282   331   332   283
    4  283   332   333   284
    4  284   333   334   285
    4  285   334   335   286
    4  286   335   336   287
    4  287   336   337   311
    4  311   337   363   361
    4  361   363   417   415
    4  415   417   475   473
    4  473   475   537   535
    4  535   537   603   601
    4  601   603   673   671
    4  671   673   747   745
    4  745   747   825   823
    4  823   825   907   905
    4  905   907   993   991
    4  991   993  1083  1081
    4 1081  1083  1177  1175
    4 1175  1177  1275  1273
    4 1273  1275  1377  1375
    4 1375  1377  1483  1481
    4 1481  1483  1593  1591
    4 1591  1593  1707  1705
    4 1705  1707  1825  1823
    4 1823  1825  1947  1945
    4 1945  1947  2073  2071
    4  325   378   379   326
    4  326   379   380   327
    4  327   380   381   328
    4  328   381   382   329
    4  329   382   383   330
    4  330   383   384   331
    4  331   384   385   332
    4  332   385   386   333
    4  333   386   387   334
    4  334   387   388   335
    4  335   388   389   336
    4  336   389   390   337
    4  337   390   391   363
    4  363   391   419   417
    4  417   419   477   475
    4  475   477   539   537
    4  537   539   605   603
    4  603   605   675   673
    4  673   675   749   747
    4  747   749   827   825
    4  825   827   909   907
    4  907   909   995   993
    4  993   995  1085  1083
    4 1083  1085  1179  1177
    4 1177  1179  1277  1275
    4 1275  1277  1379  1377
    4 1377  1379  1485  1483
    4 1483  1485  1595  1593
    4 1593  1595  1709  1707
    4 1707  1709  1827  1825
    4 1825  1827  1949  1947
    4 1947  1949  2075  2073
    4  378   435   436   379
    4  379   436   437   380
    4  380   437   438   381
    4  381   438   439   382
    4  382   439   440   383
    4  383   440   441   384
    4  384   441   442   385
    4  385   442   443   386
    4  386   443   444   387
    4  387   444   445   388
    4  388   445   446   389
    4  389   446   447   390
    4  390   447   448   391
    4  391   448   449   419
    4  419   449   479   477
    4  477   479   541   539
    4  539   541   607   605
    4  605   607   677   675
    4  675   677   751   749
    4  749   751   829   827
    4  827   829   911   909
    4  909   911   997   995
    4  995   997  1087  1085
    4 1085  1087  1181  1179
    4 1179  1181  1279  1277
    4 1277  1279  1381  1379
    4 1379  1381  1487  1485
    4 1485  1487  1597  1595
    4 1595  1597  1711  1709
    4 1709  1711  1829  1827
    4 1827  1829  1951  1949
    4 1949  1951  2077  2075
    4  435   496   497   436
    4  436   497   498   437
    4  437   498   499   438
    4  438   499   500   439
    4  439   500   501   440
    4  440   501   502   441
    4  441   502   503   442
    4  442   503   504   443
    4  443   504   505   444
    4  444   505   506   445
    4  445   506   507   446
    4  446   507   508   447
    4  447   508   509   448
    4  448   509   510   449
    4  449   510   511   479
    4  479   511   543   541
    4  541   543   609   607
    4  607   609   679   677
    4  677   679   753   751
    4  751   753   831   829
    4  829   831   913   911
    4  911   913   999   997
    4  997   999  1089  1087
    4 1087  1089  1183  1181
    4 1181  1183  1281  1279
    4 1279  1281  1383  1381
    4 1381  1383  1489  1487
    4 1487  1489  1599  1597
    4 1597  1599  1713  1711
    4 1711  1713  1831  1829
    4 1829  1831  1953  1951
    4 1951  1953  2079  2077
    4  496   561   562   497
    4  497   562   563   498
    4  498   563   564   499
    4  499   564   565   500
    4  500   565   566   501
    4  501   566   567   502
    4  502   567   568   503
    4  503   568   569   504
    4  504   569   570   505
    4  505   570   571   506
    4  506   571   572   507
    4  507   572   573   508
    4  508   573   574   509
    4  509   574   575   510
    4  510   575   576   511
    4  511   576   577   543
    4  543   577   611   609
    4  609   611   681   679
    4  679   681   755   753
    4  753   755   833   831
    4  831   833   915   913
    4  913   915  1001   999
    4  999  1001  1091  1089
    4 1089  1091  1185  1183
    4 1183  1185  1283  1281
    4 1281  1283  1385  1383
    4 1383  1385  1491  1489
    4 1489  1491  1601  1599
    4 1599  1601  1715  1713
    4 1713  1715  1833  1831
    4 1831  1833  1955  1953
    4 1953  1955  2081  2079
    4  561   630   631   562
    4  562   631   632   563
    4  563   632   633   564
    4  564   633   634   565
    4  565   634   635   566
    4  566   635   636   567
    4  567   636   637   568
    4  568   637   638   569
    4  569   638   639   570
    4  570   639   640   571
    4  571   640   641   572
    4  572   641   642   573
    4  573   642   643   574
    4  574   643   644   575
    4  575   644   645   576
    4  576   645   646   577
    4  577   646   647   611
    4  611   647   683   681
    4  681   683   757   755
    4  755   757   835   833
    4  833   835   917   915
    4  915   917  1003  1001
    4 1001  1003  1093  1091
    4 1091  1093  1187  1185
    4 1185  1187  1285  1283
    4 1283  1285  1387  1385
    4 1385  1387  1493  1491
    4 1491  1493  1603  1601
    4 1601  1603  1717  1715
    4 1715  1717  1835  1833
    4 1833  1835  1957  1955
    4 1955  1957  2083  2081
    4  630   703   704   631
    4  631   704   705   632
    4  632   705   706   633
    4  633   706   707   634
    4  634   707   708   635
    4  635   708   709   636
    4  636   709   710   637
    4  637   710   711   638
    4  638   711   712   639
    4  639   712   713   640
    4  640   713   714   641
    4  641   714   715   642
    4  642   715   716   643
    4  643   716   717   644
    4  644   717   718   645
    4  645   718   719   646
    4  646   719   720   647
    4  647   720   721   683
    4  683   721   759   757
    4  757   759   837   835
    4  835   837   919   917
    4  917   919  1005  1003
    4 1003  1005  1095  1093
    4 1093  1095  1189  1187
    4 1187  1189  1287  1285
    4 1285  1287  1389  1387
    4 1387  1389  1495  1493
    4 1493  1495  1605  1603
    4 1603  1605  1719  1717
    4 1717  1719  1837  1835
    4 1835  1837  1959  1957
    4 1957  1959  2085  2083
    4  703   780   781   704
    4  704   781   782   705
    4  705   782   783   706
    4  706   783   784   707
    4  707   784   785   708
    4  708   785   786   709
    4  709   786   787   710
    4  710   787   788   711
    4  711   788   789   712
    4  712   789   790   713
    4  713   790   791   714
    4  714   791   792   715
    4  715   792   793   716
    4  716   793   794   717
    4  717   794   795   718
    4  718   795   796   719
    4  719   796   797   720
    4  720   797   798   721
    4  721   798   799   759
    4  759   799   839   837
    4  837   839   921   919
    4  919   921  1007  1005
    4 1005  1007  1097  1095
    4 1095  1097  1191  1189
    4 1189  1191  1289  1287
    4 1287  1289  1391  1389
    4 1389  1391  1497  1495
    4 1495  1497  1607  1605
    4 1605  1607  1721  1719
    4 1719  1721  1839  1837
    4 1837  1839  1961  1959
    4 1959  1961  2087  2085
    4  780   861   862   781
    4  781   862   863   782
    4  782   863   864   783
    4  783   864   865   784
    4  784   865   866   785
    4  785   866   867   786
    4  786   867   868   787
    4  787   868   869   788
    4  788   869   870   789
    4  789   870   871   790
    4  790   871   872   791
    4  791   872   873   792
    4  792   873   874   793
    4  793   874   875   794
    4  794   875   876   795
    4  795   876   877   796
    4  796   877   878   797
    4  797   878   879   798
    4  798   879   880   799
    4  799   880   881   839
    4  839   881   923   921
    4  921   923  1009  1007
    4 1007  1009  1099  1097
    4 1097  1099  1193  1191
    4 1191  1193  1291  1289
    4 1289  1291  1393  1391
    4 1391  1393  1499  1497
    4 1497  1499  1609  1607
    4 1607  1609  1723  1721
    4 1721  1723  1841  1839
    4 1839  1841  1963  1961
    4 1961  1963  2089  2087
    4  861   946   947   862
    4  862   947   948   863
    4  863   948   949   864
    4  864   949   950   865
    4  865   950   951   866
    4  866   951   952   867
    4  867   952   953   868
    4  868   953   954   869
    4  869   954   955   870
    4  870   955   956   871
    4  871   956   957   872
    4  872   957   958   873
    4  873   958   959   874
    4  874   959   960   875
    4  875   960   961   876
    4  876   961   962   877
    4  877   962   963   878
    4  878   963   964   879
    4  879   964   965   880
    4  880   965   966   881
    4  881   966   967   923
    4  923   967  1011  1009
    4 1009  1011  1101  1099
    4 1099  1101  1195  1193
    4 1193  1195  1293  1291
    4 1291  1293  1395  1393
    4 1393  1395  1501  1499
    4 1499  1501  1611  1609
    4 1609  1611  1725  1723
    4 1723  1725  1843  1841
    4 1841  1843  1965  1963
    4 1963  1965  2091  2089
    4  946  1035  1036   947
    4  947  1036  1037   948
    4  948  1037  1038   949
    4  949  1038  1039   950
    4  950  1039  1040   951
    4  951  1040  1041   952
    4  952  1041  1042   953
    4  953  1042  1043   954
    4  954  1043  1044   955
    4  955  1044  1045   956
    4  956  1045  1046   957
    4  957  1046  1047   958
    4  958  1047  1048   959
    4  959  1048  1049   960
    4  960  1049  1050   961
    4  961  1050  1051   962
    4  962  1051  1052   963
    4  963  1052  1053   964
    4  964  1053  1054   965
    4  965  1054  1055   966
    4  966  1055  1056   967
    4  967  1056  1057  1011
    4 1011  1057  1103  1101
    4 1101  1103  1197  1195
    4 1195  1197  1295  1293
    4 1293  1295  1397  1395
    4 1395  1397  1503  1501
    4 1501  1503  1613  1611
    4 1611  1613  1727  1725
    4 1725  1727  1845  1843
    4 1843  1845  1967  1965
    4 1965  1967  2093  2091
    4 1035  1128  1129  1036
    4 1036  1129  1130  1037
    4 1037  1130  1131  1038
    4 1038  1131  1132  1039
    4 1039  1132  1133  1040
    4 1040  1133  1134  1041
    4 1041  1134  1135  1042
    4 1042  1135  1136  1043
    4 1043  1136  1137  1044
    4 1044  1137  1138  1045
    4 1045  1138  1139  1046
    4 1046  1139  1140  1047
    4 1047  1140  1141  1048
    4 1048  1141  1142  1049
    4 1049  1142  1143  1050
    4 1050  1143  1144  1051
    4 1051  1144  1145  1052
    4 1052  1145  1146  1053
    4 1053  1146  1147  1054
    4 1054  1147  1148  1055
    4 1055  1148  1149  1056
    4 1056  1149  1150  1057
    4 1057  1150  1151  1103
    4 1103  1151  1199  1197
    4 1197  1199  1297  1295
    4 1295  1297  1399  1397
    4 1397  1399  1505  1503
    4 1503  1505  1615  1613
    4 1613  1615  1729  1727
    4 1727  1729  1847  1845
    4 1845  1847  1969  1967
    4 1967  1969  2095  2093
    4 1128  1225  1226  1129
    4 1129  1226  1227  1130
    4 1130  1227  1228  1131
    4 1131  1228  1229  1132
    4 1132  1229  1230  1133
    4 1133  1230  1231  1134
    4 1134  1231  1232  1135
    4 1135  1232  1233  1136
    4 1136  1233  1234  1137
    4 1137  1234  1235  1138
    4 1138  1235  1236  1139
    4 1139  1236  1237  1140
    4 1140  1237  1238  1141
    4 1141  1238  1239  1142
    4 1142  1239  1240  1143
    4 1143  1240  1241  1144
    4 1144  1241  1242  1145
    4 1145  1242  1243  1146
    4 1146  1243  1244  1147
    4 1147  1244  1245  1148
    4 1148  1245  1246  1149
    4 1149  1246  1247  1150
    4 1150  1247  1248  1151
    4 1151  1248  1249  1199
    4 1199  1249  1299  1297
    4 1297  1299  1401  1399
    4 1399  1401  1507  1505
    4 1505  1507  1617  1615
    4 1615  1617  1731  1729
    4 1729  1731  1849  1847
    4 1847  1849  1971  1969
    4 1969  1971  2097  2095
    4 1225  1326  1327  1226
    4 1226  1327  1328  1227
    4 1227  1328  1329  1228
    4 1228  1329  1330  1229
    4 1229  1330  1331  1230
    4 1230  1331  1332  1231
    4 1231  1332  1333  1232
    4 1232  1333  1334  1233
    4 1233  1334  1335  1234
    4 1234  1335  1336  1235
    4 1235  1336  1337  1236
    4 1236  1337  1338  1237
    4 1237  1338  1339  1238
    4 1238  1339  1340  1239
    4 1239  1340  1341  1240
    4 1240  1341  1342  1241
    4 1241  1342  1343  1242
    4 1242  1343  1344  1243
    4 1243  1344  1345  1244
    4 1244  1345  1346  1245
    4 1245  1346  1347  1246
    4 1246  1347  1348  1247
    4 1247  1348  1349  1248
    4 1248  1349  1350  1249
    4 1249  1350  1351  1299
    4 1299  1351  1403  1401
    4 1401  1403  1509  1507
    4 1507  1509  1619  1617
    4 1617  1619  1733  1731
    4 1731  1733  1851  1849
    4 1849  1851  1973  1971
    4 1971  1973  2099  2097
    4 1326  1431  1432  1327
    4 1327  1432  1433  1328
    4 1328  1433  1434  1329
    4 1329  1434  1435  1330
    4 1330  1435  1436  1331
    4 1331  1436  1437  1332
    4 1332  1437  1438  1333
    4 1333  1438  1439  1334
    4 1334  1439  1440  1335
    4 1335  1440  1441  1336
    4 1336  1441  1442  1337
    4 1337  1442  1443  1338
    4 1338  1443  1444  1339
    4 1339  1444  1445  1340
    4 1340  1445  1446  1341
    4 1341  1446  1447  1342
    4 1342  1447  1448  1343
    4 1343  1448  1449  1344
    4 1344  1449  1450  1345
    4 1345  1450  1451  1346
    4 1346  1451  1452  1347
    4 1347  1452  1453  1348
    4 1348  1453  1454  1349
    4 1349  1454  1455  1350
    4 1350  1455  1456  1351
    4 1351  1456  1457  1403
    4 1403  1457  1511  1509
    4 1509  1511  1621  1619
    4 1619  1621  1735  1733
    4 1733  1735  1853  1851
    4 1851  1853  1975  1973
    4 1973  1975  2101  2099
    4 1431  1540  1541  1432
    4 1432  1541  1542  1433
    4 1433  1542  1543  1434
    4 1434  1543  1544  1435
    4 1435  1544  1545  1436
    4 1436  1545  1546  1437
    4 1437  1546  1547  1438
    4 1438  1547  1548  1439
    4 1439  1548  1549  1440
    4 1440  1549  1550  1441
    4 1441  1550  1551  1442
    4 1442  1551  1552  1443
    4 1443  1552  1553  1444
    4 1444  1553  1554  1445
    4 1445  1554  1555  1446
    4 1446  1555  1556  1447
    4 1447  1556  1557  1448
    4 1448  1557  1558  1449
    4 1449  1558  1559  1450
    4 1450  1559  1560  1451
    4 1451  1560  1561  1452
    4 1452  1561  1562  1453
    4 1453  1562  1563  1454
    4 1454  1563  1564  1455
    4 1455  1564  1565  1456
    4 1456  1565  1566  1457
    4 1457  1566  1567  1511
    4 1511  1567  1623  1621
    4 1621  1623  1737  1735
    4 1735  1737  1855  1853
    4 1853  1855  1977  1975
    4 1975  1977  2103  2101
    4 1540  1653  1654  1541
    4 1541  1654  1655  1542
    4 1542  1655  1656  1543
    4 1543  1656  1657  1544
    4 1544  1657  1658  1545
    4 1545  1658  1659  1546
    4 1546  1659  1660  1547
    4 1547  1660  1661  1548
    4 1548  1661  1662  1549
    4 1549  1662  1663  1550
    4 1550  1663  1664  1551
    4 1551  1664  1665  1552
    4 1552  1665  1666  1553
    4 1553  1666  1667  1554
    4 1554  1667  1668  1555
    4 1555  1668  1669  1556
    4 1556  1669  1670  1557
    4 1557  1670  1671  1558
    4 1558  1671  1672  1559
    4 1559  1672  1673  1560
    4 1560  1673  1674  1561
    4 1561  1674  1675  1562
    4 1562  1675  1676  1563
    4 1563  1676  1677  1564
    4 1564  1677  1678  1565
    4 1565  1678  1679  1566
    4 1566  1679  1680  1567
    4 1567  1680  1681  1623
    4 1623  1681  1739  1737
    4 1737  1739  1857  1855
    4 1855  1857  1979  1977
    4 1977  1979  2105  2103
    4 1653  1770  1771  1654
    4 1654  1771  1772  1655
    4 1655  1772  1773  1656
    4 1656  1773  1774  1657
    4 1657  1774  1775  1658
    4 1658  1775  1776  1659
    4 1659  1776  1777  1660
    4 1660  1777  1778  1661
    4 1661  1778  1779  1662
    4 1662  1779  1780  1663
    4 1663  1780  1781  1664
    4 1664  1781  1782  1665
    4 1665  1782  1783  1666
    4 1666  1783  1784  1667
    4 1667  1784  1785  1668
    4 1668  1785  1786  1669
    4 1669  1786  1787  1670
    4 1670  1787  1788  1671
    4 1671  1788  1789  1672
    4 1672  1789  1790  1673
    4 1673  1790  1791  1674
    4 1674  1791  1792  1675
    4 1675  1792  1793  1676
    4 1676  1793  1794  1677
    4 1677  1794  1795  1678
    4 1678  1795  1796  1679
    4 1679  1796  1797  1680
    4 1680  1797  1798  1681
    4 1681  1798  1799  1739
    4 1739  1799  1859  1857
    4 1857  1859  1981  1979
    4 1979  1981  2107  2105
    4 1770  1891  1892  1771
    4 1771  1892  1893  1772
    4 1772  1893  1894  1773
    4 1773  1894  1895  1774
    4 1774  1895  1896  1775
    4 1775  1896  1897  1776
    4 1776  1897  1898  1777
    4 1777  1898  1899  1778
    4 1778  1899  1900  1779
    4 1779  1900  1901  1780
    4 1780  1901  1902  1781
    4 1781  1902  1903  1782
    4 1782  1903  1904  1783
    4 1783  1904  1905  1784
    4 1784  1905  1906  1785
    4 1785  1906  1907  1786
    4 1786  1907  1908  1787
    4 1787  1908  1909  1788
    4 1788  1909  1910  1789
    4 1789  1910  1911  1790
    4 1790  1911  1912  1791
    4 1791  1912  1913  1792
    4 1792  1913  1914  1793
    4 1793  1914  1915  1794
    4 1794  1915  1916  1795
    4 1795  1916  1917  1796
    4 1796  1917  1918  1797
    4 1797  1918  1919  1798
    4 1798  1919  1920  1799
    4 1799  1920  1921  1859
    4 1859  1921  1983  1981
    4 1981  1983  2109  2107
    4 1891  2016  2017  1892
    4 1892  2017  2018  1893
    4 1893  2018  2019  1894
    4 1894  2019  2020  1895
    4 1895  2020  2021  1896
    4 1896  2021  2022  1897
    4 1897  2022  2023  1898
    4 1898  2023  2024  1899
    4 1899  2024  2025  1900
    4 1900  2025  2026  1901
    4 1901  2026  2027  1902
    4 1902  2027  2028  1903
    4 1903  2028  2029  1904
    4 1904  2029  2030  1905
    4 1905  2030  2031  1906
    4 1906  2031  2032  1907
    4 1907  2032  2033  1908
    4 1908  2033  2034  1909
    4 1909  2034  2035  1910
    4 1910  2035  2036  1911
    4 1911  2036  2037  1912
    4 1912  2037  2038  1913
    4 1913  2038  2039  1914
    4 1914  2039  2040  1915
    4 1915  2040  2041  1916
    4 1916  2041  2042  1917
    4 1917  2042  2043  1918
    4 1918  2043  2044  1919
    4 1919  2044  2045  1920
    4 1920  2045  2046  1921
    4 1921  2046  2047  1983
    4 1983  2047  2111  2109
    4 2016  2145  2146  2017
    4 2017  2146  2147  2018
    4 2018  2147  2148  2019
    4 2019  2148  2149  2020
    4 2020  2149  2150  2021
    4 2021  2150  2151  2022
    4 2022  2151  2152  2023
    4 2023  2152  2153  2024
    4 2024  2153  2154  2025
    4 2025  2154  2155  2026
    4 2026  2155  2156  2027
    4 2027  2156  2157  2028
    4 2028  2157  2158  2029
    4 2029  2158  2159  2030
    4 2030  2159  2160  2031
    4 2031  2160  2161  2032
    4 2032  2161  2162  2033
    4 2033  2162  2163  2034
    4 2034  2163  2164  2035
    4 2035  2164  2165  2036
    4 2036  2165  2166  2037
    4 2037  2166  2167  2038
    4 2038  2167  2168  2039
    4 2039  2168  2169  2040
    4 2040  2169  2170  2041
    4 2041  2170  2171  2042
    4 2042  2171  2172  2043
    4 2043  2172  2173  2044
    4 2044  2173  2174  2045
    4 2045  2174  2175  2046
    4 2046  2175  2176  2047
    4 2047  2176  2177  2111
    4 2145  2211  2212  2146
    4 2146  2212  2213  2147
    4 2147  2213  2214  2148
    4 2148  2214  2215  2149
    4 2149  2215  2216  2150
    4 2150  2216  2217  2151
    4 2151  2217  2218  2152
    4 2152  2218  2219  2153
    4 2153  2219  2220  2154
    4 2154  2220  2221  2155
    4 2155  2221  2222  2156
    4 2156  2222  2223  2157
    4 2157  2223  2224  2158
    4 2158  2224  2225  2159
    4 2159  2225  2226  2160
    4 2160  2226  2227  2161
    4 2161  2227  2228  2162
    4 2162  2228  2229  2163
    4 2163  2229  2230  2164
    4 2164  2230  2231  2165
    4 2165  2231  2232  2166
    4 2166  2232  2233  2167
    4 2167  2233  2234  2168
    4 2168  2234  2235  2169
    4 2169  2235  2236  2170
    4 2170  2236  2237  2171
    4 2171  2237  2238  2172
    4 2172  2238  2239  2173
    4 2173  2239  2240  2174
    4 2174  2240  2241  2175
    4 2175  2241  2242  2176
    4 2176  2242  2243  2177
    4 2211  2277  2278  2212
    4 2212  2278  2279  2213
    4 2213  2279  2280  2214
    4 2214  2280  2281  2215
    4 2215  2281  2282  2216
    4 2216  2282  2283  2217
    4 2217  2283  2284  2218
    4 2218  2284  2285  2219
    4 2219  2285  2286  2220
    4 2220  2286  2287  2221
    4 2221  2287  2288  2222
    4 2222  2288  2289  2223
    4 2223  2289  2290  2224
    4 2224  2290  2291  2225
    4 2225  2291  2292  2226
    4 2226  2292  2293  2227
    4 2227  2293  2294  2228
    4 2228  2294  2295  2229
    4 2229  2295  2296  2230
    4 2230  2296  2297  2231
    4 2231  2297  2298  2232
    4 2232  2298  2299  2233
    4 2233  2299  2300  2234
    4 2234  2300  2301  2235
    4 2235  2301  2302  2236
    4 2236  2302  2303  2237
    4 2237  2303  2304  2238
    4 2238  2304  2305  2239
    4 2239  2305  2306  2240
    4 2240  2306  2307  2241
    4 2241  2307  2308  2242
    4 2242  2308  2309  2243
    4 2277  2343  2344  2278
    4 2278  2344  2345  2279
    4 2279  2345  2346  2280
    4 2280  2346  2347  2281
    4 2281  2347  2348  2282
    4 2282  2348  2349  2283
    4 2283  2349  2350  2284
    4 2284  2350  2351  2285
    4 2285  2351  2352  2286
    4 2286  2352  2353  2287
    4 2287  2353  2354  2288
    4 2288  2354  2355  2289
    4 2289  2355  2356  2290
    4 2290  2356  2357  2291
    4 2291  2357  2358  2292
    4 2292  2358  2359  2293
    4 2293  2359  2360  2294
    4 2294  2360  2361  2295
    4 2295  2361  2362  2296
    4 2296  2362  2363  2297
    4 2297  2363  2364  2298
    4 2298  2364  2365  2299
    4 2299  2365  2366  2300
    4 2300  2366  2367  2301
    4 2301  2367  2368  2302
    4 2302  2368  2369  2303
    4 2303  2369  2370  2304
    4 2304  2370  2371  2305
    4 2305  2371  2372  2306
    4 2306  2372  2373  2307
    4 2307  2373  2374  2308
    4 2308  2374  2375  2309
    4 2343  2409  2410  2344
    4 2344  2410  2411  2345
    4 2345  2411  2412  2346
    4 2346  2412  2413  2347
    4 2347  2413  2414  2348
    4 2348  2414  2415  2349
    4 2349  2415  2416  2350
    4 2350  2416  2417  2351
    4 2351  2417  2418  2352
    4 2352  2418  2419  2353
    4 2353  2419  2420  2354
    4 2354  2420  2421  2355
    4 2355  2421  2422  2356
    4 2356  2422  2423  2357
    4 2357  2423  2424  2358
    4 2358  2424  2425  2359
    4 2359  2425  2426  2360
    4 2360  2426  2427  2361
    4 2361  2427  2428  2362
    4 2362  2428  2429  2363
    4 2363  2429  2430  2364
    4 2364  2430  2431  2365
    4 2365  2431  2432  2366
    4 2366  2432  2433  2367
    4 2367  2433  2434  2368
    4 2368  2434  2435  2369
    4 2369  2435  2436  2370
    4 2370  2436  2437  2371
    4 2371  2437  2438  2372
    4 2372  2438  2439  2373
    4 2373  2439  2440  2374
    4 2374  2440  2441  2375
    4 2409  2475  2476  2410
    4 2410  2476  2477  2411
    4 2411  2477  2478  2412
    4 2412  2478  2479  2413
    4 2413  2479  2480  2414
    4 2414  2480  2481  2415
    4 2415  2481  2482  2416
    4 2416  2482  2483  2417
    4 2417  2483  2484  2418
    4 2418  2484  2485  2419
    4 2419  2485  2486  2420
    4 2420  2486  2487  2421
    4 2421  2487  2488  2422
    4 2422  2488  2489  2423
    4 2423  2489  2490  2424
    4 2424  2490  2491  2425
    4 2425  2491  2492  2426
    4 2426  2492  2493  2427
    4 2427  2493  2494  2428
    4 2428  2494  2495  2429
    4 2429  2495  2496  2430
    4 2430  2496  2497  2431
    4 2431  2497  2498  2432
    4 2432  2498  2499  2433
    4 2433  2499  2500  2434
    4 2434  2500  2501  2435
    4 2435  2501  2502  2436
    4 2436  2502  2503  2437
    4 2437  2503  2504  2438
    4 2438  2504  2505  2439
    4 2439  2505  2506  2440
    4 2440  2506  2507  2441
    4 2475  2541  2542  2476
    4 2476  2542  2543  2477
    4 2477  2543  2544  2478
    4 2478  2544  2545  2479
    4 2479  2545  2546  2480
    4 2480  2546  2547  2481
    4 2481  2547  2548  2482
    4 2482  2548  2549  2483
    4 2483  2549  2550  2484
    4 2484  2550  2551  2485
    4 2485  2551  2552  2486
    4 2486  2552  2553  2487
    4 2487  2553  2554  2488
    4 2488  2554  2555  2489
    4 2489  2555  2556  2490
    4 2490  2556  2557  2491
    4 2491  2557  2558  2492
    4 2492  2558  2559  2493
    4 2493  2559  2560  2494
    4 2494  2560  2561  2495
    4 2495  2561  2562  2496
    4 2496  2562  2563  2497
    4 2497  2563  2564  2498
    4 2498  2564  2565  2499
    4 2499  2565  2566  2500
    4 2500  2566  2567  2501
    4 2501  2567  2568  2502
    4 2502  2568  2569  2503
    4 2503  2569  2570  2504
    4 2504  2570  2571  2505
    4 2505  2571  2572  2506
    4 2506  2572  2573  2507
    4 2541  2607  2608  2542
    4 2542  2608  2609  2543
    4 2543  2609  2610  2544
    4 2544  2610  2611  2545
    4 2545  2611  2612  2546
    4 2546  2612  2613  2547
    4 2547  2613  2614  2548
    4 2548  2614  2615  2549
    4 2549  2615  2616  2550
    4 2550  2616  2617  2551
    4 2551  2617  2618  2552
    4 2552  2618  2619  2553
    4 2553  2619  2620  2554
    4 2554  2620  2621  2555
    4 2555  2621  2622  2556
    4 2556  2622  2623  2557
    4 2557  2623  2624  2558
    4 2558  2624  2625  2559
    4 2559  2625  2626  2560
    4 2560  2626  2627  2561
    4 2561  2627  2628  2562
    4 2562  2628  2629  2563
    4 2563  2629  2630  2564
    4 2564  2630  2631  2565
    4 2565  2631  2632  2566
    4 2566  2632  2633  2567
    4 2567  2633  2634  2568
    4 2568  2634  2635  2569
    4 2569  2635  2636  2570
    4 2570  2636  2637  2571
    4 2571  2637  2638  2572
    4 2572  2638  2639  2573
    4 2607  2673  2674  2608
    4 2608  2674  2675  2609
    4 2609  2675  2676  2610
    4 2610  2676  2677  2611
    4 2611  2677  2678  2612
    4 2612  2678  2679  2613
    4 2613  2679  2680  2614
    4 2614  2680  2681  2615
    4 2615  2681  2682  2616
    4 2616  2682  2683  2617
    4 2617  2683  2684  2618
    4 2618  2684  2685  2619
    4 2619  2685  2686  2620
    4 2620  2686  2687  2621
    4 2621  2687  2688  2622
    4 2622  2688  2689  2623
    4 2623  2689  2690  2624
    4 2624  2690  2691  2625
    4 2625  2691  2692  2626
    4 2626  2692  2693  2627
    4 2627  2693  2694  2628
    4 2628  2694  2695  2629
    4 2629  2695  2696  2630
    4 2630  2696  2697  2631
    4 2631  2697  2698  2632
    4 2632  2698  2699  2633
    4 2633  2699  2700  2634
    4 2634  2700  2701  2635
    4 2635  2701  2702  2636
    4 2636  2702  2703  2637
    4 2637  2703  2704  2638
    4 2638  2704  2705  2639
    4 2673  2739  2740  2674
    4 2674  2740  2741  2675
    4 2675  2741  2742  2676
    4 2676  2742  2743  2677
    4 2677  2743  2744  2678
    4 2678  2744  2745  2679
    4 2679  2745  2746  2680
    4 2680  2746  2747  2681
    4 2681  2747  2748  2682
    4 2682  2748  2749  2683
    4 2683  2749  2750  2684
    4 2684  2750  2751  2685
    4 2685  2751  2752  2686
    4 2686  2752  2753  2687
    4 2687  2753  2754  2688
    4 2688  2754  2755  2689
    4 2689  2755  2756  2690
    4 2690  2756  2757  2691
    4 2691  2757  2758  2692
    4 2692  2758  2759  2693
    4 2693  2759  2760  2694
    4 2694  2760  2761  2695
    4 2695  2761  2762  2696
    4 2696  2762  2763  2697
    4 2697  2763  2764  2698
    4 2698  2764  2765  2699
    4 2699  2765  2766  2700
    4 2700  2766  2767  2701
    4 2701  2767  2768  2702
    4 2702  2768  2769  2703
    4 2703  2769  2770  2704
    4 2704  2770  2771  2705
    4 2739  2805  2806  2740
    4 2740  2806  2807  2741
    4 2741  2807  2808  2742
    4 2742  2808  2809  2743
    4 2743  2809  2810  2744
    4 2744  2810  2811  2745
    4 2745  2811  2812  2746
    4 2746  2812  2813  2747
    4 2747  2813  2814  2748
    4 2748  2814  2815  2749
    4 2749  2815  2816  2750
    4 2750  2816  2817  2751
    4 2751  2817  2818  2752
    4 2752  2818  2819  2753
    4 2753  2819  2820  2754
    4 2754  2820  2821  2755
    4 2755  2821  2822  2756
    4 2756  2822  2823  2757
    4 2757  2823  2824  2758
    4 2758  2824  2825  2759
    4 2759  2825  2826  2760
    4 2760  2826  2827  2761
    4 2761  2827  2828  2762
    4 2762  2828  2829  2763
    4 2763  2829  2830  2764
    4 2764  2830  2831  2765
    4 2765  2831  2832  2766
    4 2766  2832  2833  2767
    4 2767  2833  2834  2768
    4 2768  2834  2835  2769
    4 2769  2835  2836  2770
    4 2770  2836  2837  2771
    4 2805  2871  2872  2806
    4 2806  2872  2873  2807
    4 2807  2873  2874  2808
    4 2808  2874  2875  2809
    4 2809  2875  2876  2810
    4 2810  2876  2877  2811
    4 2811  2877  2878  2812
    4 2812  2878  2879  2813
    4 2813  2879  2880  2814
    4 2814  2880  2881  2815
    4 2815  2881  2882  2816
    4 2816  2882  2883  2817
    4 2817  2883  2884  2818
    4 2818  2884  2885  2819
    4 2819  2885  2886  2820
    4 2820  2886  2887  2821
    4 2821  2887  2888  2822
    4 2822  2888  2889  2823
    4 2823  2889  2890  2824
    4 2824  2890  2891  2825
    4 2825  2891  2892  2826
    4 2826  2892  2893  2827
    4 2827  2893  2894  2828
    4 2828  2894  2895  2829
    4 2829  2895  2896  2830
    4 2830  2896  2897  2831
    4 2831  2897  2898  2832
    4 2832  2898  2899  2833
    4 2833  2899  2900  2834
    4 2834  2900  2901  2835
    4 2835  2901  2902  2836
    4 2836  2902  2903  2837
    4 2871  2937  2938  2872
    4 2872  2938  2939  2873
    4 2873  2939  2940  2874
    4 2874  2940  2941  2875
    4 2875  2941  2942  2876
    4 2876  2942  2943  2877
    4 2877  2943  2944  2878
    4 2878  2944  2945  2879
    4 2879  2945  2946  2880
    4 2880  2946  2947  2881
    4 2881  2947  2948  2882
    4 2882  2948  2949  2883
    4 2883  2949  2950  2884
    4 2884  2950  2951  2885
    4 2885  2951  2952  2886
    4 2886  2952  2953  2887
    4 2887  2953  2954  2888
    4 2888  2954  2955  2889
    4 2889  2955  2956  2890
    4 2890  2956  2957  2891
    4 2891  2957  2958  2892
    4 2892  2958  2959  2893
    4 2893  2959  2960  2894
    4 2894  2960  2961  2895
    4 2895  2961  2962  2896
    4 2896  2962  2963  2897
    4 2897  2963  2964  2898
    4 2898  2964  2965  2899
    4 2899  2965  2966  2900
    4 2900  2966  2967  2901
    4 2901  2967  2968  2902
    4 2902  2968  2969  2903
    4 2937  3003  3004  2938
    4 2938  3004  3005  2939
    4 2939  3005  3006  2940
    4 2940  3006  3007  2941
    4 2941  3007  3008  2942
    4 2942  3008  3009  2943
    4 2943  3009  3010  2944
    4 2944  3010  3011  2945
    4 2945  3011  3012  2946
    4 2946  3012  3013  2947
    4 2947  3013  3014  2948
    4 2948  3014  3015  2949
    4 2949  3015  3016  2950
    4 2950  3016  3017  2951
    4 2951  3017  3018  2952
    4 2952  3018  3019  2953
    4 2953  3019  3020  2954
    4 2954  3020  3021  2955
    4 2955  3021  3022  2956
    4 2956  3022  3023  2957
    4 2957  3023  3024  2958
    4 2958  3024  3025  2959
    4 2959  3025  3026  2960
    4 2960  3026  3027  2961
    4 2961  3027  3028  2962
    4 2962  3028  3029  2963
    4 2963  3029  3030  2964
    4 2964  3030  3031  2965
    4 2965  3031  3032  2966
    4 2966  3032  3033  2967
    4 2967  3033  3034  2968
    4 2968  3034  3035  2969
    4 3003  3069  3070  3004
    4 3004  3070  3071  3005
    4 3005  3071  3072  3006
    4 3006  3072  3073  3007
    4 3007  3073  3074  3008
    4 3008  3074  3075  3009
    4 3009  3075  3076  3010
    4 3010  3076  3077  3011
    4 3011  3077  3078  3012
    4 3012  3078  3079  3013
    4 3013  3079  3080  3014
    4 3014  3080  3081  3015
    4 3015  3081  3082  3016
    4 3016  3082  3083  3017
    4 3017  3083  3084  3018
    4 3018  3084  3085  3019
    4 3019  3085  3086  3020
    4 3020  3086  3087  3021
    4 3021  3087  3088  3022
    4 3022  3088  3089  3023
    4 3023  3089  3090  3024
    4 3024  3090  3091  3025
    4 3025  3091  3092  3026
    4 3026  3092  3093  3027
    4 3027  3093  3094  3028
    4 3028  3094  3095  3029
    4 3029  3095  3096  3030
    4 3030  3096  3097  3031
    4 3031  3097  3098  3032
    4 3032  3098  3099  3033
    4 3033  3099  3100  3034
    4 3034  3100  3101  3035
    4 3069  3135  3136  3070
    4 3070  3136  3137  3071
    4 3071  3137  3138  3072
    4 3072  3138  3139  3073
    4 3073  3139  3140  3074
    4 3074  3140  3141  3075
    4 3075  3141  3142  3076
    4 3076  3142  3143  3077
    4 3077  3143  3144  3078
    4 3078  3144  3145  3079
    4 3079  3145  3146  3080
    4 3080  3146  3147  3081
    4 3081  3147  3148  3082
    4 3082  3148  3149  3083
    4 3083  3149  3150  3084
    4 3084  3150  3151  3085
    4 3085  3151  3152  3086
    4 3086  3152  3153  3087
    4 3087  3153  3154  3088
    4 3088  3154  3155  3089
    4 3089  3155  3156  3090
    4 3090  3156  3157  3091
    4 3091  3157  3158  3092
    4 3092  3158  3159  3093
    4 3093  3159  3160  3094
    4 3094  3160  3161  3095
    4 3095  3161  3162  3096
    4 3096  3162  3163  3097
    4 3097  3163  3164  3098
    4 3098  3164  3165  3099
    4 3099  3165  3166  3100
    4 3100  3166  3167  3101
    4 3135  3201  3202  3136
    4 3136  3202  3203  3137
    4 3137  3203  3204  3138
    4 3138  3204  3205  3139
    4 3139  3205  3206  3140
    4 3140  3206  3207  3141
    4 3141  3207  3208  3142
    4 3142  3208  3209  3143
    4 3143  3209  3210  3144
    4 3144  3210  3211  3145
    4 3145  3211  3212  3146
    4 3146  3212  3213  3147
    4 3147  3213  3214  3148
    4 3148  3214  3215  3149
    4 3149  3215  3216  3150
    4 3150  3216  3217  3151
    4 3151  3217  3218  3152
    4 3152  3218  3219  3153
    4 3153  3219  3220  3154
    4 3154  3220  3221  3155
    4 3155  3221  3222  3156
    4 3156  3222  3223  3157
    4 3157  3223  3224  3158
    4 3158  3224  3225  3159
    4 3159  3225  3226  3160
    4 3160  3226  3227  3161
    4 3161  3227  3228  3162
    4 3162  3228  3229  3163
    4 3163  3229  3230  3164
    4 3164  3230  3231  3165
    4 3165  3231  3232  3166
    4 3166  3232  3233  3167
    4 3201  3267  3268  3202
    4 3202  3268  3269  3203
    4 3203  3269  3270  3204
    4 3204  3270  3271  3205
    4 3205  3271  3272  3206
    4 3206  3272  3273  3207
    4 3207  3273  3274  3208
    4 3208  3274  3275  3209
    4 3209  3275  3276  3210
    4 3210  3276  3277  3211
    4 3211  3277  3278  3212
    4 3212  3278  3279  3213
    4 3213  3279  3280  3214
    4 3214  3280  3281  3215
    4 3215  3281  3282  3216
    4 3216  3282  3283  3217
    4 3217  3283  3284  3218
    4 3218  3284  3285  3219
    4 3219  3285  3286  3220
    4 3220  3286  3287  3221
    4 3221  3287  3288  3222
    4 3222  3288  3289  3223
    4 3223  3289  3290  3224
    4 3224  3290  3291  3225
    4 3225  3291  3292  3226
    4 3226  3292  3293  3227
    4 3227  3293  3294  3228
    4 3228  3294  3295  3229
    4 3229  3295  3296  3230
    4 3230  3296  3297  3231
    4 3231  3297  3298  3232
    4 3232  3298  3299  3233
    4 3267  3333  3334  3268
    4 3268  3334  3335  3269
    4 3269  3335  3336  3270
    4 3270  3336  3337  3271
    4 3271  3337  3338  3272
    4 3272  3338  3339  3273
    4 3273  3339  3340  3274
    4 3274  3340  3341  3275
    4 3275  3341  3342  3276
    4 3276  3342  3343  3277
    4 3277  3343  3344  3278
    4 3278  3344  3345  3279
    4 3279  3345  3346  3280
    4 3280  3346  3347  3281
    4 3281  3347  3348  3282
    4 3282  3348  3349  3283
    4 3283  3349  3350  3284
    4 3284  3350  3351  3285
    4 3285  3351  3352  3286
    4 3286  3352  3353  3287
    4 3287  3353  3354  3288
    4 3288  3354  3355  3289
    4 3289  3355  3356  3290
    4 3290  3356  3357  3291
    4 3291  3357  3358  3292
    4 3292  3358  3359  3293
    4 3293  3359  3360  3294
    4 3294  3360  3361  3295
    4 3295  3361  3362  3296
    4 3296  3362  3363  3297
    4 3297  3363  3364  3298
    4 3298  3364  3365  3299
    4 3333  3399  3400  3334
    4 3334  3400  3401  3335
    4 3335  3401  3402  3336
    4 3336  3402  3403  3337
    4 3337  3403  3404  3338
    4 3338  3404  3405  3339
    4 3339  3405  3406  3340
    4 3340  3406  3407  3341
    4 3341  3407  3408  3342
    4 3342  3408  3409  3343
    4 3343  3409  3410  3344
    4 3344  3410  3411  3345
    4 3345  3411  3412  3346
    4 3346  3412  3413  3347
    4 3347  3413  3414  3348
    4 3348  3414  3415  3349
    4 3349  3415  3416  3350
    4 3350  3416  3417  3351
    4 3351  3417  3418  3352
    4 3352  3418  3419  3353
    4 3353  3419  3420  3354
    4 3354  3420  3421  3355
    4 3355  3421  3422  3356
    4 3356  3422  3423  3357
    4 3357  3423  3424  3358
    4 3358  3424  3425  3359
    4 3359  3425  3426  3360
    4 3360  3426  3427  3361
    4 3361  3427  3428  3362
    4 3362  3428  3429  3363
    4 3363  3429  3430  3364
    4 3364  3430  3431  3365
    4 3399  3465  3466  3400
    4 3400  3466  3467  3401
    4 3401  3467  3468  3402
    4 3402  3468  3469  3403
    4 3403  3469  3470  3404
    4 3404  3470  3471  3405
    4 3405  3471  3472  3406
    4 3406  3472  3473  3407
    4 3407  3473  3474  3408
    4 3408  3474  3475  3409
    4 3409  3475  3476  3410
    4 3410  3476  3477  3411
    4 3411  3477  3478  3412
    4 3412  3478  3479  3413
    4 3413  3479  3480  3414
    4 3414  3480  3481  3415
    4 3415  3481  3482  3416
    4 3416  3482  3483  3417
    4 3417  3483  3484  3418
    4 3418  3484  3485  3419
    4 3419  3485  3486  3420
    4 3420  3486  3487  3421
    4 3421  3487  3488  3422
    4 3422  3488  3489  3423
    4 3423  3489  3490  3424
    4 3424  3490  3491  3425
    4 3425  3491  3492  3426
    4 3426  3492  3493  3427
    4 3427  3493  3494  3428
    4 3428  3494  3495  3429
    4 3429  3495  3496  3430
    4 3430  3496  3497  3431
    4 3465  3531  3532  3466
    4 3466  3532  3533  3467
    4 3467  3533  3534  3468
    4 3468  3534  3535  3469
    4 3469  3535  3536  3470
    4 3470  3536  3537  3471
    4 3471  3537  3538  3472
    4 3472  3538  3539  3473
    4 3473  3539  3540  3474
    4 3474  3540  3541  3475
    4 3475  3541  3542  3476
    4 3476  3542  3543  3477
    4 3477  3543  3544  3478
    4 3478  3544  3545  3479
    4 3479  3545  3546  3480
    4 3480  3546  3547  3481
    4 3481  3547  3548  3482
    4 3482  3548  3549  3483
    4 3483  3549  3550  3484
    4 3484  3550  3551  3485
    4 3485  3551  3552  3486
    4 3486  3552  3553  3487
    4 3487  3553  3554  3488
    4 3488  3554  3555  3489
    4 3489  3555  3556  3490
    4 3490  3556  3557  3491
    4 3491  3557  3558  3492
    4 3492  3558  3559  3493
    4 3493  3559  3560  3494
    4 3494  3560  3561  3495
    4 3495  3561  3562  3496
    4 3496  3562  3563  3497
    4 3531  3597  3598  3532
    4 3532  3598  3599  3533
    4 3533  3599  3600  3534
    4 3534  3600  3601  3535
    4 3535  3601  3602  3536
    4 3536  3602  3603  3537
    4 3537  3603  3604  3538
    4 3538  3604  3605  3539
    4 3539  3605  3606  3540
    4 3540  3606  3607  3541
    4 3541  3607  3608  3542
    4 3542  3608  3609  3543
    4 3543  3609  3610  3544
    4 3544  3610  3611  3545
    4 3545  3611  3612  3546
    4 3546  3612  3613  3547
    4 3547  3613  3614  3548
    4 3548  3614  3615  3549
    4 3549  3615  3616  3550
    4 3550  3616  3617  3551
    4 3551  3617  3618  3552
    4 3552  3618  3619  3553
    4 3553  3619  3620  3554
    4 3554  3620  3621  3555
    4 3555  3621  3622  3556
    4 3556  3622  3623  3557
    4 3557  3623  3624  3558
    4 3558  3624  3625  3559
    4 3559  3625  3626  3560
    4 3560  3626  3627  3561
    4 3561  3627  3628  3562
    4 3562  3628  3629  3563
    4 3597  3663  3664  3598
    4 3598  3664  3665  3599
    4 3599  3665  3666  3600
    4 3600  3666  3667  3601
    4 3601  3667  3668  3602
    4 3602  3668  3669  3603
    4 3603  3669  3670  3604
    4 3604  3670  3671  3605
    4 3605  3671  3672  3606
    4 3606  3672  3673  3607
    4 3607  3673  3674  3608
    4 3608  3674  3675  3609
    4 3609  3675  3676  3610
    4 3610  3676  3677  3611
    4 3611  3677  3678  3612
    4 3612  3678  3679  3613
    4 3613  3679  3680  3614
    4 3614  3680  3681  3615
    4 3615  3681  3682  3616
    4 3616  3682  3683  3617
    4 3617  3683  3684  3618
    4 3618  3684  3685  3619
    4 3619  3685  3686  3620
    4 3620  3686  3687  3621
    4 3621  3687  3688  3622
    4 3622  3688  3689  3623
    4 3623  3689  3690  3624
    4 3624  3690  3691  3625
    4 3625  3691  3692  3626
    4 3626  3692  3693  3627
    4 3627  3693  3694  3628
    4 3628  3694  3695  3629
    4 3663  3729  3730  3664
    4 3664  3730  3731  3665
    4 3665  3731  3732  3666
    4 3666  3732  3733  3667
    4 3667  3733  3734  3668
    4 3668  3734  3735  3669
    4 3669  3735  3736  3670
    4 3670  3736  3737  3671
    4 3671  3737  3738  3672
    4 3672  3738  3739  3673
    4 3673  3739  3740  3674
    4 3674  3740  3741  3675
    4 3675  3741  3742  3676
    4 3676  3742  3743  3677
    4 3677  3743  3744  3678
    4 3678  3744  3745  3679
    4 3679  3745  3746  3680
    4 3680  3746  3747  3681
    4 3681  3747  3748  3682
    4 3682  3748  3749  3683
    4 3683  3749  3750  3684
    4 3684  3750  3751  3685
    4 3685  3751  3752  3686
    4 3686  3752  3753  3687
    4 3687  3753  3754  3688
    4 3688  3754  3755  3689
    4 3689  3755  3756  3690
    4 3690  3756  3757  3691
    4 3691  3757  3758  3692
    4 3692  3758  3759  3693
    4 3693  3759  3760  3694
    4 3694  3760  3761  3695
    4 3729  3795  3796  3730
    4 3730  3796  3797  3731
    4 3731  3797  3798  3732
    4 3732  3798  3799  3733
    4 3733  3799  3800  3734
    4 3734  3800  3801  3735
    4 3735  3801  3802  3736
    4 3736  3802  3803  3737
    4 3737  3803  3804  3738
    4 3738  3804  3805  3739
    4 3739  3805  3806  3740
    4 3740  3806  3807  3741
    4 3741  3807  3808  3742
    4 3742  3808  3809  3743
    4 3743  3809  3810  3744
    4 3744  3810  3811  3745
    4 3745  3811  3812  3746
    4 3746  3812  3813  3747
    4 3747  3813  3814  3748
    4 3748  3814  3815  3749
    4 3749  3815  3816  3750
    4 3750  3816  3817  3751
    4 3751  3817  3818  3752
    4 3752  3818  3819  3753
    4 3753  3819  3820  3754
    4 3754  3820  3821  3755
    4 3755  3821  3822  3756
    4 3756  3822  3823  3757
    4 3757  3823  3824  3758
    4 3758  3824  3825  3759
    4 3759  3825  3826  3760
    4 3760  3826  3827  3761
    4 3795  3861  3862  3796
    4 3796  3862  3863  3797
    4 3797  3863  3864  3798
    4 3798  3864  3865  3799
    4 3799  3865  3866  3800
    4 3800  3866  3867  3801
    4 3801  3867  3868  3802
    4 3802  3868  3869  3803
    4 3803  3869  3870  3804
    4 3804  3870  3871  3805
    4 3805  3871  3872  3806
    4 3806  3872  3873  3807
    4 3807  3873  3874  3808
    4 3808  3874  3875  3809
    4 3809  3875  3876  3810
    4 3810  3876  3877  3811
    4 3811  3877  3878  3812
    4 3812  3878  3879  3813
    4 3813  3879  3880  3814
    4 3814  3880  3881  3815
    4 3815  3881  3882  3816
    4 3816  3882  3883  3817
    4 3817  3883  3884  3818
    4 3818  3884  3885  3819
    4 3819  3885  3886  3820
    4 3820  3886  3887  3821
    4 3821  3887  3888  3822
    4 3822  3888  3889  3823
    4 3823  3889  3890  3824
    4 3824  3890  3891  3825
    4 3825  3891  3892  3826
    4 3826  3892  3893  3827
    4 3861  3927  3928  3862
    4 3862  3928  3929  3863
    4 3863  3929  3930  3864
    4 3864  3930  3931  3865
    4 3865  3931  3932  3866
    4 3866  3932  3933  3867
    4 3867  3933  3934  3868
    4 3868  3934  3935  3869
    4 3869  3935  3936  3870
    4 3870  3936  3937  3871
    4 3871  3937  3938  3872
    4 3872  3938  3939  3873
    4 3873  3939  3940  3874
    4 3874  3940  3941  3875
    4 3875  3941  3942  3876
    4 3876  3942  3943  3877
    4 3877  3943  3944  3878
    4 3878  3944  3945  3879
    4 3879  3945  3946  3880
    4 3880  3946  3947  3881
    4 3881  3947  3948  3882
    4 3882  3948  3949  3883
    4 3883  3949  3950  3884
    4 3884  3950  3951  3885
    4 3885  3951  3952  3886
    4 3886  3952  3953  3887
    4 3887  3953  3954  3888
    4 3888  3954  3955  3889
    4 3889  3955  3956  3890
    4 3890  3956  3957  3891
    4 3891  3957  3958  3892
    4 3892  3958  3959  3893
    4 3927  3993  3994  3928
    4 3928  3994  3995  3929
    4 3929  3995  3996  3930
    4 3930  3996  3997  3931
    4 3931  3997  3998  3932
    4 3932  3998  3999  3933
    4 3933  3999  4000  3934
    4 3934  4000  4001  3935
    4 3935  4001  4002  3936
    4 3936  4002  4003  3937
    4 3937  4003  4004  3938
    4 3938  4004  4005  3939
    4 3939  4005  4006  3940
    4 3940  4006  4007  3941
    4 3941  4007  4008  3942
    4 3942  4008  4009  3943
    4 3943  4009  4010  3944
    4 3944  4010  4011  3945
    4 3945  4011  4012  3946
    4 3946  4012  4013  3947
    4 3947  4013  4014  3948
    4 3948  4014  4015  3949
    4 3949  4015  4016  3950
    4 3950  4016  4017  3951
    4 3951  4017  4018  3952
    4 3952  4018  4019  3953
    4 3953  4019  4020  3954
    4 3954  4020  4021  3955
    4 3955  4021  4022  3956
    4 3956  4022  4023  3957
    4 3957  4023  4024  3958
    4 3958  4024  4025  3959
    4 3993  4059  4060  3994
    4 3994  4060  4061  3995
    4 3995  4061  4062  3996
    4 3996  4062  4063  3997
    4 3997  4063  4064  3998
    4 3998  4064  4065  3999
    4 3999  4065  4066  4000
    4 4000  4066  4067  4001
    4 4001  4067  4068  4002
    4 4002  4068  4069  4003
    4 4003  4069  4070  4004
    4 4004  4070  4071  4005
    4 4005  4071  4072  4006
    4 4006  4072  4073  4007
    4 4007  4073  4074  4008
    4 4008  4074  4075  4009
    4 4009  4075  4076  4010
    4 4010  4076  4077  4011
    4 4011  4077  4078  4012
    4 4012  4078  4079  4013
    4 4013  4079  4080  4014
    4 4014  4080  4081  4015
    4 4015  4081  4082  4016
    4 4016  4082  4083  4017
    4 4017  4083  4084  4018
    4 4018  4084  4085  4019
    4 4019  4085  4086  4020
    4 4020  4086  4087  4021
    4 4021  4087  4088  4022
    4 4022  4088  4089  4023
    4 4023  4089  4090  4024
    4 4024  4090  4091  4025
    4 4059  4125  4126  4060
    4 4060  4126  4127  4061
    4 4061  4127  4128  4062
    4 4062  4128  4129  4063
    4 4063  4129  4130  4064
    4 4064  4130  4131  4065
    4 4065  4131  4132  4066
    4 4066  4132  4133  4067
    4 4067  4133  4134  4068
    4 4068  4134  4135  4069
    4 4069  4135  4136  4070
    4 4070  4136  4137  4071
    4 4071  4137  4138  4072
    4 4072  4138  4139  4073
    4 4073  4139  4140  4074
    4 4074  4140  4141  4075
    4 4075  4141  4142  4076
    4 4076  4142  4143  4077
    4 4077  4143  4144  4078
    4 4078  4144  4145  4079
    4 4079  4145  4146  4080
    4 4080  4146  4147  4081
    4 4081  4147  4148  4082
    4 4082  4148  4149  4083
    4 4083  4149  4150  4084
    4 4084  4150  4151  4085
    4 4085  4151  4152  4086
    4 4086  4152  4153  4087
    4 4087  4153  4154  4088
    4 4088  4154  4155  4089
    4 4089  4155  4156  4090
    4 4090  4156  4157  4091
    4 4125  4191  4192  4126
    4 4126  4192  4193  4127
    4 4127  4193  4194  4128
    4 4128  4194  4195  4129
    4 4129  4195  4196  4130
    4 4130  4196  4197  4131
    4 4131  4197  4198  4132
    4 4132  4198  4199  4133
    4 4133  4199  4200  4134
    4 4134  4200  4201  4135
    4 4135  4201  4202  4136
    4 4136  4202  4203  4137
    4 4137  4203  4204  4138
    4 4138  4204  4205  4139
    4 4139  4205  4206  4140
    4 4140  4206  4207  4141
    4 4141  4207  4208  4142
    4 4142  4208  4209  4143
    4 4143  4209  4210  4144
    4 4144  4210  4211  4145
    4 4145  4211  4212  4146
    4 4146  4212  4213  4147
    4 4147  4213  4214  4148
    4 4148  4214  4215  4149
    4 4149  4215  4216  4150
    4 4150  4216  4217  4151
    4 4151  4217  4218  4152
    4 4152  4218  4219  4153
    4 4153  4219  4220  4154
    4 4154  4220  4221  4155
    4 4155  4221  4222  4156
    4 4156  4222  4223  4157
    4 4191  4257  4258  4192
    4 4192  4258  4259  4193
    4 4193  4259  4260  4194
    4 4194  4260  4261  4195
    4 4195  4261  4262  4196
    4 4196  4262  4263  4197
    4 4197  4263  4264  4198
    4 4198  4264  4265  4199
    4 4199  4265  4266  4200
    4 4200  4266  4267  4201
    4 4201  4267  4268  4202
    4 4202  4268  4269  4203
    4 4203  4269  4270  4204
    4 4204  4270  4271  4205
    4 4205  4271  4272  4206
    4 4206  4272  4273  4207
    4 4207  4273  4274  4208
    4 4208  4274  4275  4209
    4 4209  4275  4276  4210
    4 4210  4276  4277  4211
    4 4211  4277  4278  4212
    4 4212  4278  4279  4213
    4 4213  4279  4280  4214
    4 4214  4280  4281  4215
    4 4215  4281  4282  4216
    4 4216  4282  4283  4217
    4 4217  4283  4284  4218
    4 4218  4284  4285  4219
    4 4219  4285  4286  4220
    4 4220  4286  4287  4221
    4 4221  4287  4288  4222
    4 4222  4288  4289  4223
    4 4257  4323  4324  4258
    4 4258  4324  4325  4259
    4 4259  4325  4326  4260
    4 4260  4326  4327  4261
    4 4261  4327  4328  4262
    4 4262  4328  4329  4263
    4 4263  4329  4330  4264
    4 4264  4330  4331  4265
    4 4265  4331  4332  4266
    4 4266  4332  4333  4267
    4 4267  4333  4334  4268
    4 4268  4334  4335  4269
    4 4269  4335  4336  4270
    4 4270  4336  4337  4271
    4 4271  4337  4338  4272
    4 4272  4338  4339  4273
    4 4273  4339  4340  4274
    4 4274  4340  4341  4275
    4 4275  4341  4342  4276
    4 4276  4342  4343  4277
    4 4277  4343  4344  4278
    4 4278  4344  4345  4279
    4 4279  4345  4346  4280
    4 4280  4346  4347  4281
    4 4281  4347  4348  4282
    4 4282  4348  4349  4283
    4 4283  4349  4350  4284
    4 4284  4350  4351  4285
    4 4285  4351  4352  4286
    4 4286  4352  4353  4287
    4 4287  4353  4354  4288
    4 4288  4354  4355  4289
    4 4323  4389  4390  4324
    4 4324  4390  4391  4325
    4 4325  4391  4392  4326
    4 4326  4392  4393  4327
    4 4327  4393  4394  4328
    4 4328  4394  4395  4329
    4 4329  4395  4396  4330
    4 4330  4396  4397  4331
    4 4331  4397  4398  4332
    4 4332  4398  4399  4333
    4 4333  4399  4400  4334
    4 4334  4400  4401  4335
    4 4335  4401  4402  4336
    4 4336  4402  4403  4337
    4 4337  4403  4404  4338
    4 4338  4404  4405  4339
    4 4339  4405  4406  4340
    4 4340  4406  4407  4341
    4 4341  4407  4408  4342
    4 4342  4408  4409  4343
    4 4343  4409  4410  4344
    4 4344  4410  4411  4345
    4 4345  4411  4412  4346
    4 4346  4412  4413  4347
    4 4347  4413  4414  4348
    4 4348  4414  4415  4349
    4 4349  4415  4416  4350
    4 4350  4416  4417  4351
    4 4351  4417  4418  4352
    4 4352  4418  4419  4353
    4 4353  4419  4420  4354
    4 4354  4420  4421  4355
    4 4389  4455  4456  4390
    4 4390  4456  4457  4391
    4 4391  4457  4458  4392
    4 4392  4458  4459  4393
    4 4393  4459  4460  4394
    4 4394  4460  4461  4395
    4 4395  4461  4462  4396
    4 4396  4462  4463  4397
    4 4397  4463  4464  4398
    4 4398  4464  4465  4399
    4 4399  4465  4466  4400
    4 4400  4466  4467  4401
    4 4401  4467  4468  4402
    4 4402  4468  4469  4403
    4 4403  4469  4470  4404
    4 4404  4470  4471  4405
    4 4405  4471  4472  4406
    4 4406  4472  4473  4407
    4 4407  4473  4474  4408
    4 4408  4474  4475  4409
    4 4409  4475  4476  4410
    4 4410  4476  4477  4411
    4 4411  4477  4478  4412
    4 4412  4478  4479  4413
    4 4413  4479  4480  4414
    4 4414  4480  4481  4415
    4 4415  4481  4482  4416
    4 4416  4482  4483  4417
    4 4417  4483  4484  4418
    4 4418  4484  4485  4419
    4 4419  4485  4486  4420
    4 4420  4486  4487  4421
    4 4455  4521  4522  4456
    4 4456  4522  4523  4457
    4 4457  4523  4524  4458
    4 4458  4524  4525  4459
    4 4459  4525  4526  4460
    4 4460  4526  4527  4461
    4 4461  4527  4528  4462
    4 4462  4528  4529  4463
    4 4463  4529  4530  4464
    4 4464  4530  4531  4465
    4 4465  4531  4532  4466
    4 4466  4532  4533  4467
    4 4467  4533  4534  4468
    4 4468  4534  4535  4469
    4 4469  4535  4536  4470
    4 4470  4536  4537  4471
    4 4471  4537  4538  4472
    4 4472  4538  4539  4473
    4 4473  4539  4540  4474
    4 4474  4540  4541  4475
    4 4475  4541  4542  4476
    4 4476  4542  4543  4477
    4 4477  4543  4544  4478
    4 4478  4544  4545  4479
    4 4479  4545  4546  4480
    4 4480  4546  4547  4481
    4 4481  4547  4548  4482
    4 4482  4548  4549  4483
    4 4483  4549  4550  4484
    4 4484  4550  4551  4485
    4 4485  4551  4552  4486
    4 4486  4552  4553  4487
    4 4521  4587  4588  4522
    4 4522  4588  4589  4523
    4 4523  4589  4590  4524
    4 4524  4590  4591  4525
    4 4525  4591  4592  4526
    4 4526  4592  4593  4527
    4 4527  4593  4594  4528
    4 4528  4594  4595  4529
    4 4529  4595  4596  4530
    4 4530  4596  4597  4531
    4 4531  4597  4598  4532
    4 4532  4598  4599  4533
    4 4533  4599  4600  4534
    4 4534  4600  4601  4535
    4 4535  4601  4602  4536
    4 4536  4602  4603  4537
    4 4537  4603  4604  4538
    4 4538  4604  4605  4539
    4 4539  4605  4606  4540
    4 4540  4606  4607  4541
    4 4541  4607  4608  4542
    4 4542  4608  4609  4543
    4 4543  4609  4610  4544
    4 4544  4610  4611  4545
    4 4545  4611  4612  4546
    4 4546  4612  4613  4547
    4 4547  4613  4614  4548
    4 4548  4614  4615  4549
    4 4549  4615  4616  4550
    4 4550  4616  4617  4551
    4 4551  4617  4618  4552
    4 4552  4618  4619  4553
    4 4587  4653  4654  4588
    4 4588  4654  4655  4589
    4 4589  4655  4656  4590
    4 4590  4656  4657  4591
    4 4591  4657  4658  4592
    4 4592  4658  4659  4593
    4 4593  4659  4660  4594
    4 4594  4660  4661  4595
    4 4595  4661  4662  4596
    4 4596  4662  4663  4597
    4 4597  4663  4664  4598
    4 4598  4664  4665  4599
    4 4599  4665  4666  4600
    4 4600  4666  4667  4601
    4 4601  4667  4668  4602
    4 4602  4668  4669  4603
    4 4603  4669  4670  4604
    4 4604  4670  4671  4605
    4 4605  4671  4672  4606
    4 4606  4672  4673  4607
    4 4607  4673  4674  4608
    4 4608  4674  4675  4609
    4 4609  4675  4676  4610
    4 4610  4676  4677  4611
    4 4611  4677  4678  4612
    4 4612  4678  4679  4613
    4 4613  4679  4680  4614
    4 4614  4680  4681  4615
    4 4615  4681  4682  4616
    4 4616  4682  4683  4617
    4 4617  4683  4684  4618
    4 4618  4684  4685  4619
    4 4653  4719  4720  4654
    4 4654  4720  4721  4655
    4 4655  4721  4722  4656
    4 4656  4722  4723  4657
    4 4657  4723  4724  4658
    4 4658  4724  4725  4659
    4 4659  4725  4726  4660
    4 4660  4726  4727  4661
    4 4661  4727  4728  4662
    4 4662  4728  4729  4663
    4 4663  4729  4730  4664
    4 4664  4730  4731  4665
    4 4665  4731  4732  4666
    4 4666  4732  4733  4667
    4 4667  4733  4734  4668
    4 4668  4734  4735  4669
    4 4669  4735  4736  4670
    4 4670  4736  4737  4671
    4 4671  4737  4738  4672
    4 4672  4738  4739  4673
    4 4673  4739  4740  4674
    4 4674  4740  4741  4675
    4 4675  4741  4742  4676
    4 4676  4742  4743  4677
    4 4677  4743  4744  4678
    4 4678  4744  4745  4679
    4 4679  4745  4746  4680
    4 4680  4746  4747  4681
    4 4681  4747  4748  4682
    4 4682  4748  4749  4683
    4 4683  4749  4750  4684
    4 4684  4750  4751  4685
    4 4719  4785  4786  4720
    4 4720  4786  4787  4721
    4 4721  4787  4788  4722
    4 4722  4788  4789  4723
    4 4723  4789  4790  4724
    4 4724  4790  4791  4725
    4 4725  4791  4792  4726
    4 4726  4792  4793  4727
    4 4727  4793  4794  4728
    4 4728  4794  4795  4729
    4 4729  4795  4796  4730
    4 4730  4796  4797  4731
    4 4731  4797  4798  4732
    4 4732  4798  4799  4733
    4 4733  4799  4800  4734
    4 4734  4800  4801  4735
    4 4735  4801  4802  4736
    4 4736  4802  4803  4737
    4 4737  4803  4804  4738
    4 4738  4804  4805  4739
    4 4739  4805  4806  4740
    4 4740  4806  4807  4741
    4 4741  4807  4808  4742
    4 4742  4808  4809  4743
    4 4743  4809  4810  4744
    4 4744  4810  4811  4745
    4 4745  4811  4812  4746
    4 4746  4812  4813  4747
    4 4747  4813  4814  4748
    4 4748  4814  4815  4749
    4 4749  4815  4816  4750
    4 4750  4816  4817  4751
    4 4785  4851  4852  4786
    4 4786  4852  4853  4787
    4 4787  4853  4854  4788
    4 4788  4854  4855  4789
    4 4789  4855  4856  4790
    4 4790  4856  4857  4791
    4 4791  4857  4858  4792
    4 4792  4858  4859  4793
    4 4793  4859  4860  4794
    4 4794  4860  4861  4795
    4 4795  4861  4862  4796
    4 4796  4862  4863  4797
    4 4797  4863  4864  4798
    4 4798  4864  4865  4799
    4 4799  4865  4866  4800
    4 4800  4866  4867  4801
    4 4801  4867  4868  4802
    4 4802  4868  4869  4803
    4 4803  4869  4870  4804
    4 4804  4870  4871  4805
    4 4805  4871  4872  4806
    4 4806  4872  4873  4807
    4 4807  4873  4874  4808
    4 4808  4874  4875  4809
    4 4809  4875  4876  4810
    4 4810  4876  4877  4811
    4 4811  4877  4878  4812
    4 4812  4878  4879  4813
    4 4813  4879  4880  4814
    4 4814  4880  4881  4815
    4 4815  4881  4882  4816
    4 4816  4882  4883  4817
    4 4851  4917  4918  4852
    4 4852  4918  4919  4853
    4 4853  4919  4920  4854
    4 4854  4920  4921  4855
    4 4855  4921  4922  4856
    4 4856  4922  4923  4857
    4 4857  4923  4924  4858
    4 4858  4924  4925  4859
    4 4859  4925  4926  4860
    4 4860  4926  4927  4861
    4 4861  4927  4928  4862
    4 4862  4928  4929  4863
    4 4863  4929  4930  4864
    4 4864  4930  4931  4865
    4 4865  4931  4932  4866
    4 4866  4932  4933  4867
    4 4867  4933  4934  4868
    4 4868  4934  4935  4869
    4 4869  4935  4936  4870
    4 4870  4936  4937  4871
    4 4871  4937  4938  4872
    4 4872  4938  4939  4873
    4 4873  4939  4940  4874
    4 4874  4940  4941  4875
    4 4875  4941  4942  4876
    4 4876  4942  4943  4877
    4 4877  4943  4944  4878
    4 4878  4944  4945  4879
    4 4879  4945  4946  4880
    4 4880  4946  4947  4881
    4 4881  4947  4948  4882
    4 4882  4948  4949  4883
    4 4917  4983  4984  4918
    4 4918  4984  4985  4919
    4 4919  4985  4986  4920
    4 4920  4986  4987  4921
    4 4921  4987  4988  4922
    4 4922  4988  4989  4923
    4 4923  4989  4990  4924
    4 4924  4990  4991  4925
    4 4925  4991  4992  4926
    4 4926  4992  4993  4927
    4 4927  4993  4994  4928
    4 4928  4994  4995  4929
    4 4929  4995  4996  4930
    4 4930  4996  4997  4931
    4 4931  4997  4998  4932
    4 4932  4998  4999  4933
    4 4933  4999  5000  4934
    4 4934  5000  5001  4935
    4 4935  5001  5002  4936
    4 4936  5002  5003  4937
    4 4937  5003  5004  4938
    4 4938  5004  5005  4939
    4 4939  5005  5006  4940
    4 4940  5006  5007  4941
    4 4941  5007  5008  4942
    4 4942  5008  5009  4943
    4 4943  5009  5010  4944
    4 4944  5010  5011  4945
    4 4945  5011  5012  4946
    4 4946  5012  5013  4947
    4 4947  5013  5014  4948
    4 4948  5014  5015  4949
    4 4983  5049  5050  4984
    4 4984  5050  5051  4985
    4 4985  5051  5052  4986
    4 4986  5052  5053  4987
    4 4987  5053  5054  4988
    4 4988  5054  5055  4989
    4 4989  5055  5056  4990
    4 4990  5056  5057  4991
    4 4991  5057  5058  4992
    4 4992  5058  5059  4993
    4 4993  5059  5060  4994
    4 4994  5060  5061  4995
    4 4995  5061  5062  4996
    4 4996  5062  5063  4997
    4 4997  5063  5064  4998
    4 4998  5064  5065  4999
    4 4999  5065  5066  5000
    4 5000  5066  5067  5001
    4 5001  5067  5068  5002
    4 5002  5068  5069  5003
    4 5003  5069  5070  5004
    4 5004  5070  5071  5005
    4 5005  5071  5072  5006
    4 5006  5072  5073  5007
    4 5007  5073  5074  5008
    4 5008  5074  5075  5009
    4 5009  5075  5076  5010
    4 5010  5076  5077  5011
    4 5011  5077  5078  5012
    4 5012  5078  5079  5013
    4 5013  5079  5080  5014
    4 5014  5080  5081  5015
    4 5049  5115  5116  5050
    4 5050  5116  5117  5051
    4 5051  5117  5118  5052
    4 5052  5118  5119  5053
    4 5053  5119  5120  5054
    4 5054  5120  5121  5055
    4 5055  5121  5122  5056
    4 5056  5122  5123  5057
    4 5057  5123  5124  5058
    4 5058  5124  5125  5059
    4 5059  5125  5126  5060
    4 5060  5126  5127  5061
    4 5061  5127  5128  5062
    4 5062  5128  5129  5063
    4 5063  5129  5130  5064
    4 5064  5130  5131  5065
    4 5065  5131  5132  5066
    4 5066  5132  5133  5067
    4 5067  5133  5134  5068
    4 5068  5134  5135  5069
    4 5069  5135  5136  5070
    4 5070  5136  5137  5071
    4 5071  5137  5138  5072
    4 5072  5138  5139  5073
    4 5073  5139  5140  5074
    4 5074  5140  5141  5075
    4 5075  5141  5142  5076
    4 5076  5142  5143  5077
    4 5077  5143  5144  5078
    4 5078  5144  5145  5079
    4 5079  5145  5146  5080
    4 5080  5146  5147  5081
    4 5115  5181  5182  5116
    4 5116  5182  5183  5117
    4 5117  5183  5184  5118
    4 5118  5184  5185  5119
    4 5119  5185  5186  5120
    4 5120  5186  5187  5121
    4 5121  5187  5188  5122
    4 5122  5188  5189  5123
    4 5123  5189  5190  5124
    4 5124  5190  5191  5125
    4 5125  5191  5192  5126
    4 5126  5192  5193  5127
    4 5127  5193  5194  5128
    4 5128  5194  5195  5129
    4 5129  5195  5196  5130
    4 5130  5196  5197  5131
    4 5131  5197  5198  5132
    4 5132  5198  5199  5133
    4 5133  5199  5200  5134
    4 5134  5200  5201  5135
    4 5135  5201  5202  5136
    4 5136  5202  5203  5137
    4 5137  5203  5204  5138
    4 5138  5204  5205  5139
    4 5139  5205  5206  5140
    4 5140  5206  5207  5141
    4 5141  5207  5208  5142
    4 5142  5208  5209  5143
    4 5143  5209  5210  5144
    4 5144  5210  5211  5145
    4 5145  5211  5212  5146
    4 5146  5212  5213  5147
    4 5181  5247  5248  5182
    4 5182  5248  5249  5183
    4 5183  5249  5250  5184
    4 5184  5250  5251  5185
    4 5185  5251  5252  5186
    4 5186  5252  5253  5187
    4 5187  5253  5254  5188
    4 5188  5254  5255  5189
    4 5189  5255  5256  5190
    4 5190  5256  5257  5191
    4 5191  5257  5258  5192
    4 5192  5258  5259  5193
    4 5193  5259  5260  5194
    4 5194  5260  5261  5195
    4 5195  5261  5262  5196
    4 5196  5262  5263  5197
    4 5197  5263  5264  5198
    4 5198  5264  5265  5199
    4 5199  5265  5266  5200
    4 5200  5266  5267  5201
    4 5201  5267  5268  5202
    4 5202  5268  5269  5203
    4 5203  5269  5270  5204
    4 5204  5270  5271  5205
    4 5205  5271  5272  5206
    4 5206  5272  5273  5207
    4 5207  5273  5274  5208
    4 5208  5274  5275  5209
    4 5209  5275  5276  5210
    4 5210  5276  5277  5211
    4 5211  5277  5278  5212
    4 5212  5278  5279  5213
    4 5247  5313  5314  5248
    4 5248  5314  5315  5249
    4 5249  5315  5316  5250
    4 5250  5316  5317  5251
    4 5251  5317  5318  5252
    4 5252  5318  5319  5253
    4 5253  5319  5320  5254
    4 5254  5320  5321  5255
    4 5255  5321  5322  5256
    4 5256  5322  5323  5257
    4 5257  5323  5324  5258
    4 5258  5324  5325  5259
    4 5259  5325  5326  5260
    4 5260  5326  5327  5261
    4 5261  5327  5328  5262
    4 5262  5328  5329  5263
    4 5263  5329  5330  5264
    4 5264  5330  5331  5265
    4 5265  5331  5332  5266
    4 5266  5332  5333  5267
    4 5267  5333  5334  5268
    4 5268  5334  5335  5269
    4 5269  5335  5336  5270
    4 5270  5336  5337  5271
    4 5271  5337  5338  5272
    4 5272  5338  5339  5273
    4 5273  5339  5340  5274
    4 5274  5340  5341  5275
    4 5275  5341  5342  5276
    4 5276  5342  5343  5277
    4 5277  5343  5344  5278
    4 5278  5344  5345  5279
    4 5313  5379  5380  5314
    4 5314  5380  5381  5315
    4 5315  5381  5382  5316
    4 5316  5382  5383  5317
    4 5317  5383  5384  5318
    4 5318  5384  5385  5319
    4 5319  5385  5386  5320
    4 5320  5386  5387  5321
    4 5321  5387  5388  5322
    4 5322  5388  5389  5323
    4 5323  5389  5390  5324
    4 5324  5390  5391  5325
    4 5325  5391  5392  5326
    4 5326  5392  5393  5327
    4 5327  5393  5394  5328
    4 5328  5394  5395  5329
    4 5329  5395  5396  5330
    4 5330  5396  5397  5331
    4 5331  5397  5398  5332
    4 5332  5398  5399  5333
    4 5333  5399  5400  5334
    4 5334  5400  5401  5335
    4 5335  5401  5402  5336
    4 5336  5402  5403  5337
    4 5337  5403  5404  5338
    4 5338  5404  5405  5339
    4 5339  5405  5406  5340
    4 5340  5406  5407  5341
    4 5341  5407  5408  5342
    4 5342  5408  5409  5343
    4 5343  5409  5410  5344
    4 5344  5410  5411  5345
    4 5379  5445  5446  5380
    4 5380  5446  5447  5381
    4 5381  5447  5448  5382
    4 5382  5448  5449  5383
    4 5383  5449  5450  5384
    4 5384  5450  5451  5385
    4 5385  5451  5452  5386
    4 5386  5452  5453  5387
    4 5387  5453  5454  5388
    4 5388  5454  5455  5389
    4 5389  5455  5456  5390
    4 5390  5456  5457  5391
    4 5391  5457  5458  5392
    4 5392  5458  5459  5393
    4 5393  5459  5460  5394
    4 5394  5460  5461  5395
    4 5395  5461  5462  5396
    4 5396  5462  5463  5397
    4 5397  5463  5464  5398
    4 5398  5464  5465  5399
    4 5399  5465  5466  5400
    4 5400  5466  5467  5401
    4 5401  5467  5468  5402
    4 5402  5468  5469  5403
    4 5403  5469  5470  5404
    4 5404  5470  5471  5405
    4 5405  5471  5472  5406
    4 5406  5472  5473  5407
    4 5407  5473  5474  5408
    4 5408  5474  5475  5409
    4 5409  5475  5476  5410
    4 5410  5476  5477  5411
    4 5445  5511  5512  5446
    4 5446  5512  5513  5447
    4 5447  5513  5514  5448
    4 5448  5514  5515  5449
    4 5449  5515  5516  5450
    4 5450  5516  5517  5451
    4 5451  5517  5518  5452
    4 5452  5518  5519  5453
    4 5453  5519  5520  5454
    4 5454  5520  5521  5455
    4 5455  5521  5522  5456
    4 5456  5522  5523  5457
    4 5457  5523  5524  5458
    4 5458  5524  5525  5459
    4 5459  5525  5526  5460
    4 5460  5526  5527  5461
    4 5461  5527  5528  5462
    4 5462  5528  5529  5463
    4 5463  5529  5530  5464
    4 5464  5530  5531  5465
    4 5465  5531  5532  5466
    4 5466  5532  5533  5467
    4 5467  5533  5534  5468
    4 5468  5534  5535  5469
    4 5469  5535  5536  5470
    4 5470  5536  5537  5471
    4 5471  5537  5538  5472
    4 5472  5538  5539  5473
    4 5473  5539  5540  5474
    4 5474  5540  5541  5475
    4 5475  5541  5542  5476
    4 5476  5542  5543  5477
    4 5511  5577  5578  5512
    4 5512  5578  5579  5513
    4 5513  5579  5580  5514
    4 5514  5580  5581  5515
    4 5515  5581  5582  5516
    4 5516  5582  5583  5517
    4 5517  5583  5584  5518
    4 5518  5584  5585  5519
    4 5519  5585  5586  5520
    4 5520  5586  5587  5521
    4 5521  5587  5588  5522
    4 5522  5588  5589  5523
    4 5523  5589  5590  5524
    4 5524  5590  5591  5525
    4 5525  5591  5592  5526
    4 5526  5592  5593  5527
    4 5527  5593  5594  5528
    4 5528  5594  5595  5529
    4 5529  5595  5596  5530
    4 5530  5596  5597  5531
    4 5531  5597  5598  5532
    4 5532  5598  5599  5533
    4 5533  5599  5600  5534
    4 5534  5600  5601  5535
    4 5535  5601  5602  5536
    4 5536  5602  5603  5537
    4 5537  5603  5604  5538
    4 5538  5604  5605  5539
    4 5539  5605  5606  5540
    4 5540  5606  5607  5541
    4 5541  5607  5608  5542
    4 5542  5608  5609  5543
    4 5577  5643  5644  5578
    4 5578  5644  5645  5579
    4 5579  5645  5646  5580
    4 5580  5646  5647  5581
    4 5581  5647  5648  5582
    4 5582  5648  5649  5583
    4 5583  5649  5650  5584
    4 5584  5650  5651  5585
    4 5585  5651  5652  5586
    4 5586  5652  5653  5587
    4 5587  5653  5654  5588
    4 5588  5654  5655  5589
    4 5589  5655  5656  5590
    4 5590  5656  5657  5591
    4 5591  5657  5658  5592
    4 5592  5658  5659  5593
    4 5593  5659  5660  5594
    4 5594  5660  5661  5595
    4 5595  5661  5662  5596
    4 5596  5662  5663  5597
    4 5597  5663  5664  5598
    4 5598  5664  5665  5599
    4 5599  5665  5666  5600
    4 5600  5666  5667  5601
    4 5601  5667  5668  5602
    4 5602  5668  5669  5603
    4 5603  5669  5670  5604
    4 5604  5670  5671  5605
    4 5605  5671  5672  5606
    4 5606  5672  5673  5607
    4 5607  5673  5674  5608
    4 5608  5674  5675  5609
    4 5643  5709  5710  5644
    4 5644  5710  5711  5645
    4 5645  5711  5712  5646
    4 5646  5712  5713  5647
    4 5647  5713  5714  5648
    4 5648  5714  5715  5649
    4 5649  5715  5716  5650
    4 5650  5716  5717  5651
    4 5651  5717  5718  5652
    4 5652  5718  5719  5653
    4 5653  5719  5720  5654
    4 5654  5720  5721  5655
    4 5655  5721  5722  5656
    4 5656  5722  5723  5657
    4 5657  5723  5724  5658
    4 5658  5724  5725  5659
    4 5659  5725  5726  5660
    4 5660  5726  5727  5661
    4 5661  5727  5728  5662
    4 5662  5728  5729  5663
    4 5663  5729  5730  5664
    4 5664  5730  5731  5665
    4 5665  5731  5732  5666
    4 5666  5732  5733  5667
    4 5667  5733  5734  5668
    4 5668  5734  5735  5669
    4 5669  5735  5736  5670
    4 5670  5736  5737  5671
    4 5671  5737  5738  5672
    4 5672  5738  5739  5673
    4 5673  5739  5740  5674
    4 5674  5740  5741  5675
    4 5709  5775  5776  5710
    4 5710  5776  5777  5711
    4 5711  5777  5778  5712
    4 5712  5778  5779  5713
    4 5713  5779  5780  5714
    4 5714  5780  5781  5715
    4 5715  5781  5782  5716
    4 5716  5782  5783  5717
    4 5717  5783  5784  5718
    4 5718  5784  5785  5719
    4 5719  5785  5786  5720
    4 5720  5786  5787  5721
    4 5721  5787  5788  5722
    4 5722  5788  5789  5723
    4 5723  5789  5790  5724
    4 5724  5790  5791  5725
    4 5725  5791  5792  5726
    4 5726  5792  5793  5727
    4 5727  5793  5794  5728
    4 5728  5794  5795  5729
    4 5729  5795  5796  5730
    4 5730  5796  5797  5731
    4 5731  5797  5798  5732
    4 5732  5798  5799  5733
    4 5733  5799  5800  5734
    4 5734  5800  5801  5735
    4 5735  5801  5802  5736
    4 5736  5802  5803  5737
    4 5737  5803  5804  5738
    4 5738  5804  5805  5739
    4 5739  5805  5806  5740
    4 5740  5806  5807  5741
    4 5775  5841  5842  5776
    4 5776  5842  5843  5777
    4 5777  5843  5844  5778
    4 5778  5844  5845  5779
    4 5779  5845  5846  5780
    4 5780  5846  5847  5781
    4 5781  5847  5848  5782
    4 5782  5848  5849  5783
    4 5783  5849  5850  5784
    4 5784  5850  5851  5785
    4 5785  5851  5852  5786
    4 5786  5852  5853  5787
    4 5787  5853  5854  5788
    4 5788  5854  5855  5789
    4 5789  5855  5856  5790
    4 5790  5856  5857  5791
    4 5791  5857  5858  5792
    4 5792  5858  5859  5793
    4 5793  5859  5860  5794
    4 5794  5860  5861  5795
    4 5795  5861  5862  5796
    4 5796  5862  5863  5797
    4 5797  5863  5864  5798
    4 5798  5864  5865  5799
    4 5799  5865  5866  5800
    4 5800  5866  5867  5801
    4 5801  5867  5868  5802
    4 5802  5868  5869  5803
    4 5803  5869  5870  5804
    4 5804  5870  5871  5805
    4 5805  5871  5872  5806
    4 5806  5872  5873  5807
    4 5841  5907  5908  5842
    4 5842  5908  5909  5843
    4 5843  5909  5910  5844
    4 5844  5910  5911  5845
    4 5845  5911  5912  5846
    4 5846  5912  5913  5847
    4 5847  5913  5914  5848
    4 5848  5914  5915  5849
    4 5849  5915  5916  5850
    4 5850  5916  5917  5851
    4 5851  5917  5918  5852
    4 5852  5918  5919  5853
    4 5853  5919  5920  5854
    4 5854  5920  5921  5855
    4 5855  5921  5922  5856
    4 5856  5922  5923  5857
    4 5857  5923  5924  5858
    4 5858  5924  5925  5859
    4 5859  5925  5926  5860
    4 5860  5926  5927  5861
    4 5861  5927  5928  5862
    4 5862  5928  5929  5863
    4 5863  5929  5930  5864
    4 5864  5930  5931  5865
    4 5865  5931  5932  5866
    4 5866  5932  5933  5867
    4 5867  5933  5934  5868
    4 5868  5934  5935  5869
    4 5869  5935  5936  5870
    4 5870  5936  5937  5871
    4 5871  5937  5938  5872
    4 5872  5938  5939  5873
    4 5907  5973  5974  5908
    4 5908  5974  5975  5909
    4 5909  5975  5976  5910
    4 5910  5976  5977  5911
    4 5911  5977  5978  5912
    4 5912  5978  5979  5913
    4 5913  5979  5980  5914
    4 5914  5980  5981  5915
    4 5915  5981  5982  5916
    4 5916  5982  5983  5917
    4 5917  5983  5984  5918
    4 5918  5984  5985  5919
    4 5919  5985  5986  5920
    4 5920  5986  5987  5921
    4 5921  5987  5988  5922
    4 5922  5988  5989  5923
    4 5923  5989  5990  5924
    4 5924  5990  5991  5925
    4 5925  5991  5992  5926
    4 5926  5992  5993  5927
    4 5927  5993  5994  5928
    4 5928  5994  5995  5929
    4 5929  5995  5996  5930
    4 5930  5996  5997  5931
    4 5931  5997  5998  5932
    4 5932  5998  5999  5933
    4 5933  5999  6000  5934
    4 5934  6000  6001  5935
    4 5935  6001  6002  5936
    4 5936  6002  6003  5937
    4 5937  6003  6004  5938
    4 5938  6004  6005  5939
    4 5973  6039  6040  5974
    4 5974  6040  6041  5975
    4 5975  6041  6042  5976
    4 5976  6042  6043  5977
    4 5977  6043  6044  5978
    4 5978  6044  6045  5979
    4 5979  6045  6046  5980
    4 5980  6046  6047  5981
    4 5981  6047  6048  5982
    4 5982  6048  6049  5983
    4 5983  6049  6050  5984
    4 5984  6050  6051  5985
    4 5985  6051  6052  5986
    4 5986  6052  6053  5987
    4 5987  6053  6054  5988
    4 5988  6054  6055  5989
    4 5989  6055  6056  5990
    4 5990  6056  6057  5991
    4 5991  6057  6058  5992
    4 5992  6058  6059  5993
    4 5993  6059  6060  5994
    4 5994  6060  6061  5995
    4 5995  6061  6062  5996
    4 5996  6062  6063  5997
    4 5997  6063  6064  5998
    4 5998  6064  6065  5999
    4 5999  6065  6066  6000
    4 6000  6066  6067  6001
    4 6001  6067  6068  6002
    4 6002  6068  6069  6003
    4 6003  6069  6070  6004
    4 6004  6070  6071  6005
    4 6039  6105  6106  6040
    4 6040  6106  6107  6041
    4 6041  6107  6108  6042
    4 6042  6108  6109  6043
    4 6043  6109  6110  6044
    4 6044  6110  6111  6045
    4 6045  6111  6112  6046
    4 6046  6112  6113  6047
    4 6047  6113  6114  6048
    4 6048  6114  6115  6049
    4 6049  6115  6116  6050
    4 6050  6116  6117  6051
    4 6051  6117  6118  6052
    4 6052  6118  6119  6053
    4 6053  6119  6120  6054
    4 6054  6120  6121  6055
    4 6055  6121  6122  6056
    4 6056  6122  6123  6057
    4 6057  6123  6124  6058
    4 6058  6124  6125  6059
    4 6059  6125  6126  6060
    4 6060  6126  6127  6061
    4 6061  6127  6128  6062
    4 6062  6128  6129  6063
    4 6063  6129  6130  6064
    4 6064  6130  6131  6065
    4 6065  6131  6132  6066
    4 6066  6132  6133  6067
    4 6067  6133  6134  6068
    4 6068  6134  6135  6069
    4 6069  6135  6136  6070
    4 6070  6136  6137  6071
    4 6105  6171  6172  6106
    4 6106  6172  6173  6107
    4 6107  6173  6174  6108
    4 6108  6174  6175  6109
    4 6109  6175  6176  6110
    4 6110  6176  6177  6111
    4 6111  6177  6178  6112
    4 6112  6178  6179  6113
    4 6113  6179  6180  6114
    4 6114  6180  6181  6115
    4 6115  6181  6182  6116
    4 6116  6182  6183  6117
    4 6117  6183  6184  6118
    4 6118  6184  6185  6119
    4 6119  6185  6186  6120
    4 6120  6186  6187  6121
    4 6121  6187  6188  6122
    4 6122  6188  6189  6123
    4 6123  6189  6190  6124
    4 6124  6190  6191  6125
    4 6125  6191  6192  6126
    4 6126  6192  6193  6127
    4 6127  6193  6194  6128
    4 6128  6194  6195  6129
    4 6129  6195  6196  6130
    4 6130  6196  6197  6131
    4 6131  6197  6198  6132
    4 6132  6198  6199  6133
    4 6133  6199  6200  6134
    4 6134  6200  6201  6135
    4 6135  6201  6202  6136
    4 6136  6202  6203  6137
    4 6171  6237  6238  6172
    4 6172  6238  6239  6173
    4 6173  6239  6240  6174
    4 6174  6240  6241  6175
    4 6175  6241  6242  6176
    4 6176  6242  6243  6177
    4 6177  6243  6244  6178
    4 6178  6244  6245  6179
    4 6179  6245  6246  6180
    4 6180  6246  6247  6181
    4 6181  6247  6248  6182
    4 6182  6248  6249  6183
    4 6183  6249  6250  6184
    4 6184  6250  6251  6185
    4 6185  6251  6252  6186
    4 6186  6252  6253  6187
    4 6187  6253  6254  6188
    4 6188  6254  6255  6189
    4 6189  6255  6256  6190
    4 6190  6256  6257  6191
    4 6191  6257  6258  6192
    4 6192  6258  6259  6193
    4 6193  6259  6260  6194
    4 6194  6260  6261  6195
    4 6195  6261  6262  6196
    4 6196  6262  6263  6197
    4 6197  6263  6264  6198
    4 6198  6264  6265  6199
    4 6199  6265  6266  6200
    4 6200  6266  6267  6201
    4 6201  6267  6268  6202
    4 6202  6268  6269  6203
    4 6237  6303  6304  6238
    4 6238  6304  6305  6239
    4 6239  6305  6306  6240
    4 6240  6306  6307  6241
    4 6241  6307  6308  6242
    4 6242  6308  6309  6243
    4 6243  6309  6310  6244
    4 6244  6310  6311  6245
    4 6245  6311  6312  6246
    4 6246  6312  6313  6247
    4 6247  6313  6314  6248
    4 6248  6314  6315  6249
    4 6249  6315  6316  6250
    4 6250  6316  6317  6251
    4 6251  6317  6318  6252
    4 6252  6318  6319  6253
    4 6253  6319  6320  6254
    4 6254  6320  6321  6255
    4 6255  6321  6322  6256
    4 6256  6322  6323  6257
    4 6257  6323  6324  6258
    4 6258  6324  6325  6259
    4 6259  6325  6326  6260
    4 6260  6326  6327  6261
    4 6261  6327  6328  6262
    4 6262  6328  6329  6263
    4 6263  6329  6330  6264
    4 6264  6330  6331  6265
    4 6265  6331  6332  6266
    4 6266  6332  6333  6267
    4 6267  6333  6334  6268
    4 6268  6334  6335  6269
    4 6303  6369  6370  6304
    4 6304  6370  6371  6305
    4 6305  6371  6372  6306
    4 6306  6372  6373  6307
    4 6307  6373  6374  6308
    4 6308  6374  6375  6309
    4 6309  6375  6376  6310
    4 6310  6376  6377  6311
    4 6311  6377  6378  6312
    4 6312  6378  6379  6313
    4 6313  6379  6380  6314
    4 6314  6380  6381  6315
    4 6315  6381  6382  6316
    4 6316  6382  6383  6317
    4 6317  6383  6384  6318
    4 6318  6384  6385  6319
    4 6319  6385  6386  6320
    4 6320  6386  6387  6321
    4 6321  6387  6388  6322
    4 6322  6388  6389  6323
    4 6323  6389  6390  6324
    4 6324  6390  6391  6325
    4 6325  6391  6392  6326
    4 6326  6392  6393  6327
    4 6327  6393  6394  6328
    4 6328  6394  6395  6329
    4 6329  6395  6396  6330
    4 6330  6396  6397  6331
    4 6331  6397  6398  6332
    4 6332  6398  6399  6333
    4 6333  6399  6400  6334
    4 6334  6400  6401  6335
    4 6369  6435  6436  6370
    4 6370  6436  6437  6371
    4 6371  6437  6438  6372
    4 6372  6438  6439  6373
    4 6373  6439  6440  6374
    4 6374  6440  6441  6375
    4 6375  6441  6442  6376
    4 6376  6442  6443  6377
    4 6377  6443  6444  6378
    4 6378  6444  6445  6379
    4 6379  6445  6446  6380
    4 6380  6446  6447  6381
    4 6381  6447  6448  6382
    4 6382  6448  6449  6383
    4 6383  6449  6450  6384
    4 6384  6450  6451  6385
    4 6385  6451  6452  6386
    4 6386  6452  6453  6387
    4 6387  6453  6454  6388
    4 6388  6454  6455  6389
    4 6389  6455  6456  6390
    4 6390  6456  6457  6391
    4 6391  6457  6458  6392
    4 6392  6458  6459  6393
    4 6393  6459  6460  6394
    4 6394  6460  6461  6395
    4 6395  6461  6462  6396
    4 6396  6462  6463  6397
    4 6397  6463  6464  6398
    4 6398  6464  6465  6399
    4 6399  6465  6466  6400
    4 6400  6466  6467  6401
    4 6435  6501  6502  6436
    4 6436  6502  6503  6437
    4 6437  6503  6504  6438
    4 6438  6504  6505  6439
    4 6439  6505  6506  6440
    4 6440  6506  6507  6441
    4 6441  6507  6508  6442
    4 6442  6508  6509  6443
    4 6443  6509  6510  6444
    4 6444  6510  6511  6445
    4 6445  6511  6512  6446
    4 6446  6512  6513  6447
    4 6447  6513  6514  6448
    4 6448  6514  6515  6449
    4 6449  6515  6516  6450
    4 6450  6516  6517  6451
    4 6451  6517  6518  6452
    4 6452  6518  6519  6453
    4 6453  6519  6520  6454
    4 6454  6520  6521  6455
    4 6455  6521  6522  6456
    4 6456  6522  6523  6457
    4 6457  6523  6524  6458
    4 6458  6524  6525  6459
    4 6459  6525  6526  6460
    4 6460  6526  6527  6461
    4 6461  6527  6528  6462
    4 6462  6528  6529  6463
    4 6463  6529  6530  6464
    4 6464  6530  6531  6465
    4 6465  6531  6532  6466
    4 6466  6532  6533  6467
    4 6501  6567  6568  6502
    4 6502  6568  6569  6503
    4 6503  6569  6570  6504
    4 6504  6570  6571  6505
    4 6505  6571  6572  6506
    4 6506  6572  6573  6507
    4 6507  6573  6574  6508
    4 6508  6574  6575  6509
    4 6509  6575  6576  6510
    4 6510  6576  6577  6511
    4 6511  6577  6578  6512
    4 6512  6578  6579  6513
    4 6513  6579  6580  6514
    4 6514  6580  6581  6515
    4 6515  6581  6582  6516
    4 6516  6582  6583  6517
    4 6517  6583  6584  6518
    4 6518  6584  6585  6519
    4 6519  6585  6586  6520
    4 6520  6586  6587  6521
    4 6521  6587  6588  6522
    4 6522  6588  6589  6523
    4 6523  6589  6590  6524
    4 6524  6590  6591  6525
    4 6525  6591  6592  6526
    4 6526  6592  6593  6527
    4 6527  6593  6594  6528
    4 6528  6594  6595  6529
    4 6529  6595  6596  6530
    4 6530  6596  6597  6531
    4 6531  6597  6598  6532
    4 6532  6598  6599  6533
    4 6567  6633  6634  6568
    4 6568  6634  6635  6569
    4 6569  6635  6636  6570
    4 6570  6636  6637  6571
    4 6571  6637  6638  6572
    4 6572  6638  6639  6573
    4 6573  6639  6640  6574
    4 6574  6640  6641  6575
    4 6575  6641  6642  6576
    4 6576  6642  6643  6577
    4 6577  6643  6644  6578
    4 6578  6644  6645  6579
    4 6579  6645  6646  6580
    4 6580  6646  6647  6581
    4 6581  6647  6648  6582
    4 6582  6648  6649  6583
    4 6583  6649  6650  6584
    4 6584  6650  6651  6585
    4 6585  6651  6652  6586
    4 6586  6652  6653  6587
    4 6587  6653  6654  6588
    4 6588  6654  6655  6589
    4 6589  6655  6656  6590
    4 6590  6656  6657  6591
    4 6591  6657  6658  6592
    4 6592  6658  6659  6593
    4 6593  6659  6660  6594
    4 6594  6660  6661  6595
    4 6595  6661  6662  6596
    4 6596  6662  6663  6597
    4 6597  6663  6664  6598
    4 6598  6664  6665  6599
    4 6633  6699  6700  6634
    4 6634  6700  6701  6635
    4 6635  6701  6702  6636
    4 6636  6702  6703  6637
    4 6637  6703  6704  6638
    4 6638  6704  6705  6639
    4 6639  6705  6706  6640
    4 6640  6706  6707  6641
    4 6641  6707  6708  6642
    4 6642  6708  6709  6643
    4 6643  6709  6710  6644
    4 6644  6710  6711  6645
    4 6645  6711  6712  6646
    4 6646  6712  6713  6647
    4 6647  6713  6714  6648
    4 6648  6714  6715  6649
    4 6649  6715  6716  6650
    4 6650  6716  6717  6651
    4 6651  6717  6718  6652
    4 6652  6718  6719  6653
    4 6653  6719  6720  6654
    4 6654  6720  6721  6655
    4 6655  6721  6722  6656
    4 6656  6722  6723  6657
    4 6657  6723  6724  6658
    4 6658  6724  6725  6659
    4 6659  6725  6726  6660
    4 6660  6726  6727  6661
    4 6661  6727  6728  6662
    4 6662  6728  6729  6663
    4 6663  6729  6730  6664
    4 6664  6730  6731  6665
    4 6699  6765  6766  6700
    4 6700  6766  6767  6701
    4 6701  6767  6768  6702
    4 6702  6768  6769  6703
    4 6703  6769  6770  6704
    4 6704  6770  6771  6705
    4 6705  6771  6772  6706
    4 6706  6772  6773  6707
    4 6707  6773  6774  6708
    4 6708  6774  6775  6709
    4 6709  6775  6776  6710
    4 6710  6776  6777  6711
    4 6711  6777  6778  6712
    4 6712  6778  6779  6713
    4 6713  6779  6780  6714
    4 6714  6780  6781  6715
    4 6715  6781  6782  6716
    4 6716  6782  6783  6717
    4 6717  6783  6784  6718
    4 6718  6784  6785  6719
    4 6719  6785  6786  6720
    4 6720  6786  6787  6721
    4 6721  6787  6788  6722
    4 6722  6788  6789  6723
    4 6723  6789  6790  6724
    4 6724  6790  6791  6725
    4 6725  6791  6792  6726
    4 6726  6792  6793  6727
    4 6727  6793  6794  6728
    4 6728  6794  6795  6729
    4 6729  6795  6796  6730
    4 6730  6796  6797  6731
    4 6765  6831  6832  6766
    4 6766  6832  6833  6767
    4 6767  6833  6834  6768
    4 6768  6834  6835  6769
    4 6769  6835  6836  6770
    4 6770  6836  6837  6771
    4 6771  6837  6838  6772
    4 6772  6838  6839  6773
    4 6773  6839  6840  6774
    4 6774  6840  6841  6775
    4 6775  6841  6842  6776
    4 6776  6842  6843  6777
    4 6777  6843  6844  6778
    4 6778  6844  6845  6779
    4 6779  6845  6846  6780
    4 6780  6846  6847  6781
    4 6781  6847  6848  6782
    4 6782  6848  6849  6783
    4 6783  6849  6850  6784
    4 6784  6850  6851  6785
    4 6785  6851  6852  6786
    4 6786  6852  6853  6787
    4 6787  6853  6854  6788
    4 6788  6854  6855  6789
    4 6789  6855  6856  6790
    4 6790  6856  6857  6791
    4 6791  6857  6858  6792
    4 6792  6858  6859  6793
    4 6793  6859  6860  6794
    4 6794  6860  6861  6795
    4 6795  6861  6862  6796
    4 6796  6862  6863  6797
    4 6831  6897  6898  6832
    4 6832  6898  6899  6833
    4 6833  6899  6900  6834
    4 6834  6900  6901  6835
    4 6835  6901  6902  6836
    4 6836  6902  6903  6837
    4 6837  6903  6904  6838
    4 6838  6904  6905  6839
    4 6839  6905  6906  6840
    4 6840  6906  6907  6841
    4 6841  6907  6908  6842
    4 6842  6908  6909  6843
    4 6843  6909  6910  6844
    4 6844  6910  6911  6845
    4 6845  6911  6912  6846
    4 6846  6912  6913  6847
    4 6847  6913  6914  6848
    4 6848  6914  6915  6849
    4 6849  6915  6916  6850
    4 6850  6916  6917  6851
    4 6851  6917  6918  6852
    4 6852  6918  6919  6853
    4 6853  6919  6920  6854
    4 6854  6920  6921  6855
    4 6855  6921  6922  6856
    4 6856  6922  6923  6857
    4 6857  6923  6924  6858
    4 6858  6924  6925  6859
    4 6859  6925  6926  6860
    4 6860  6926  6927  6861
    4 6861  6927  6928  6862
    4 6862  6928  6929  6863
    4 6897  6963  6964  6898
    4 6898  6964  6965  6899
    4 6899  6965  6966  6900
    4 6900  6966  6967  6901
    4 6901  6967  6968  6902
    4 6902  6968  6969  6903
    4 6903  6969  6970  6904
    4 6904  6970  6971  6905
    4 6905  6971  6972  6906
    4 6906  6972  6973  6907
    4 6907  6973  6974  6908
    4 6908  6974  6975  6909
    4 6909  6975  6976  6910
    4 6910  6976  6977  6911
    4 6911  6977  6978  6912
    4 6912  6978  6979  6913
    4 6913  6979  6980  6914
    4 6914  6980  6981  6915
    4 6915  6981  6982  6916
    4 6916  6982  6983  6917
    4 6917  6983  6984  6918
    4 6918  6984  6985  6919
    4 6919  6985  6986  6920
    4 6920  6986  6987  6921
    4 6921  6987  6988  6922
    4 6922  6988  6989  6923
    4 6923  6989  6990  6924
    4 6924  6990  6991  6925
    4 6925  6991  6992  6926
    4 6926  6992  6993  6927
    4 6927  6993  6994  6928
    4 6928  6994  6995  6929
    4 6963  7029  7030  6964
    4 6964  7030  7031  6965
    4 6965  7031  7032  6966
    4 6966  7032  7033  6967
    4 6967  7033  7034  6968
    4 6968  7034  7035  6969
    4 6969  7035  7036  6970
    4 6970  7036  7037  6971
    4 6971  7037  7038  6972
    4 6972  7038  7039  6973
    4 6973  7039  7040  6974
    4 6974  7040  7041  6975
    4 6975  7041  7042  6976
    4 6976  7042  7043  6977
    4 6977  7043  7044  6978
    4 6978  7044  7045  6979
    4 6979  7045  7046  6980
    4 6980  7046  7047  6981
    4 6981  7047  7048  6982
    4 6982  7048  7049  6983
    4 6983  7049  7050  6984
    4 6984  7050  7051  6985
    4 6985  7051  7052  6986
    4 6986  7052  7053  6987
    4 6987  7053  7054  6988
    4 6988  7054  7055  6989
    4 6989  7055  7056  6990
    4 6990  7056  7057  6991
    4 6991  7057  7058  6992
    4 6992  7058  7059  6993
    4 6993  7059  7060  6994
    4 6994  7060  7061  6995
    4 7029  7095  7096  7030
    4 7030  7096  7097  7031
    4 7031  7097  7098  7032
    4 7032  7098  7099  7033
    4 7033  7099  7100  7034
    4 7034  7100  7101  7035
    4 7035  7101  7102  7036
    4 7036  7102  7103  7037
    4 7037  7103  7104  7038
    4 7038  7104  7105  7039
    4 7039  7105  7106  7040
    4 7040  7106  7107  7041
    4 7041  7107  7108  7042
    4 7042  7108  7109  7043
    4 7043  7109  7110  7044
    4 7044  7110  7111  7045
    4 7045  7111  7112  7046
    4 7046  7112  7113  7047
    4 7047  7113  7114  7048
    4 7048  7114  7115  7049
    4 7049  7115  7116  7050
    4 7050  7116  7117  7051
    4 7051  7117  7118  7052
    4 7052  7118  7119  7053
    4 7053  7119  7120  7054
    4 7054  7120  7121  7055
    4 7055  7121  7122  7056
    4 7056  7122  7123  7057
    4 7057  7123  7124  7058
    4 7058  7124  7125  7059
    4 7059  7125  7126  7060
    4 7060  7126  7127  7061
    4 7095  7161  7162  7096
    4 7096  7162  7163  7097
    4 7097  7163  7164  7098
    4 7098  7164  7165  7099
    4 7099  7165  7166  7100
    4 7100  7166  7167  7101
    4 7101  7167  7168  7102
    4 7102  7168  7169  7103
    4 7103  7169  7170  7104
    4 7104  7170  7171  7105
    4 7105  7171  7172  7106
    4 7106  7172  7173  7107
    4 7107  7173  7174  7108
    4 7108  7174  7175  7109
    4 7109  7175  7176  7110
    4 7110  7176  7177  7111
    4 7111  7177  7178  7112
    4 7112  7178  7179  7113
    4 7113  7179  7180  7114
    4 7114  7180  7181  7115
    4 7115  7181  7182  7116
    4 7116  7182  7183  7117
    4 7117  7183  7184  7118
    4 7118  7184  7185  7119
    4 7119  7185  7186  7120
    4 7120  7186  7187  7121
    4 7121  7187  7188  7122
    4 7122  7188  7189  7123
    4 7123  7189  7190  7124
    4 7124  7190  7191  7125
    4 7125  7191  7192  7126
    4 7126  7192  7193  7127
    4 7161  7227  7228  7162
    4 7162  7228  7229  7163
    4 7163  7229  7230  7164
    4 7164  7230  7231  7165
    4 7165  7231  7232  7166
    4 7166  7232  7233  7167
    4 7167  7233  7234  7168
    4 7168  7234  7235  7169
    4 7169  7235  7236  7170
    4 7170  7236  7237  7171
    4 7171  7237  7238  7172
    4 7172  7238  7239  7173
    4 7173  7239  7240  7174
    4 7174  7240  7241  7175
    4 7175  7241  7242  7176
    4 7176  7242  7243  7177
    4 7177  7243  7244  7178
    4 7178  7244  7245  7179
    4 7179  7245  7246  7180
    4 7180  7246  7247  7181
    4 7181  7247  7248  7182
    4 7182  7248  7249  7183
    4 7183  7249  7250  7184
    4 7184  7250  7251  7185
    4 7185  7251  7252  7186
    4 7186  7252  7253  7187
    4 7187  7253  7254  7188
    4 7188  7254  7255  7189
    4 7189  7255  7256  7190
    4 7190  7256  7257  7191
    4 7191  7257  7258  7192
    4 7192  7258  7259  7193
    4 7227  7293  7294  7228
    4 7228  7294  7295  7229
    4 7229  7295  7296  7230
    4 7230  7296  7297  7231
    4 7231  7297  7298  7232
    4 7232  7298  7299  7233
    4 7233  7299  7300  7234
    4 7234  7300  7301  7235
    4 7235  7301  7302  7236
    4 7236  7302  7303  7237
    4 7237  7303  7304  7238
    4 7238  7304  7305  7239
    4 7239  7305  7306  7240
    4 7240  7306  7307  7241
    4 7241  7307  7308  7242
    4 7242  7308  7309  7243
    4 7243  7309  7310  7244
    4 7244  7310  7311  7245
    4 7245  7311  7312  7246
    4 7246  7312  7313  7247
    4 7247  7313  7314  7248
    4 7248  7314  7315  7249
    4 7249  7315  7316  7250
    4 7250  7316  7317  7251
    4 7251  7317  7318  7252
    4 7252  7318  7319  7253
    4 7253  7319  7320  7254
    4 7254  7320  7321  7255
    4 7255  7321  7322  7256
    4 7256  7322  7323  7257
    4 7257  7323  7324  7258
    4 7258  7324  7325  7259
    4 7293  7359  7360  7294
    4 7294  7360  7361  7295
    4 7295  7361  7362  7296
    4 7296  7362  7363  7297
    4 7297  7363  7364  7298
    4 7298  7364  7365  7299
    4 7299  7365  7366  7300
    4 7300  7366  7367  7301
    4 7301  7367  7368  7302
    4 7302  7368  7369  7303
    4 7303  7369  7370  7304
    4 7304  7370  7371  7305
    4 7305  7371  7372  7306
    4 7306  7372  7373  7307
    4 7307  7373  7374  7308
    4 7308  7374  7375  7309
    4 7309  7375  7376  7310
    4 7310  7376  7377  7311
    4 7311  7377  7378  7312
    4 7312  7378  7379  7313
    4 7313  7379  7380  7314
    4 7314  7380  7381  7315
    4 7315  7381  7382  7316
    4 7316  7382  7383  7317
    4 7317  7383  7384  7318
    4 7318  7384  7385  7319
    4 7319  7385  7386  7320
    4 7320  7386  7387  7321
    4 7321  7387  7388  7322
    4 7322  7388  7389  7323
    4 7323  7389  7390  7324
    4 7324  7390  7391  7325
    4 7359  7425  7426  7360
    4 7360  7426  7427  7361
    4 7361  7427  7428  7362
    4 7362  7428  7429  7363
    4 7363  7429  7430  7364
    4 7364  7430  7431  7365
    4 7365  7431  7432  7366
    4 7366  7432  7433  7367
    4 7367  7433  7434  7368
    4 7368  7434  7435  7369
    4 7369  7435  7436  7370
    4 7370  7436  7437  7371
    4 7371  7437  7438  7372
    4 7372  7438  7439  7373
    4 7373  7439  7440  7374
    4 7374  7440  7441  7375
    4 7375  7441  7442  7376
    4 7376  7442  7443  7377
    4 7377  7443  7444  7378
    4 7378  7444  7445  7379
    4 7379  7445  7446  7380
    4 7380  7446  7447  7381
    4 7381  7447  7448  7382
    4 7382  7448  7449  7383
    4 7383  7449  7450  7384
    4 7384  7450  7451  7385
    4 7385  7451  7452  7386
    4 7386  7452  7453  7387
    4 7387  7453  7454  7388
    4 7388  7454  7455  7389
    4 7389  7455  7456  7390
    4 7390  7456  7457  7391
    4 7425  7491  7492  7426
    4 7426  7492  7493  7427
    4 7427  7493  7494  7428
    4 7428  7494  7495  7429
    4 7429  7495  7496  7430
    4 7430  7496  7497  7431
    4 7431  7497  7498  7432
    4 7432  7498  7499  7433
    4 7433  7499  7500  7434
    4 7434  7500  7501  7435
    4 7435  7501  7502  7436
    4 7436  7502  7503  7437
    4 7437  7503  7504  7438
    4 7438  7504  7505  7439
    4 7439  7505  7506  7440
    4 7440  7506  7507  7441
    4 7441  7507  7508  7442
    4 7442  7508  7509  7443
    4 7443  7509  7510  7444
    4 7444  7510  7511  7445
    4 7445  7511  7512  7446
    4 7446  7512  7513  7447
    4 7447  7513  7514  7448
    4 7448  7514  7515  7449
    4 7449  7515  7516  7450
    4 7450  7516  7517  7451
    4 7451  7517  7518  7452
    4 7452  7518  7519  7453
    4 7453  7519  7520  7454
    4 7454  7520  7521  7455
    4 7455  7521  7522  7456
    4 7456  7522  7523  7457
    4 7491  7557  7558  7492
    4 7492  7558  7559  7493
    4 7493  7559  7560  7494
    4 7494  7560  7561  7495
    4 7495  7561  7562  7496
    4 7496  7562  7563  7497
    4 7497  7563  7564  7498
    4 7498  7564  7565  7499
    4 7499  7565  7566  7500
    4 7500  7566  7567  7501
    4 7501  7567  7568  7502
    4 7502  7568  7569  7503
    4 7503  7569  7570  7504
    4 7504  7570  7571  7505
    4 7505  7571  7572  7506
    4 7506  7572  7573  7507
    4 7507  7573  7574  7508
    4 7508  7574  7575  7509
    4 7509  7575  7576  7510
    4 7510  7576  7577  7511
    4 7511  7577  7578  7512
    4 7512  7578  7579  7513
    4 7513  7579  7580  7514
    4 7514  7580  7581  7515
    4 7515  7581  7582  7516
    4 7516  7582  7583  7517
    4 7517  7583  7584  7518
    4 7518  7584  7585  7519
    4 7519  7585  7586  7520
    4 7520  7586  7587  7521
    4 7521  7587  7588  7522
    4 7522  7588  7589  7523
    4 7557  7623  7624  7558
    4 7558  7624  7625  7559
    4 7559  7625  7626  7560
    4 7560  7626  7627  7561
    4 7561  7627  7628  7562
    4 7562  7628  7629  7563
    4 7563  7629  7630  7564
    4 7564  7630  7631  7565
    4 7565  7631  7632  7566
    4 7566  7632  7633  7567
    4 7567  7633  7634  7568
    4 7568  7634  7635  7569
    4 7569  7635  7636  7570
    4 7570  7636  7637  7571
    4 7571  7637  7638  7572
    4 7572  7638  7639  7573
    4 7573  7639  7640  7574
    4 7574  7640  7641  7575
    4 7575  7641  7642  7576
    4 7576  7642  7643  7577
    4 7577  7643  7644  7578
    4 7578  7644  7645  7579
    4 7579  7645  7646  7580
    4 7580  7646  7647  7581
    4 7581  7647  7648  7582
    4 7582  7648  7649  7583
    4 7583  7649  7650  7584
    4 7584  7650  7651  7585
    4 7585  7651  7652  7586
    4 7586  7652  7653  7587
    4 7587  7653  7654  7588
    4 7588  7654  7655  7589
    4 7623  7689  7690  7624
    4 7624  7690  7691  7625
    4 7625  7691  7692  7626
    4 7626  7692  7693  7627
    4 7627  7693  7694  7628
    4 7628  7694  7695  7629
    4 7629  7695  7696  7630
    4 7630  7696  7697  7631
    4 7631  7697  7698  7632
    4 7632  7698  7699  7633
    4 7633  7699  7700  7634
    4 7634  7700  7701  7635
    4 7635  7701  7702  7636
    4 7636  7702  7703  7637
    4 7637  7703  7704  7638
    4 7638  7704  7705  7639
    4 7639  7705  7706  7640
    4 7640  7706  7707  7641
    4 7641  7707  7708  7642
    4 7642  7708  7709  7643
    4 7643  7709  7710  7644
    4 7644  7710  7711  7645
    4 7645  7711  7712  7646
    4 7646  7712  7713  7647
    4 7647  7713  7714  7648
    4 7648  7714  7715  7649
    4 7649  7715  7716  7650
    4 7650  7716  7717  7651
    4 7651  7717  7718  7652
    4 7652  7718  7719  7653
    4 7653  7719  7720  7654
    4 7654  7720  7721  7655
    4 7689  7755  7756  7690
    4 7690  7756  7757  7691
    4 7691  7757  7758  7692
    4 7692  7758  7759  7693
    4 7693  7759  7760  7694
    4 7694  7760  7761  7695
    4 7695  7761  7762  7696
    4 7696  7762  7763  7697
    4 7697  7763  7764  7698
    4 7698  7764  7765  7699
    4 7699  7765  7766  7700
    4 7700  7766  7767  7701
    4 7701  7767  7768  7702
    4 7702  7768  7769  7703
    4 7703  7769  7770  7704
    4 7704  7770  7771  7705
    4 7705  7771  7772  7706
    4 7706  7772  7773  7707
    4 7707  7773  7774  7708
    4 7708  7774  7775  7709
    4 7709  7775  7776  7710
    4 7710  7776  7777  7711
    4 7711  7777  7778  7712
    4 7712  7778  7779  7713
    4 7713  7779  7780  7714
    4 7714  7780  7781  7715
    4 7715  7781  7782  7716
    4 7716  7782  7783  7717
    4 7717  7783  7784  7718
    4 7718  7784  7785  7719
    4 7719  7785  7786  7720
    4 7720  7786  7787  7721
    4 7755  7821  7822  7756
    4 7756  7822  7823  7757
    4 7757  7823  7824  7758
    4 7758  7824  7825  7759
    4 7759  7825  7826  7760
    4 7760  7826  7827  7761
    4 7761  7827  7828  7762
    4 7762  7828  7829  7763
    4 7763  7829  7830  7764
    4 7764  7830  7831  7765
    4 7765  7831  7832  7766
    4 7766  7832  7833  7767
    4 7767  7833  7834  7768
    4 7768  7834  7835  7769
    4 7769  7835  7836  7770
    4 7770  7836  7837  7771
    4 7771  7837  7838  7772
    4 7772  7838  7839  7773
    4 7773  7839  7840  7774
    4 7774  7840  7841  7775
    4 7775  7841  7842  7776
    4 7776  7842  7843  7777
    4 7777  7843  7844  7778
    4 7778  7844  7845  7779
    4 7779  7845  7846  7780
    4 7780  7846  7847  7781
    4 7781  7847  7848  7782
    4 7782  7848  7849  7783
    4 7783  7849  7850  7784
    4 7784  7850  7851  7785
    4 7785  7851  7852  7786
    4 7786  7852  7853  7787
    4 7821  7887  7888  7822
    4 7822  7888  7889  7823
    4 7823  7889  7890  7824
    4 7824  7890  7891  7825
    4 7825  7891  7892  7826
    4 7826  7892  7893  7827
    4 7827  7893  7894  7828
    4 7828  7894  7895  7829
    4 7829  7895  7896  7830
    4 7830  7896  7897  7831
    4 7831  7897  7898  7832
    4 7832  7898  7899  7833
    4 7833  7899  7900  7834
    4 7834  7900  7901  7835
    4 7835  7901  7902  7836
    4 7836  7902  7903  7837
    4 7837  7903  7904  7838
    4 7838  7904  7905  7839
    4 7839  7905  7906  7840
    4 7840  7906  7907  7841
    4 7841  7907  7908  7842
    4 7842  7908  7909  7843
    4 7843  7909  7910  7844
    4 7844  7910  7911  7845
    4 7845  7911  7912  7846
    4 7846  7912  7913  7847
    4 7847  7913  7914  7848
    4 7848  7914  7915  7849
    4 7849  7915  7916  7850
    4 7850  7916  7917  7851
    4 7851  7917  7918  7852
    4 7852  7918  7919  7853
    4 7887  7953  7954  7888
    4 7888  7954  7955  7889
    4 7889  7955  7956  7890
    4 7890  7956  7957  7891
    4 7891  7957  7958  7892
    4 7892  7958  7959  7893
    4 7893  7959  7960  7894
    4 7894  7960  7961  7895
    4 7895  7961  7962  7896
    4 7896  7962  7963  7897
    4 7897  7963  7964  7898
    4 7898  7964  7965  7899
    4 7899  7965  7966  7900
    4 7900  7966  7967  7901
    4 7901  7967  7968  7902
    4 7902  7968  7969  7903
    4 7903  7969  7970  7904
    4 7904  7970  7971  7905
    4 7905  7971  7972  7906
    4 7906  7972  7973  7907
    4 7907  7973  7974  7908
    4 7908  7974  7975  7909
    4 7909  7975  7976  7910
    4 7910  7976  7977  7911
    4 7911  7977  7978  7912
    4 7912  7978  7979  7913
    4 7913  7979  7980  7914
    4 7914  7980  7981  7915
    4 7915  7981  7982  7916
    4 7916  7982  7983  7917
    4 7917  7983  7984  7918
    4 7918  7984  7985  7919
    4 7953  8019  8020  7954
    4 7954  8020  8021  7955
    4 7955  8021  8022  7956
    4 7956  8022  8023  7957
    4 7957  8023  8024  7958
    4 7958  8024  8025  7959
    4 7959  8025  8026  7960
    4 7960  8026  8027  7961
    4 7961  8027  8028  7962
    4 7962  8028  8029  7963
    4 7963  8029  8030  7964
    4 7964  8030  8031  7965
    4 7965  8031  8032  7966
    4 7966  8032  8033  7967
    4 7967  8033  8034  7968
    4 7968  8034  8035  7969
    4 7969  8035  8036  7970
    4 7970  8036  8037  7971
    4 7971  8037  8038  7972
    4 7972  8038  8039  7973
    4 7973  8039  8040  7974
    4 7974  8040  8041  7975
    4 7975  8041  8042  7976
    4 7976  8042  8043  7977
    4 7977  8043  8044  7978
    4 7978  8044  8045  7979
    4 7979  8045  8046  7980
    4 7980  8046  8047  7981
    4 7981  8047  8048  7982
    4 7982  8048  8049  7983
    4 7983  8049  8050  7984
    4 7984  8050  8051  7985
    4 8019  8085  8086  8020
    4 8020  8086  8087  8021
    4 8021  8087  8088  8022
    4 8022  8088  8089  8023
    4 8023  8089  8090  8024
    4 8024  8090  8091  8025
    4 8025  8091  8092  8026
    4 8026  8092  8093  8027
    4 8027  8093  8094  8028
    4 8028  8094  8095  8029
    4 8029  8095  8096  8030
    4 8030  8096  8097  8031
    4 8031  8097  8098  8032
    4 8032  8098  8099  8033
    4 8033  8099  8100  8034
    4 8034  8100  8101  8035
    4 8035  8101  8102  8036
    4 8036  8102  8103  8037
    4 8037  8103  8104  8038
    4 8038  8104  8105  8039
    4 8039  8105  8106  8040
    4 8040  8106  8107  8041
    4 8041  8107  8108  8042
    4 8042  8108  8109  8043
    4 8043  8109  8110  8044
    4 8044  8110  8111  8045
    4 8045  8111  8112  8046
    4 8046  8112  8113  8047
    4 8047  8113  8114  8048
    4 8048  8114  8115  8049
    4 8049  8115  8116  8050
    4 8050  8116  8117  8051
    4 8085  8151  8152  8086
    4 8086  8152  8153  8087
    4 8087  8153  8154  8088
    4 8088  8154  8155  8089
    4 8089  8155  8156  8090
    4 8090  8156  8157  8091
    4 8091  8157  8158  8092
    4 8092  8158  8159  8093
    4 8093  8159  8160  8094
    4 8094  8160  8161  8095
    4 8095  8161  8162  8096
    4 8096  8162  8163  8097
    4 8097  8163  8164  8098
    4 8098  8164  8165  8099
    4 8099  8165  8166  8100
    4 8100  8166  8167  8101
    4 8101  8167  8168  8102
    4 8102  8168  8169  8103
    4 8103  8169  8170  8104
    4 8104  8170  8171  8105
    4 8105  8171  8172  8106
    4 8106  8172  8173  8107
    4 8107  8173  8174  8108
    4 8108  8174  8175  8109
    4 8109  8175  8176  8110
    4 8110  8176  8177  8111
    4 8111  8177  8178  8112
    4 8112  8178  8179  8113
    4 8113  8179  8180  8114
    4 8114  8180  8181  8115
    4 8115  8181  8182  8116
    4 8116  8182  8183  8117
    4 8151  8217  8218  8152
    4 8152  8218  8219  8153
    4 8153  8219  8220  8154
    4 8154  8220  8221  8155
    4 8155  8221  8222  8156
    4 8156  8222  8223  8157
    4 8157  8223  8224  8158
    4 8158  8224  8225  8159
    4 8159  8225  8226  8160
    4 8160  8226  8227  8161
    4 8161  8227  8228  8162
    4 8162  8228  8229  8163
    4 8163  8229  8230  8164
    4 8164  8230  8231  8165
    4 8165  8231  8232  8166
    4 8166  8232  8233  8167
    4 8167  8233  8234  8168
    4 8168  8234  8235  8169
    4 8169  8235  8236  8170
    4 8170  8236  8237  8171
    4 8171  8237  8238  8172
    4 8172  8238  8239  8173
    4 8173  8239  8240  8174
    4 8174  8240  8241  8175
    4 8175  8241  8242  8176
    4 8176  8242  8243  8177
    4 8177  8243  8244  8178
    4 8178  8244  8245  8179
    4 8179  8245  8246  8180
    4 8180  8246  8247  8181
    4 8181  8247  8248  8182
    4 8182  8248  8249  8183
    4 8217  8283  8284  8218
    4 8218  8284  8285  8219
    4 8219  8285  8286  8220
    4 8220  8286  8287  8221
    4 8221  8287  8288  8222
    4 8222  8288  8289  8223
    4 8223  8289  8290  8224
    4 8224  8290  8291  8225
    4 8225  8291  8292  8226
    4 8226  8292  8293  8227
    4 8227  8293  8294  8228
    4 8228  8294  8295  8229
    4 8229  8295  8296  8230
    4 8230  8296  8297  8231
    4 8231  8297  8298  8232
    4 8232  8298  8299  8233
    4 8233  8299  8300  8234
    4 8234  8300  8301  8235
    4 8235  8301  8302  8236
    4 8236  8302  8303  8237
    4 8237  8303  8304  8238
    4 8238  8304  8305  8239
    4 8239  8305  8306  8240
    4 8240  8306  8307  8241
    4 8241  8307  8308  8242
    4 8242  8308  8309  8243
    4 8243  8309  8310  8244
    4 8244  8310  8311  8245
    4 8245  8311  8312  8246
    4 8246  8312  8313  8247
    4 8247  8313  8314  8248
    4 8248  8314  8315  8249
    4 8283  8349  8350  8284
    4 8284  8350  8351  8285
    4 8285  8351  8352  8286
    4 8286  8352  8353  8287
    4 8287  8353  8354  8288
    4 8288  8354  8355  8289
    4 8289  8355  8356  8290
    4 8290  8356  8357  8291
    4 8291  8357  8358  8292
    4 8292  8358  8359  8293
    4 8293  8359  8360  8294
    4 8294  8360  8361  8295
    4 8295  8361  8362  8296
    4 8296  8362  8363  8297
    4 8297  8363  8364  8298
    4 8298  8364  8365  8299
    4 8299  8365  8366  8300
    4 8300  8366  8367  8301
    4 8301  8367  8368  8302
    4 8302  8368  8369  8303
    4 8303  8369  8370  8304
    4 8304  8370  8371  8305
    4 8305  8371  8372  8306
    4 8306  8372  8373  8307
    4 8307  8373  8374  8308
    4 8308  8374  8375  8309
    4 8309  8375  8376  8310
    4 8310  8376  8377  8311
    4 8311  8377  8378  8312
    4 8312  8378  8379  8313
    4 8313  8379  8380  8314
    4 8314  8380  8381  8315
    4 8349  8415  8416  8350
    4 8350  8416  8417  8351
    4 8351  8417  8418  8352
    4 8352  8418  8419  8353
    4 8353  8419  8420  8354
    4 8354  8420  8421  8355
    4 8355  8421  8422  8356
    4 8356  8422  8423  8357
    4 8357  8423  8424  8358
    4 8358  8424  8425  8359
    4 8359  8425  8426  8360
    4 8360  8426  8427  8361
    4 8361  8427  8428  8362
    4 8362  8428  8429  8363
    4 8363  8429  8430  8364
    4 8364  8430  8431  8365
    4 8365  8431  8432  8366
    4 8366  8432  8433  8367
    4 8367  8433  8434  8368
    4 8368  8434  8435  8369
    4 8369  8435  8436  8370
    4 8370  8436  8437  8371
    4 8371  8437  8438  8372
    4 8372  8438  8439  8373
    4 8373  8439  8440  8374
    4 8374  8440  8441  8375
    4 8375  8441  8442  8376
    4 8376  8442  8443  8377
    4 8377  8443  8444  8378
    4 8378  8444  8445  8379
    4 8379  8445  8446  8380
    4 8380  8446  8447  8381
    4 8415  8382  8383  8416
    4 8416  8383  8384  8417
    4 8417  8384  8385  8418
    4 8418  8385  8386  8419
    4 8419  8386  8387  8420
    4 8420  8387  8388  8421
    4 8421  8388  8389  8422
    4 8422  8389  8390  8423
    4 8423  8390  8391  8424
    4 8424  8391  8392  8425
    4 8425  8392  8393  8426
    4 8426  8393  8394  8427
    4 8427  8394  8395  8428
    4 8428  8395  8396  8429
    4 8429  8396  8397  8430
    4 8430  8397  8398  8431
    4 8431  8398  8399  8432
    4 8432  8399  8400  8433
    4 8433  8400  8401  8434
    4 8434  8401  8402  8435
    4 8435  8402  8403  8436
    4 8436  8403  8404  8437
    4 8437  8404  8405  8438
    4 8438  8405  8406  8439
    4 8439  8406  8407  8440
    4 8440  8407  8408  8441
    4 8441  8408  8409  8442
    4 8442  8409  8410  8443
    4 8443  8410  8411  8444
    4 8444  8411  8412  8445
    4 8445  8412  8413  8446
    4 8446  8413  8414  8447
    4 8382  8316  8317  8383
    4 8383  8317  8318  8384
    4 8384  8318  8319  8385
    4 8385  8319  8320  8386
    4 8386  8320  8321  8387
    4 8387  8321  8322  8388
    4 8388  8322  8323  8389
    4 8389  8323  8324  8390
    4 8390  8324  8325  8391
    4 8391  8325  8326  8392
    4 8392  8326  8327  8393
    4 8393  8327  8328  8394
    4 8394  8328  8329  8395
    4 8395  8329  8330  8396
    4 8396  8330  8331  8397
    4 8397  8331  8332  8398
    4 8398  8332  8333  8399
    4 8399  8333  8334  8400
    4 8400  8334  8335  8401
    4 8401  8335  8336  8402
    4 8402  8336  8337  8403
    4 8403  8337  8338  8404
    4 8404  8338  8339  8405
    4 8405  8339  8340  8406
    4 8406  8340  8341  8407
    4 8407  8341  8342  8408
    4 8408  8342  8343  8409
    4 8409  8343  8344  8410
    4 8410  8344  8345  8411
    4 8411  8345  8346  8412
    4 8412  8346  8347  8413
    4 8413  8347  8348  8414
    4 8316  8250  8251  8317
    4 8317  8251  8252  8318
    4 8318  8252  8253  8319
    4 8319  8253  8254  8320
    4 8320  8254  8255  8321
    4 8321  8255  8256  8322
    4 8322  8256  8257  8323
    4 8323  8257  8258  8324
    4 8324  8258  8259  8325
    4 8325  8259  8260  8326
    4 8326  8260  8261  8327
    4 8327  8261  8262  8328
    4 8328  8262  8263  8329
    4 8329  8263  8264  8330
    4 8330  8264  8265  8331
    4 8331  8265  8266  8332
    4 8332  8266  8267  8333
    4 8333  8267  8268  8334
    4 8334  8268  8269  8335
    4 8335  8269  8270  8336
    4 8336  8270  8271  8337
    4 8337  8271  8272  8338
    4 8338  8272  8273  8339
    4 8339  8273  8274  8340
    4 8340  8274  8275  8341
    4 8341  8275  8276  8342
    4 8342  8276  8277  8343
    4 8343  8277  8278  8344
    4 8344  8278  8279  8345
    4 8345  8279  8280  8346
    4 8346  8280  8281  8347
    4 8347  8281  8282  8348
    4 8250  8184  8185  8251
    4 8251  8185  8186  8252
    4 8252  8186  8187  8253
    4 8253  8187  8188  8254
    4 8254  8188  8189  8255
    4 8255  8189  8190  8256
    4 8256  8190  8191  8257
    4 8257  8191  8192  8258
    4 8258  8192  8193  8259
    4 8259  8193  8194  8260
    4 8260  8194  8195  8261
    4 8261  8195  8196  8262
    4 8262  8196  8197  8263
    4 8263  8197  8198  8264
    4 8264  8198  8199  8265
    4 8265  8199  8200  8266
    4 8266  8200  8201  8267
    4 8267  8201  8202  8268
    4 8268  8202  8203  8269
    4 8269  8203  8204  8270
    4 8270  8204  8205  8271
    4 8271  8205  8206  8272
    4 8272  8206  8207  8273
    4 8273  8207  8208  8274
    4 8274  8208  8209  8275
    4 8275  8209  8210  8276
    4 8276  8210  8211  8277
    4 8277  8211  8212  8278
    4 8278  8212  8213  8279
    4 8279  8213  8214  8280
    4 8280  8214  8215  8281
    4 8281  8215  8216  8282
    4 8184  8118  8119  8185
    4 8185  8119  8120  8186
    4 8186  8120  8121  8187
    4 8187  8121  8122  8188
    4 8188  8122  8123  8189
    4 8189  8123  8124  8190
    4 8190  8124  8125  8191
    4 8191  8125  8126  8192
    4 8192  8126  8127  8193
    4 8193  8127  8128  8194
    4 8194  8128  8129  8195
    4 8195  8129  8130  8196
    4 8196  8130  8131  8197
    4 8197  8131  8132  8198
    4 8198  8132  8133  8199
    4 8199  8133  8134  8200
    4 8200  8134  8135  8201
    4 8201  8135  8136  8202
    4 8202  8136  8137  8203
    4 8203  8137  8138  8204
    4 8204  8138  8139  8205
    4 8205  8139  8140  8206
    4 8206  8140  8141  8207
    4 8207  8141  8142  8208
    4 8208  8142  8143  8209
    4 8209  8143  8144  8210
    4 8210  8144  8145  8211
    4 8211  8145  8146  8212
    4 8212  8146  8147  8213
    4 8213  8147  8148  8214
    4 8214  8148  8149  8215
    4 8215  8149  8150  8216
    4 8118  8052  8053  8119
    4 8119  8053  8054  8120
    4 8120  8054  8055  8121
    4 8121  8055  8056  8122
    4 8122  8056  8057  8123
    4 8123  8057  8058  8124
    4 8124  8058  8059  8125
    4 8125  8059  8060  8126
    4 8126  8060  8061  8127
    4 8127  8061  8062  8128
    4 8128  8062  8063  8129
    4 8129  8063  8064  8130
    4 8130  8064  8065  8131
    4 8131  8065  8066  8132
    4 8132  8066  8067  8133
    4 8133  8067  8068  8134
    4 8134  8068  8069  8135
    4 8135  8069  8070  8136
    4 8136  8070  8071  8137
    4 8137  8071  8072  8138
    4 8138  8072  8073  8139
    4 8139  8073  8074  8140
    4 8140  8074  8075  8141
    4 8141  8075  8076  8142
    4 8142  8076  8077  8143
    4 8143  8077  8078  8144
    4 8144  8078  8079  8145
    4 8145  8079  8080  8146
    4 8146  8080  8081  8147
    4 8147  8081  8082  8148
    4 8148  8082  8083  8149
    4 8149  8083  8084  8150
    4 8052  7986  7987  8053
    4 8053  7987  7988  8054
    4 8054  7988  7989  8055
    4 8055  7989  7990  8056
    4 8056  7990  7991  8057
    4 8057  7991  7992  8058
    4 8058  7992  7993  8059
    4 8059  7993  7994  8060
    4 8060  7994  7995  8061
    4 8061  7995  7996  8062
    4 8062  7996  7997  8063
    4 8063  7997  7998  8064
    4 8064  7998  7999  8065
    4 8065  7999  8000  8066
    4 8066  8000  8001  8067
    4 8067  8001  8002  8068
    4 8068  8002  8003  8069
    4 8069  8003  8004  8070
    4 8070  8004  8005  8071
    4 8071  8005  8006  8072
    4 8072  8006  8007  8073
    4 8073  8007  8008  8074
    4 8074  8008  8009  8075
    4 8075  8009  8010  8076
    4 8076  8010  8011  8077
    4 8077  8011  8012  8078
    4 8078  8012  8013  8079
    4 8079  8013  8014  8080
    4 8080  8014  8015  8081
    4 8081  8015  8016  8082
    4 8082  8016  8017  8083
    4 8083  8017  8018  8084
    4 7986  7920  7921  7987
    4 7987  7921  7922  7988
    4 7988  7922  7923  7989
    4 7989  7923  7924  7990
    4 7990  7924  7925  7991
    4 7991  7925  7926  7992
    4 7992  7926  7927  7993
    4 7993  7927  7928  7994
    4 7994  7928  7929  7995
    4 7995  7929  7930  7996
    4 7996  7930  7931  7997
    4 7997  7931  7932  7998
    4 7998  7932  7933  7999
    4 7999  7933  7934  8000
    4 8000  7934  7935  8001
    4 8001  7935  7936  8002
    4 8002  7936  7937  8003
    4 8003  7937  7938  8004
    4 8004  7938  7939  8005
    4 8005  7939  7940  8006
    4 8006  7940  7941  8007
    4 8007  7941  7942  8008
    4 8008  7942  7943  8009
    4 8009  7943  7944  8010
    4 8010  7944  7945  8011
    4 8011  7945  7946  8012
    4 8012  7946  7947  8013
    4 8013  7947  7948  8014
    4 8014  7948  7949  8015
    4 8015  7949  7950  8016
    4 8016  7950  7951  8017
    4 8017  7951  7952  8018
    4 7920  7854  7855  7921
    4 7921  7855  7856  7922
    4 7922  7856  7857  7923
    4 7923  7857  7858  7924
    4 7924  7858  7859  7925
    4 7925  7859  7860  7926
    4 7926  7860  7861  7927
    4 7927  7861  7862  7928
    4 7928  7862  7863  7929
    4 7929  7863  7864  7930
    4 7930  7864  7865  7931
    4 7931  7865  7866  7932
    4 7932  7866  7867  7933
    4 7933  7867  7868  7934
    4 7934  7868  7869  7935
    4 7935  7869  7870  7936
    4 7936  7870  7871  7937
    4 7937  7871  7872  7938
    4 7938  7872  7873  7939
    4 7939  7873  7874  7940
    4 7940  7874  7875  7941
    4 7941  7875  7876  7942
    4 7942  7876  7877  7943
    4 7943  7877  7878  7944
    4 7944  7878  7879  7945
    4 7945  7879  7880  7946
    4 7946  7880  7881  7947
    4 7947  7881  7882  7948
    4 7948  7882  7883  7949
    4 7949  7883  7884  7950
    4 7950  7884  7885  7951
    4 7951  7885  7886  7952
    4 7854  7788  7789  7855
    4 7855  7789  7790  7856
    4 7856  7790  7791  7857
    4 7857  7791  7792  7858
    4 7858  7792  7793  7859
    4 7859  7793  7794  7860
    4 7860  7794  7795  7861
    4 7861  7795  7796  7862
    4 7862  7796  7797  7863
    4 7863  7797  7798  7864
    4 7864  7798  7799  7865
    4 7865  7799  7800  7866
    4 7866  7800  7801  7867
    4 7867  7801  7802  7868
    4 7868  7802  7803  7869
    4 7869  7803  7804  7870
    4 7870  7804  7805  7871
    4 7871  7805  7806  7872
    4 7872  7806  7807  7873
    4 7873  7807  7808  7874
    4 7874  7808  7809  7875
    4 7875  7809  7810  7876
    4 7876  7810  7811  7877
    4 7877  7811  7812  7878
    4 7878  7812  7813  7879
    4 7879  7813  7814  7880
    4 7880  7814  7815  7881
    4 7881  7815  7816  7882
    4 7882  7816  7817  7883
    4 7883  7817  7818  7884
    4 7884  7818  7819  7885
    4 7885  7819  7820  7886
    4 7788  7722  7723  7789
    4 7789  7723  7724  7790
    4 7790  7724  7725  7791
    4 7791  7725  7726  7792
    4 7792  7726  7727  7793
    4 7793  7727  7728  7794
    4 7794  7728  7729  7795
    4 7795  7729  7730  7796
    4 7796  7730  7731  7797
    4 7797  7731  7732  7798
    4 7798  7732  7733  7799
    4 7799  7733  7734  7800
    4 7800  7734  7735  7801
    4 7801  7735  7736  7802
    4 7802  7736  7737  7803
    4 7803  7737  7738  7804
    4 7804  7738  7739  7805
    4 7805  7739  7740  7806
    4 7806  7740  7741  7807
    4 7807  7741  7742  7808
    4 7808  7742  7743  7809
    4 7809  7743  7744  7810
    4 7810  7744  7745  7811
    4 7811  7745  7746  7812
    4 7812  7746  7747  7813
    4 7813  7747  7748  7814
    4 7814  7748  7749  7815
    4 7815  7749  7750  7816
    4 7816  7750  7751  7817
    4 7817  7751  7752  7818
    4 7818  7752  7753  7819
    4 7819  7753  7754  7820
    4 7722  7656  7657  7723
    4 7723  7657  7658  7724
    4 7724  7658  7659  7725
    4 7725  7659  7660  7726
    4 7726  7660  7661  7727
    4 7727  7661  7662  7728
    4 7728  7662  7663  7729
    4 7729  7663  7664  7730
    4 7730  7664  7665  7731
    4 7731  7665  7666  7732
    4 7732  7666  7667  7733
    4 7733  7667  7668  7734
    4 7734  7668  7669  7735
    4 7735  7669  7670  7736
    4 7736  7670  7671  7737
    4 7737  7671  7672  7738
    4 7738  7672  7673  7739
    4 7739  7673  7674  7740
    4 7740  7674  7675  7741
    4 7741  7675  7676  7742
    4 7742  7676  7677  7743
    4 7743  7677  7678  7744
    4 7744  7678  7679  7745
    4 7745  7679  7680  7746
    4 7746  7680  7681  7747
    4 7747  7681  7682  7748
    4 7748  7682  7683  7749
    4 7749  7683  7684  7750
    4 7750  7684  7685  7751
    4 7751  7685  7686  7752
    4 7752  7686  7687  7753
    4 7753  7687  7688  7754
    4 7656  7590  7591  7657
    4 7657  7591  7592  7658
    4 7658  7592  7593  7659
    4 7659  7593  7594  7660
    4 7660  7594  7595  7661
    4 7661  7595  7596  7662
    4 7662  7596  7597  7663
    4 7663  7597  7598  7664
    4 7664  7598  7599  7665
    4 7665  7599  7600  7666
    4 7666  7600  7601  7667
    4 7667  7601  7602  7668
    4 7668  7602  7603  7669
    4 7669  7603  7604  7670
    4 7670  7604  7605  7671
    4 7671  7605  7606  7672
    4 7672  7606  7607  7673
    4 7673  7607  7608  7674
    4 7674  7608  7609  7675
    4 7675  7609  7610  7676
    4 7676  7610  7611  7677
    4 7677  7611  7612  7678
    4 7678  7612  7613  7679
    4 7679  7613  7614  7680
    4 7680  7614  7615  7681
    4 7681  7615  7616  7682
    4 7682  7616  7617  7683
    4 7683  7617  7618  7684
    4 7684  7618  7619  7685
    4 7685  7619  7620  7686
    4 7686  7620  7621  7687
    4 7687  7621  7622  7688
    4 7590  7524  7525  7591
    4 7591  7525  7526  7592
    4 7592  7526  7527  7593
    4 7593  7527  7528  7594
    4 7594  7528  7529  7595
    4 7595  7529  7530  7596
    4 7596  7530  7531  7597
    4 7597  7531  7532  7598
    4 7598  7532  7533  7599
    4 7599  7533  7534  7600
    4 7600  7534  7535  7601
    4 7601  7535  7536  7602
    4 7602  7536  7537  7603
    4 7603  7537  7538  7604
    4 7604  7538  7539  7605
    4 7605  7539  7540  7606
    4 7606  7540  7541  7607
    4 7607  7541  7542  7608
    4 7608  7542  7543  7609
    4 7609  7543  7544  7610
    4 7610  7544  7545  7611
    4 7611  7545  7546  7612
    4 7612  7546  7547  7613
    4 7613  7547  7548  7614
    4 7614  7548  7549  7615
    4 7615  7549  7550  7616
    4 7616  7550  7551  7617
    4 7617  7551  7552  7618
    4 7618  7552  7553  7619
    4 7619  7553  7554  7620
    4 7620  7554  7555  7621
    4 7621  7555  7556  7622
    4 7524  7458  7459  7525
    4 7525  7459  7460  7526
    4 7526  7460  7461  7527
    4 7527  7461  7462  7528
    4 7528  7462  7463  7529
    4 7529  7463  7464  7530
    4 7530  7464  7465  7531
    4 7531  7465  7466  7532
    4 7532  7466  7467  7533
    4 7533  7467  7468  7534
    4 7534  7468  7469  7535
    4 7535  7469  7470  7536
    4 7536  7470  7471  7537
    4 7537  7471  7472  7538
    4 7538  7472  7473  7539
    4 7539  7473  7474  7540
    4 7540  7474  7475  7541
    4 7541  7475  7476  7542
    4 7542  7476  7477  7543
    4 7543  7477  7478  7544
    4 7544  7478  7479  7545
    4 7545  7479  7480  7546
    4 7546  7480  7481  7547
    4 7547  7481  7482  7548
    4 7548  7482  7483  7549
    4 7549  7483  7484  7550
    4 7550  7484  7485  7551
    4 7551  7485  7486  7552
    4 7552  7486  7487  7553
    4 7553  7487  7488  7554
    4 7554  7488  7489  7555
    4 7555  7489  7490  7556
    4 7458  7392  7393  7459
    4 7459  7393  7394  7460
    4 7460  7394  7395  7461
    4 7461  7395  7396  7462
    4 7462  7396  7397  7463
    4 7463  7397  7398  7464
    4 7464  7398  7399  7465
    4 7465  7399  7400  7466
    4 7466  7400  7401  7467
    4 7467  7401  7402  7468
    4 7468  7402  7403  7469
    4 7469  7403  7404  7470
    4 7470  7404  7405  7471
    4 7471  7405  7406  7472
    4 7472  7406  7407  7473
    4 7473  7407  7408  7474
    4 7474  7408  7409  7475
    4 7475  7409  7410  7476
    4 7476  7410  7411  7477
    4 7477  7411  7412  7478
    4 7478  7412  7413  7479
    4 7479  7413  7414  7480
    4 7480  7414  7415  7481
    4 7481  7415  7416  7482
    4 7482  7416  7417  7483
    4 7483  7417  7418  7484
    4 7484  7418  7419  7485
    4 7485  7419  7420  7486
    4 7486  7420  7421  7487
    4 7487  7421  7422  7488
    4 7488  7422  7423  7489
    4 7489  7423  7424  7490
    4 7392  7326  7327  7393
    4 7393  7327  7328  7394
    4 7394  7328  7329  7395
    4 7395  7329  7330  7396
    4 7396  7330  7331  7397
    4 7397  7331  7332  7398
    4 7398  7332  7333  7399
    4 7399  7333  7334  7400
    4 7400  7334  7335  7401
    4 7401  7335  7336  7402
    4 7402  7336  7337  7403
    4 7403  7337  7338  7404
    4 7404  7338  7339  7405
    4 7405  7339  7340  7406
    4 7406  7340  7341  7407
    4 7407  7341  7342  7408
    4 7408  7342  7343  7409
    4 7409  7343  7344  7410
    4 7410  7344  7345  7411
    4 7411  7345  7346  7412
    4 7412  7346  7347  7413
    4 7413  7347  7348  7414
    4 7414  7348  7349  7415
    4 7415  7349  7350  7416
    4 7416  7350  7351  7417
    4 7417  7351  7352  7418
    4 7418  7352  7353  7419
    4 7419  7353  7354  7420
    4 7420  7354  7355  7421
    4 7421  7355  7356  7422
    4 7422  7356  7357  7423
    4 7423  7357  7358  7424
    4 7326  7260  7261  7327
    4 7327  7261  7262  7328
    4 7328  7262  7263  7329
    4 7329  7263  7264  7330
    4 7330  7264  7265  7331
    4 7331  7265  7266  7332
    4 7332  7266  7267  7333
    4 7333  7267  7268  7334
    4 7334  7268  7269  7335
    4 7335  7269  7270  7336
    4 7336  7270  7271  7337
    4 7337  7271  7272  7338
    4 7338  7272  7273  7339
    4 7339  7273  7274  7340
    4 7340  7274  7275  7341
    4 7341  7275  7276  7342
    4 7342  7276  7277  7343
    4 7343  7277  7278  7344
    4 7344  7278  7279  7345
    4 7345  7279  7280  7346
    4 7346  7280  7281  7347
    4 7347  7281  7282  7348
    4 7348  7282  7283  7349
    4 7349  7283  7284  7350
    4 7350  7284  7285  7351
    4 7351  7285  7286  7352
    4 7352  7286  7287  7353
    4 7353  7287  7288  7354
    4 7354  7288  7289  7355
    4 7355  7289  7290  7356
    4 7356  7290  7291  7357
    4 7357  7291  7292  7358
    4 7260  7194  7195  7261
    4 7261  7195  7196  7262
    4 7262  7196  7197  7263
    4 7263  7197  7198  7264
    4 7264  7198  7199  7265
    4 7265  7199  7200  7266
    4 7266  7200  7201  7267
    4 7267  7201  7202  7268
    4 7268  7202  7203  7269
    4 7269  7203  7204  7270
    4 7270  7204  7205  7271
    4 7271  7205  7206  7272
    4 7272  7206  7207  7273
    4 7273  7207  7208  7274
    4 7274  7208  7209  7275
    4 7275  7209  7210  7276
    4 7276  7210  7211  7277
    4 7277  7211  7212  7278
    4 7278  7212  7213  7279
    4 7279  7213  7214  7280
    4 7280  7214  7215  7281
    4 7281  7215  7216  7282
    4 7282  7216  7217  7283
    4 7283  7217  7218  7284
    4 7284  7218  7219  7285
    4 7285  7219  7220  7286
    4 7286  7220  7221  7287
    4 7287  7221  7222  7288
    4 7288  7222  7223  7289
    4 7289  7223  7224  7290
    4 7290  7224  7225  7291
    4 7291  7225  7226  7292
    4 7194  7128  7129  7195
    4 7195  7129  7130  7196
    4 7196  7130  7131  7197
    4 7197  7131  7132  7198
    4 7198  7132  7133  7199
    4 7199  7133  7134  7200
    4 7200  7134  7135  7201
    4 7201  7135  7136  7202
    4 7202  7136  7137  7203
    4 7203  7137  7138  7204
    4 7204  7138  7139  7205
    4 7205  7139  7140  7206
    4 7206  7140  7141  7207
    4 7207  7141  7142  7208
    4 7208  7142  7143  7209
    4 7209  7143  7144  7210
    4 7210  7144  7145  7211
    4 7211  7145  7146  7212
    4 7212  7146  7147  7213
    4 7213  7147  7148  7214
    4 7214  7148  7149  7215
    4 7215  7149  7150  7216
    4 7216  7150  7151  7217
    4 7217  7151  7152  7218
    4 7218  7152  7153  7219
    4 7219  7153  7154  7220
    4 7220  7154  7155  7221
    4 7221  7155  7156  7222
    4 7222  7156  7157  7223
    4 7223  7157  7158  7224
    4 7224  7158  7159  7225
    4 7225  7159  7160  7226
    4 7128  7062  7063  7129
    4 7129  7063  7064  7130
    4 7130  7064  7065  7131
    4 7131  7065  7066  7132
    4 7132  7066  7067  7133
    4 7133  7067  7068  7134
    4 7134  7068  7069  7135
    4 7135  7069  7070  7136
    4 7136  7070  7071  7137
    4 7137  7071  7072  7138
    4 7138  7072  7073  7139
    4 7139  7073  7074  7140
    4 7140  7074  7075  7141
    4 7141  7075  7076  7142
    4 7142  7076  7077  7143
    4 7143  7077  7078  7144
    4 7144  7078  7079  7145
    4 7145  7079  7080  7146
    4 7146  7080  7081  7147
    4 7147  7081  7082  7148
    4 7148  7082  7083  7149
    4 7149  7083  7084  7150
    4 7150  7084  7085  7151
    4 7151  7085  7086  7152
    4 7152  7086  7087  7153
    4 7153  7087  7088  7154
    4 7154  7088  7089  7155
    4 7155  7089  7090  7156
    4 7156  7090  7091  7157
    4 7157  7091  7092  7158
    4 7158  7092  7093  7159
    4 7159  7093  7094  7160
    4 7062  6996  6997  7063
    4 7063  6997  6998  7064
    4 7064  6998  6999  7065
    4 7065  6999  7000  7066
    4 7066  7000  7001  7067
    4 7067  7001  7002  7068
    4 7068  7002  7003  7069
    4 7069  7003  7004  7070
    4 7070  7004  7005  7071
    4 7071  7005  7006  7072
    4 7072  7006  7007  7073
    4 7073  7007  7008  7074
    4 7074  7008  7009  7075
    4 7075  7009  7010  7076
    4 7076  7010  7011  7077
    4 7077  7011  7012  7078
    4 7078  7012  7013  7079
    4 7079  7013  7014  7080
    4 7080  7014  7015  7081
    4 7081  7015  7016  7082
    4 7082  7016  7017  7083
    4 7083  7017  7018  7084
    4 7084  7018  7019  7085
    4 7085  7019  7020  7086
    4 7086  7020  7021  7087
    4 7087  7021  7022  7088
    4 7088  7022  7023  7089
    4 7089  7023  7024  7090
    4 7090  7024  7025  7091
    4 7091  7025  7026  7092
    4 7092  7026  7027  7093
    4 7093  7027  7028  7094
    4 6996  6930  6931  6997
    4 6997  6931  6932  6998
    4 6998  6932  6933  6999
    4 6999  6933  6934  7000
    4 7000  6934  6935  7001
    4 7001  6935  6936  7002
    4 7002  6936  6937  7003
    4 7003  6937  6938  7004
    4 7004  6938  6939  7005
    4 7005  6939  6940  7006
    4 7006  6940  6941  7007
    4 7007  6941  6942  7008
    4 7008  6942  6943  7009
    4 7009  6943  6944  7010
    4 7010  6944  6945  7011
    4 7011  6945  6946  7012
    4 7012  6946  6947  7013
    4 7013  6947  6948  7014
    4 7014  6948  6949  7015
    4 7015  6949  6950  7016
    4 7016  6950  6951  7017
    4 7017  6951  6952  7018
    4 7018  6952  6953  7019
    4 7019  6953  6954  7020
    4 7020  6954  6955  7021
    4 7021  6955  6956  7022
    4 7022  6956  6957  7023
    4 7023  6957  6958  7024
    4 7024  6958  6959  7025
    4 7025  6959  6960  7026
    4 7026  6960  6961  7027
    4 7027  6961  6962  7028
    4 6930  6864  6865  6931
    4 6931  6865  6866  6932
    4 6932  6866  6867  6933
    4 6933  6867  6868  6934
    4 6934  6868  6869  6935
    4 6935  6869  6870  6936
    4 6936  6870  6871  6937
    4 6937  6871  6872  6938
    4 6938  6872  6873  6939
    4 6939  6873  6874  6940
    4 6940  6874  6875  6941
    4 6941  6875  6876  6942
    4 6942  6876  6877  6943
    4 6943  6877  6878  6944
    4 6944  6878  6879  6945
    4 6945  6879  6880  6946
    4 6946  6880  6881  6947
    4 6947  6881  6882  6948
    4 6948  6882  6883  6949
    4 6949  6883  6884  6950
    4 6950  6884  6885  6951
    4 6951  6885  6886  6952
    4 6952  6886  6887  6953
    4 6953  6887  6888  6954
    4 6954  6888  6889  6955
    4 6955  6889  6890  6956
    4 6956  6890  6891  6957
    4 6957  6891  6892  6958
    4 6958  6892  6893  6959
    4 6959  6893  6894  6960
    4 6960  6894  6895  6961
    4 6961  6895  6896  6962
    4 6864  6798  6799  6865
    4 6865  6799  6800  6866
    4 6866  6800  6801  6867
    4 6867  6801  6802  6868
    4 6868  6802  6803  6869
    4 6869  6803  6804  6870
    4 6870  6804  6805  6871
    4 6871  6805  6806  6872
    4 6872  6806  6807  6873
    4 6873  6807  6808  6874
    4 6874  6808  6809  6875
    4 6875  6809  6810  6876
    4 6876  6810  6811  6877
    4 6877  6811  6812  6878
    4 6878  6812  6813  6879
    4 6879  6813  6814  6880
    4 6880  6814  6815  6881
    4 6881  6815  6816  6882
    4 6882  6816  6817  6883
    4 6883  6817  6818  6884
    4 6884  6818  6819  6885
    4 6885  6819  6820  6886
    4 6886  6820  6821  6887
    4 6887  6821  6822  6888
    4 6888  6822  6823  6889
    4 6889  6823  6824  6890
    4 6890  6824  6825  6891
    4 6891  6825  6826  6892
    4 6892  6826  6827  6893
    4 6893  6827  6828  6894
    4 6894  6828  6829  6895
    4 6895  6829  6830  6896
    4 6798  6732  6733  6799
    4 6799  6733  6734  6800
    4 6800  6734  6735  6801
    4 6801  6735  6736  6802
    4 6802  6736  6737  6803
    4 6803  6737  6738  6804
    4 6804  6738  6739  6805
    4 6805  6739  6740  6806
    4 6806  6740  6741  6807
    4 6807  6741  6742  6808
    4 6808  6742  6743  6809
    4 6809  6743  6744  6810
    4 6810  6744  6745  6811
    4 6811  6745  6746  6812
    4 6812  6746  6747  6813
    4 6813  6747  6748  6814
    4 6814  6748  6749  6815
    4 6815  6749  6750  6816
    4 6816  6750  6751  6817
    4 6817  6751  6752  6818
    4 6818  6752  6753  6819
    4 6819  6753  6754  6820
    4 6820  6754  6755  6821
    4 6821  6755  6756  6822
    4 6822  6756  6757  6823
    4 6823  6757  6758  6824
    4 6824  6758  6759  6825
    4 6825  6759  6760  6826
    4 6826  6760  6761  6827
    4 6827  6761  6762  6828
    4 6828  6762  6763  6829
    4 6829  6763  6764  6830
    4 6732  6666  6667  6733
    4 6733  6667  6668  6734
    4 6734  6668  6669  6735
    4 6735  6669  6670  6736
    4 6736  6670  6671  6737
    4 6737  6671  6672  6738
    4 6738  6672  6673  6739
    4 6739  6673  6674  6740
    4 6740  6674  6675  6741
    4 6741  6675  6676  6742
    4 6742  6676  6677  6743
    4 6743  6677  6678  6744
    4 6744  6678  6679  6745
    4 6745  6679  6680  6746
    4 6746  6680  6681  6747
    4 6747  6681  6682  6748
    4 6748  6682  6683  6749
    4 6749  6683  6684  6750
    4 6750  6684  6685  6751
    4 6751  6685  6686  6752
    4 6752  6686  6687  6753
    4 6753  6687  6688  6754
    4 6754  6688  6689  6755
    4 6755  6689  6690  6756
    4 6756  6690  6691  6757
    4 6757  6691  6692  6758
    4 6758  6692  6693  6759
    4 6759  6693  6694  6760
    4 6760  6694  6695  6761
    4 6761  6695  6696  6762
    4 6762  6696  6697  6763
    4 6763  6697  6698  6764
    4 6666  6600  6601  6667
    4 6667  6601  6602  6668
    4 6668  6602  6603  6669
    4 6669  6603  6604  6670
    4 6670  6604  6605  6671
    4 6671  6605  6606  6672
    4 6672  6606  6607  6673
    4 6673  6607  6608  6674
    4 6674  6608  6609  6675
    4 6675  6609  6610  6676
    4 6676  6610  6611  6677
    4 6677  6611  6612  6678
    4 6678  6612  6613  6679
    4 6679  6613  6614  6680
    4 6680  6614  6615  6681
    4 6681  6615  6616  6682
    4 6682  6616  6617  6683
    4 6683  6617  6618  6684
    4 6684  6618  6619  6685
    4 6685  6619  6620  6686
    4 6686  6620  6621  6687
    4 6687  6621  6622  6688
    4 6688  6622  6623  6689
    4 6689  6623  6624  6690
    4 6690  6624  6625  6691
    4 6691  6625  6626  6692
    4 6692  6626  6627  6693
    4 6693  6627  6628  6694
    4 6694  6628  6629  6695
    4 6695  6629  6630  6696
    4 6696  6630  6631  6697
    4 6697  6631  6632  6698
    4 6600  6534  6535  6601
    4 6601  6535  6536  6602
    4 6602  6536  6537  6603
    4 6603  6537  6538  6604
    4 6604  6538  6539  6605
    4 6605  6539  6540  6606
    4 6606  6540  6541  6607
    4 6607  6541  6542  6608
    4 6608  6542  6543  6609
    4 6609  6543  6544  6610
    4 6610  6544  6545  6611
    4 6611  6545  6546  6612
    4 6612  6546  6547  6613
    4 6613  6547  6548  6614
    4 6614  6548  6549  6615
    4 6615  6549  6550  6616
    4 6616  6550  6551  6617
    4 6617  6551  6552  6618
    4 6618  6552  6553  6619
    4 6619  6553  6554  6620
    4 6620  6554  6555  6621
    4 6621  6555  6556  6622
    4 6622  6556  6557  6623
    4 6623  6557  6558  6624
    4 6624  6558  6559  6625
    4 6625  6559  6560  6626
    4 6626  6560  6561  6627
    4 6627  6561  6562  6628
    4 6628  6562  6563  6629
    4 6629  6563  6564  6630
    4 6630  6564  6565  6631
    4 6631  6565  6566  6632
    4 6534  6468  6469  6535
    4 6535  6469  6470  6536
    4 6536  6470  6471  6537
    4 6537  6471  6472  6538
    4 6538  6472  6473  6539
    4 6539  6473  6474  6540
    4 6540  6474  6475  6541
    4 6541  6475  6476  6542
    4 6542  6476  6477  6543
    4 6543  6477  6478  6544
    4 6544  6478  6479  6545
    4 6545  6479  6480  6546
    4 6546  6480  6481  6547
    4 6547  6481  6482  6548
    4 6548  6482  6483  6549
    4 6549  6483  6484  6550
    4 6550  6484  6485  6551
    4 6551  6485  6486  6552
    4 6552  6486  6487  6553
    4 6553  6487  6488  6554
    4 6554  6488  6489  6555
    4 6555  6489  6490  6556
    4 6556  6490  6491  6557
    4 6557  6491  6492  6558
    4 6558  6492  6493  6559
    4 6559  6493  6494  6560
    4 6560  6494  6495  6561
    4 6561  6495  6496  6562
    4 6562  6496  6497  6563
    4 6563  6497  6498  6564
    4 6564  6498  6499  6565
    4 6565  6499  6500  6566
    4 6468  6402  6403  6469
    4 6469  6403  6404  6470
    4 6470  6404  6405  6471
    4 6471  6405  6406  6472
    4 6472  6406  6407  6473
    4 6473  6407  6408  6474
    4 6474  6408  6409  6475
    4 6475  6409  6410  6476
    4 6476  6410  6411  6477
    4 6477  6411  6412  6478
    4 6478  6412  6413  6479
    4 6479  6413  6414  6480
    4 6480  6414  6415  6481
    4 6481  6415  6416  6482
    4 6482  6416  6417  6483
    4 6483  6417  6418  6484
    4 6484  6418  6419  6485
    4 6485  6419  6420  6486
    4 6486  6420  6421  6487
    4 6487  6421  6422  6488
    4 6488  6422  6423  6489
    4 6489  6423  6424  6490
    4 6490  6424  6425  6491
    4 6491  6425  6426  6492
    4 6492  6426  6427  6493
    4 6493  6427  6428  6494
    4 6494  6428  6429  6495
    4 6495  6429  6430  6496
    4 6496  6430  6431  6497
    4 6497  6431  6432  6498
    4 6498  6432  6433  6499
    4 6499  6433  6434  6500
    4 6402  6336  6337  6403
    4 6403  6337  6338  6404
    4 6404  6338  6339  6405
    4 6405  6339  6340  6406
    4 6406  6340  6341  6407
    4 6407  6341  6342  6408
    4 6408  6342  6343  6409
    4 6409  6343  6344  6410
    4 6410  6344  6345  6411
    4 6411  6345  6346  6412
    4 6412  6346  6347  6413
    4 6413  6347  6348  6414
    4 6414  6348  6349  6415
    4 6415  6349  6350  6416
    4 6416  6350  6351  6417
    4 6417  6351  6352  6418
    4 6418  6352  6353  6419
    4 6419  6353  6354  6420
    4 6420  6354  6355  6421
    4 6421  6355  6356  6422
    4 6422  6356  6357  6423
    4 6423  6357  6358  6424
    4 6424  6358  6359  6425
    4 6425  6359  6360  6426
    4 6426  6360  6361  6427
    4 6427  6361  6362  6428
    4 6428  6362  6363  6429
    4 6429  6363  6364  6430
    4 6430  6364  6365  6431
    4 6431  6365  6366  6432
    4 6432  6366  6367  6433
    4 6433  6367  6368  6434
    4 6336  6270  6271  6337
    4 6337  6271  6272  6338
    4 6338  6272  6273  6339
    4 6339  6273  6274  6340
    4 6340  6274  6275  6341
    4 6341  6275  6276  6342
    4 6342  6276  6277  6343
    4 6343  6277  6278  6344
    4 6344  6278  6279  6345
    4 6345  6279  6280  6346
    4 6346  6280  6281  6347
    4 6347  6281  6282  6348
    4 6348  6282  6283  6349
    4 6349  6283  6284  6350
    4 6350  6284  6285  6351
    4 6351  6285  6286  6352
    4 6352  6286  6287  6353
    4 6353  6287  6288  6354
    4 6354  6288  6289  6355
    4 6355  6289  6290  6356
    4 6356  6290  6291  6357
    4 6357  6291  6292  6358
    4 6358  6292  6293  6359
    4 6359  6293  6294  6360
    4 6360  6294  6295  6361
    4 6361  6295  6296  6362
    4 6362  6296  6297  6363
    4 6363  6297  6298  6364
    4 6364  6298  6299  6365
    4 6365  6299  6300  6366
    4 6366  6300  6301  6367
    4 6367  6301  6302  6368
    4 6270  6204  6205  6271
    4 6271  6205  6206  6272
    4 6272  6206  6207  6273
    4 6273  6207  6208  6274
    4 6274  6208  6209  6275
    4 6275  6209  6210  6276
    4 6276  6210  6211  6277
    4 6277  6211  6212  6278
    4 6278  6212  6213  6279
    4 6279  6213  6214  6280
    4 6280  6214  6215  6281
    4 6281  6215  6216  6282
    4 6282  6216  6217  6283
    4 6283  6217  6218  6284
    4 6284  6218  6219  6285
    4 6285  6219  6220  6286
    4 6286  6220  6221  6287
    4 6287  6221  6222  6288
    4 6288  6222  6223  6289
    4 6289  6223  6224  6290
    4 6290  6224  6225  6291
    4 6291  6225  6226  6292
    4 6292  6226  6227  6293
    4 6293  6227  6228  6294
    4 6294  6228  6229  6295
    4 6295  6229  6230  6296
    4 6296  6230  6231  6297
    4 6297  6231  6232  6298
    4 6298  6232  6233  6299
    4 6299  6233  6234  6300
    4 6300  6234  6235  6301
    4 6301  6235  6236  6302
    4 6204  6138  6139  6205
    4 6205  6139  6140  6206
    4 6206  6140  6141  6207
    4 6207  6141  6142  6208
    4 6208  6142  6143  6209
    4 6209  6143  6144  6210
    4 6210  6144  6145  6211
    4 6211  6145  6146  6212
    4 6212  6146  6147  6213
    4 6213  6147  6148  6214
    4 6214  6148  6149  6215
    4 6215  6149  6150  6216
    4 6216  6150  6151  6217
    4 6217  6151  6152  6218
    4 6218  6152  6153  6219
    4 6219  6153  6154  6220
    4 6220  6154  6155  6221
    4 6221  6155  6156  6222
    4 6222  6156  6157  6223
    4 6223  6157  6158  6224
    4 6224  6158  6159  6225
    4 6225  6159  6160  6226
    4 6226  6160  6161  6227
    4 6227  6161  6162  6228
    4 6228  6162  6163  6229
    4 6229  6163  6164  6230
    4 6230  6164  6165  6231
    4 6231  6165  6166  6232
    4 6232  6166  6167  6233
    4 6233  6167  6168  6234
    4 6234  6168  6169  6235
    4 6235  6169  6170  6236
    4 6138  6072  6073  6139
    4 6139  6073  6074  6140
    4 6140  6074  6075  6141
    4 6141  6075  6076  6142
    4 6142  6076  6077  6143
    4 6143  6077  6078  6144
    4 6144  6078  6079  6145
    4 6145  6079  6080  6146
    4 6146  6080  6081  6147
    4 6147  6081  6082  6148
    4 6148  6082  6083  6149
    4 6149  6083  6084  6150
    4 6150  6084  6085  6151
    4 6151  6085  6086  6152
    4 6152  6086  6087  6153
    4 6153  6087  6088  6154
    4 6154  6088  6089  6155
    4 6155  6089  6090  6156
    4 6156  6090  6091  6157
    4 6157  6091  6092  6158
    4 6158  6092  6093  6159
    4 6159  6093  6094  6160
    4 6160  6094  6095  6161
    4 6161  6095  6096  6162
    4 6162  6096  6097  6163
    4 6163  6097  6098  6164
    4 6164  6098  6099  6165
    4 6165  6099  6100  6166
    4 6166  6100  6101  6167
    4 6167  6101  6102  6168
    4 6168  6102  6103  6169
    4 6169  6103  6104  6170
    4 6072  6006  6007  6073
    4 6073  6007  6008  6074
    4 6074  6008  6009  6075
    4 6075  6009  6010  6076
    4 6076  6010  6011  6077
    4 6077  6011  6012  6078
    4 6078  6012  6013  6079
    4 6079  6013  6014  6080
    4 6080  6014  6015  6081
    4 6081  6015  6016  6082
    4 6082  6016  6017  6083
    4 6083  6017  6018  6084
    4 6084  6018  6019  6085
    4 6085  6019  6020  6086
    4 6086  6020  6021  6087
    4 6087  6021  6022  6088
    4 6088  6022  6023  6089
    4 6089  6023  6024  6090
    4 6090  6024  6025  6091
    4 6091  6025  6026  6092
    4 6092  6026  6027  6093
    4 6093  6027  6028  6094
    4 6094  6028  6029  6095
    4 6095  6029  6030  6096
    4 6096  6030  6031  6097
    4 6097  6031  6032  6098
    4 6098  6032  6033  6099
    4 6099  6033  6034  6100
    4 6100  6034  6035  6101
    4 6101  6035  6036  6102
    4 6102  6036  6037  6103
    4 6103  6037  6038  6104
    4 6006  5940  5941  6007
    4 6007  5941  5942  6008
    4 6008  5942  5943  6009
    4 6009  5943  5944  6010
    4 6010  5944  5945  6011
    4 6011  5945  5946  6012
    4 6012  5946  5947  6013
    4 6013  5947  5948  6014
    4 6014  5948  5949  6015
    4 6015  5949  5950  6016
    4 6016  5950  5951  6017
    4 6017  5951  5952  6018
    4 6018  5952  5953  6019
    4 6019  5953  5954  6020
    4 6020  5954  5955  6021
    4 6021  5955  5956  6022
    4 6022  5956  5957  6023
    4 6023  5957  5958  6024
    4 6024  5958  5959  6025
    4 6025  5959  5960  6026
    4 6026  5960  5961  6027
    4 6027  5961  5962  6028
    4 6028  5962  5963  6029
    4 6029  5963  5964  6030
    4 6030  5964  5965  6031
    4 6031  5965  5966  6032
    4 6032  5966  5967  6033
    4 6033  5967  5968  6034
    4 6034  5968  5969  6035
    4 6035  5969  5970  6036
    4 6036  5970  5971  6037
    4 6037  5971  5972  6038
    4 5940  5874  5875  5941
    4 5941  5875  5876  5942
    4 5942  5876  5877  5943
    4 5943  5877  5878  5944
    4 5944  5878  5879  5945
    4 5945  5879  5880  5946
    4 5946  5880  5881  5947
    4 5947  5881  5882  5948
    4 5948  5882  5883  5949
    4 5949  5883  5884  5950
    4 5950  5884  5885  5951
    4 5951  5885  5886  5952
    4 5952  5886  5887  5953
    4 5953  5887  5888  5954
    4 5954  5888  5889  5955
    4 5955  5889  5890  5956
    4 5956  5890  5891  5957
    4 5957  5891  5892  5958
    4 5958  5892  5893  5959
    4 5959  5893  5894  5960
    4 5960  5894  5895  5961
    4 5961  5895  5896  5962
    4 5962  5896  5897  5963
    4 5963  5897  5898  5964
    4 5964  5898  5899  5965
    4 5965  5899  5900  5966
    4 5966  5900  5901  5967
    4 5967  5901  5902  5968
    4 5968  5902  5903  5969
    4 5969  5903  5904  5970
    4 5970  5904  5905  5971
    4 5971  5905  5906  5972
    4 5874  5808  5809  5875
    4 5875  5809  5810  5876
    4 5876  5810  5811  5877
    4 5877  5811  5812  5878
    4 5878  5812  5813  5879
    4 5879  5813  5814  5880
    4 5880  5814  5815  5881
    4 5881  5815  5816  5882
    4 5882  5816  5817  5883
    4 5883  5817  5818  5884
    4 5884  5818  5819  5885
    4 5885  5819  5820  5886
    4 5886  5820  5821  5887
    4 5887  5821  5822  5888
    4 5888  5822  5823  5889
    4 5889  5823  5824  5890
    4 5890  5824  5825  5891
    4 5891  5825  5826  5892
    4 5892  5826  5827  5893
    4 5893  5827  5828  5894
    4 5894  5828  5829  5895
    4 5895  5829  5830  5896
    4 5896  5830  5831  5897
    4 5897  5831  5832  5898
    4 5898  5832  5833  5899
    4 5899  5833  5834  5900
    4 5900  5834  5835  5901
    4 5901  5835  5836  5902
    4 5902  5836  5837  5903
    4 5903  5837  5838  5904
    4 5904  5838  5839  5905
    4 5905  5839  5840  5906
    4 5808  5742  5743  5809
    4 5809  5743  5744  5810
    4 5810  5744  5745  5811
    4 5811  5745  5746  5812
    4 5812  5746  5747  5813
    4 5813  5747  5748  5814
    4 5814  5748  5749  5815
    4 5815  5749  5750  5816
    4 5816  5750  5751  5817
    4 5817  5751  5752  5818
    4 5818  5752  5753  5819
    4 5819  5753  5754  5820
    4 5820  5754  5755  5821
    4 5821  5755  5756  5822
    4 5822  5756  5757  5823
    4 5823  5757  5758  5824
    4 5824  5758  5759  5825
    4 5825  5759  5760  5826
    4 5826  5760  5761  5827
    4 5827  5761  5762  5828
    4 5828  5762  5763  5829
    4 5829  5763  5764  5830
    4 5830  5764  5765  5831
    4 5831  5765  5766  5832
    4 5832  5766  5767  5833
    4 5833  5767  5768  5834
    4 5834  5768  5769  5835
    4 5835  5769  5770  5836
    4 5836  5770  5771  5837
    4 5837  5771  5772  5838
    4 5838  5772  5773  5839
    4 5839  5773  5774  5840
    4 5742  5676  5677  5743
    4 5743  5677  5678  5744
    4 5744  5678  5679  5745
    4 5745  5679  5680  5746
    4 5746  5680  5681  5747
    4 5747  5681  5682  5748
    4 5748  5682  5683  5749
    4 5749  5683  5684  5750
    4 5750  5684  5685  5751
    4 5751  5685  5686  5752
    4 5752  5686  5687  5753
    4 5753  5687  5688  5754
    4 5754  5688  5689  5755
    4 5755  5689  5690  5756
    4 5756  5690  5691  5757
    4 5757  5691  5692  5758
    4 5758  5692  5693  5759
    4 5759  5693  5694  5760
    4 5760  5694  5695  5761
    4 5761  5695  5696  5762
    4 5762  5696  5697  5763
    4 5763  5697  5698  5764
    4 5764  5698  5699  5765
    4 5765  5699  5700  5766
    4 5766  5700  5701  5767
    4 5767  5701  5702  5768
    4 5768  5702  5703  5769
    4 5769  5703  5704  5770
    4 5770  5704  5705  5771
    4 5771  5705  5706  5772
    4 5772  5706  5707  5773
    4 5773  5707  5708  5774
    4 5676  5610  5611  5677
    4 5677  5611  5612  5678
    4 5678  5612  5613  5679
    4 5679  5613  5614  5680
    4 5680  5614  5615  5681
    4 5681  5615  5616  5682
    4 5682  5616  5617  5683
    4 5683  5617  5618  5684
    4 5684  5618  5619  5685
    4 5685  5619  5620  5686
    4 5686  5620  5621  5687
    4 5687  5621  5622  5688
    4 5688  5622  5623  5689
    4 5689  5623  5624  5690
    4 5690  5624  5625  5691
    4 5691  5625  5626  5692
    4 5692  5626  5627  5693
    4 5693  5627  5628  5694
    4 5694  5628  5629  5695
    4 5695  5629  5630  5696
    4 5696  5630  5631  5697
    4 5697  5631  5632  5698
    4 5698  5632  5633  5699
    4 5699  5633  5634  5700
    4 5700  5634  5635  5701
    4 5701  5635  5636  5702
    4 5702  5636  5637  5703
    4 5703  5637  5638  5704
    4 5704  5638  5639  5705
    4 5705  5639  5640  5706
    4 5706  5640  5641  5707
    4 5707  5641  5642  5708
    4 5610  5544  5545  5611
    4 5611  5545  5546  5612
    4 5612  5546  5547  5613
    4 5613  5547  5548  5614
    4 5614  5548  5549  5615
    4 5615  5549  5550  5616
    4 5616  5550  5551  5617
    4 5617  5551  5552  5618
    4 5618  5552  5553  5619
    4 5619  5553  5554  5620
    4 5620  5554  5555  5621
    4 5621  5555  5556  5622
    4 5622  5556  5557  5623
    4 5623  5557  5558  5624
    4 5624  5558  5559  5625
    4 5625  5559  5560  5626
    4 5626  5560  5561  5627
    4 5627  5561  5562  5628
    4 5628  5562  5563  5629
    4 5629  5563  5564  5630
    4 5630  5564  5565  5631
    4 5631  5565  5566  5632
    4 5632  5566  5567  5633
    4 5633  5567  5568  5634
    4 5634  5568  5569  5635
    4 5635  5569  5570  5636
    4 5636  5570  5571  5637
    4 5637  5571  5572  5638
    4 5638  5572  5573  5639
    4 5639  5573  5574  5640
    4 5640  5574  5575  5641
    4 5641  5575  5576  5642
    4 5544  5478  5479  5545
    4 5545  5479  5480  5546
    4 5546  5480  5481  5547
    4 5547  5481  5482  5548
    4 5548  5482  5483  5549
    4 5549  5483  5484  5550
    4 5550  5484  5485  5551
    4 5551  5485  5486  5552
    4 5552  5486  5487  5553
    4 5553  5487  5488  5554
    4 5554  5488  5489  5555
    4 5555  5489  5490  5556
    4 5556  5490  5491  5557
    4 5557  5491  5492  5558
    4 5558  5492  5493  5559
    4 5559  5493  5494  5560
    4 5560  5494  5495  5561
    4 5561  5495  5496  5562
    4 5562  5496  5497  5563
    4 5563  5497  5498  5564
    4 5564  5498  5499  5565
    4 5565  5499  5500  5566
    4 5566  5500  5501  5567
    4 5567  5501  5502  5568
    4 5568  5502  5503  5569
    4 5569  5503  5504  5570
    4 5570  5504  5505  5571
    4 5571  5505  5506  5572
    4 5572  5506  5507  5573
    4 5573  5507  5508  5574
    4 5574  5508  5509  5575
    4 5575  5509  5510  5576
    4 5478  5412  5413  5479
    4 5479  5413  5414  5480
    4 5480  5414  5415  5481
    4 5481  5415  5416  5482
    4 5482  5416  5417  5483
    4 5483  5417  5418  5484
    4 5484  5418  5419  5485
    4 5485  5419  5420  5486
    4 5486  5420  5421  5487
    4 5487  5421  5422  5488
    4 5488  5422  5423  5489
    4 5489  5423  5424  5490
    4 5490  5424  5425  5491
    4 5491  5425  5426  5492
    4 5492  5426  5427  5493
    4 5493  5427  5428  5494
    4 5494  5428  5429  5495
    4 5495  5429  5430  5496
    4 5496  5430  5431  5497
    4 5497  5431  5432  5498
    4 5498  5432  5433  5499
    4 5499  5433  5434  5500
    4 5500  5434  5435  5501
    4 5501  5435  5436  5502
    4 5502  5436  5437  5503
    4 5503  5437  5438  5504
    4 5504  5438  5439  5505
    4 5505  5439  5440  5506
    4 5506  5440  5441  5507
    4 5507  5441  5442  5508
    4 5508  5442  5443  5509
    4 5509  5443  5444  5510
    4 5412  5346  5347  5413
    4 5413  5347  5348  5414
    4 5414  5348  5349  5415
    4 5415  5349  5350  5416
    4 5416  5350  5351  5417
    4 5417  5351  5352  5418
    4 5418  5352  5353  5419
    4 5419  5353  5354  5420
    4 5420  5354  5355  5421
    4 5421  5355  5356  5422
    4 5422  5356  5357  5423
    4 5423  5357  5358  5424
    4 5424  5358  5359  5425
    4 5425  5359  5360  5426
    4 5426  5360  5361  5427
    4 5427  5361  5362  5428
    4 5428  5362  5363  5429
    4 5429  5363  5364  5430
    4 5430  5364  5365  5431
    4 5431  5365  5366  5432
    4 5432  5366  5367  5433
    4 5433  5367  5368  5434
    4 5434  5368  5369  5435
    4 5435  5369  5370  5436
    4 5436  5370  5371  5437
    4 5437  5371  5372  5438
    4 5438  5372  5373  5439
    4 5439  5373  5374  5440
    4 5440  5374  5375  5441
    4 5441  5375  5376  5442
    4 5442  5376  5377  5443
    4 5443  5377  5378  5444
    4 5346  5280  5281  5347
    4 5347  5281  5282  5348
    4 5348  5282  5283  5349
    4 5349  5283  5284  5350
    4 5350  5284  5285  5351
    4 5351  5285  5286  5352
    4 5352  5286  5287  5353
    4 5353  5287  5288  5354
    4 5354  5288  5289  5355
    4 5355  5289  5290  5356
    4 5356  5290  5291  5357
    4 5357  5291  5292  5358
    4 5358  5292  5293  5359
    4 5359  5293  5294  5360
    4 5360  5294  5295  5361
    4 5361  5295  5296  5362
    4 5362  5296  5297  5363
    4 5363  5297  5298  5364
    4 5364  5298  5299  5365
    4 5365  5299  5300  5366
    4 5366  5300  5301  5367
    4 5367  5301  5302  5368
    4 5368  5302  5303  5369
    4 5369  5303  5304  5370
    4 5370  5304  5305  5371
    4 5371  5305  5306  5372
    4 5372  5306  5307  5373
    4 5373  5307  5308  5374
    4 5374  5308  5309  5375
    4 5375  5309  5310  5376
    4 5376  5310  5311  5377
    4 5377  5311  5312  5378
    4 5280  5214  5215  5281
    4 5281  5215  5216  5282
    4 5282  5216  5217  5283
    4 5283  5217  5218  5284
    4 5284  5218  5219  5285
    4 5285  5219  5220  5286
    4 5286  5220  5221  5287
    4 5287  5221  5222  5288
    4 5288  5222  5223  5289
    4 5289  5223  5224  5290
    4 5290  5224  5225  5291
    4 5291  5225  5226  5292
    4 5292  5226  5227  5293
    4 5293  5227  5228  5294
    4 5294  5228  5229  5295
    4 5295  5229  5230  5296
    4 5296  5230  5231  5297
    4 5297  5231  5232  5298
    4 5298  5232  5233  5299
    4 5299  5233  5234  5300
    4 5300  5234  5235  5301
    4 5301  5235  5236  5302
    4 5302  5236  5237  5303
    4 5303  5237  5238  5304
    4 5304  5238  5239  5305
    4 5305  5239  5240  5306
    4 5306  5240  5241  5307
    4 5307  5241  5242  5308
    4 5308  5242  5243  5309
    4 5309  5243  5244  5310
    4 5310  5244  5245  5311
    4 5311  5245  5246  5312
    4 5214  5148  5149  5215
    4 5215  5149  5150  5216
    4 5216  5150  5151  5217
    4 5217  5151  5152  5218
    4 5218  5152  5153  5219
    4 5219  5153  5154  5220
    4 5220  5154  5155  5221
    4 5221  5155  5156  5222
    4 5222  5156  5157  5223
    4 5223  5157  5158  5224
    4 5224  5158  5159  5225
    4 5225  5159  5160  5226
    4 5226  5160  5161  5227
    4 5227  5161  5162  5228
    4 5228  5162  5163  5229
    4 5229  5163  5164  5230
    4 5230  5164  5165  5231
    4 5231  5165  5166  5232
    4 5232  5166  5167  5233
    4 5233  5167  5168  5234
    4 5234  5168  5169  5235
    4 5235  5169  5170  5236
    4 5236  5170  5171  5237
    4 5237  5171  5172  5238
    4 5238  5172  5173  5239
    4 5239  5173  5174  5240
    4 5240  5174  5175  5241
    4 5241  5175  5176  5242
    4 5242  5176  5177  5243
    4 5243  5177  5178  5244
    4 5244  5178  5179  5245
    4 5245  5179  5180  5246
    4 5148  5082  5083  5149
    4 5149  5083  5084  5150
    4 5150  5084  5085  5151
    4 5151  5085  5086  5152
    4 5152  5086  5087  5153
    4 5153  5087  5088  5154
    4 5154  5088  5089  5155
    4 5155  5089  5090  5156
    4 5156  5090  5091  5157
    4 5157  5091  5092  5158
    4 5158  5092  5093  5159
    4 5159  5093  5094  5160
    4 5160  5094  5095  5161
    4 5161  5095  5096  5162
    4 5162  5096  5097  5163
    4 5163  5097  5098  5164
    4 5164  5098  5099  5165
    4 5165  5099  5100  5166
    4 5166  5100  5101  5167
    4 5167  5101  5102  5168
    4 5168  5102  5103  5169
    4 5169  5103  5104  5170
    4 5170  5104  5105  5171
    4 5171  5105  5106  5172
    4 5172  5106  5107  5173
    4 5173  5107  5108  5174
    4 5174  5108  5109  5175
    4 5175  5109  5110  5176
    4 5176  5110  5111  5177
    4 5177  5111  5112  5178
    4 5178  5112  5113  5179
    4 5179  5113  5114  5180
    4 5082  5016  5017  5083
    4 5083  5017  5018  5084
    4 5084  5018  5019  5085
    4 5085  5019  5020  5086
    4 5086  5020  5021  5087
    4 5087  5021  5022  5088
    4 5088  5022  5023  5089
    4 5089  5023  5024  5090
    4 5090  5024  5025  5091
    4 5091  5025  5026  5092
    4 5092  5026  5027  5093
    4 5093  5027  5028  5094
    4 5094  5028  5029  5095
    4 5095  5029  5030  5096
    4 5096  5030  5031  5097
    4 5097  5031  5032  5098
    4 5098  5032  5033  5099
    4 5099  5033  5034  5100
    4 5100  5034  5035  5101
    4 5101  5035  5036  5102
    4 5102  5036  5037  5103
    4 5103  5037  5038  5104
    4 5104  5038  5039  5105
    4 5105  5039  5040  5106
    4 5106  5040  5041  5107
    4 5107  5041  5042  5108
    4 5108  5042  5043  5109
    4 5109  5043  5044  5110
    4 5110  5044  5045  5111
    4 5111  5045  5046  5112
    4 5112  5046  5047  5113
    4 5113  5047  5048  5114
    4 5016  4950  4951  5017
    4 5017  4951  4952  5018
    4 5018  4952  4953  5019
    4 5019  4953  4954  5020
    4 5020  4954  4955  5021
    4 5021  4955  4956  5022
    4 5022  4956  4957  5023
    4 5023  4957  4958  5024
    4 5024  4958  4959  5025
    4 5025  4959  4960  5026
    4 5026  4960  4961  5027
    4 5027  4961  4962  5028
    4 5028  4962  4963  5029
    4 5029  4963  4964  5030
    4 5030  4964  4965  5031
    4 5031  4965  4966  5032
    4 5032  4966  4967  5033
    4 5033  4967  4968  5034
    4 5034  4968  4969  5035
    4 5035  4969  4970  5036
    4 5036  4970  4971  5037
    4 5037  4971  4972  5038
    4 5038  4972  4973  5039
    4 5039  4973  4974  5040
    4 5040  4974  4975  5041
    4 5041  4975  4976  5042
    4 5042  4976  4977  5043
    4 5043  4977  4978  5044
    4 5044  4978  4979  5045
    4 5045  4979  4980  5046
    4 5046  4980  4981  5047
    4 5047  4981  4982  5048
    4 4950  4884  4885  4951
    4 4951  4885  4886  4952
    4 4952  4886  4887  4953
    4 4953  4887  4888  4954
    4 4954  4888  4889  4955
    4 4955  4889  4890  4956
    4 4956  4890  4891  4957
    4 4957  4891  4892  4958
    4 4958  4892  4893  4959
    4 4959  4893  4894  4960
    4 4960  4894  4895  4961
    4 4961  4895  4896  4962
    4 4962  4896  4897  4963
    4 4963  4897  4898  4964
    4 4964  4898  4899  4965
    4 4965  4899  4900  4966
    4 4966  4900  4901  4967
    4 4967  4901  4902  4968
    4 4968  4902  4903  4969
    4 4969  4903  4904  4970
    4 4970  4904  4905  4971
    4 4971  4905  4906  4972
    4 4972  4906  4907  4973
    4 4973  4907  4908  4974
    4 4974  4908  4909  4975
    4 4975  4909  4910  4976
    4 4976  4910  4911  4977
    4 4977  4911  4912  4978
    4 4978  4912  4913  4979
    4 4979  4913  4914  4980
    4 4980  4914  4915  4981
    4 4981  4915  4916  4982
    4 4884  4818  4819  4885
    4 4885  4819  4820  4886
    4 4886  4820  4821  4887
    4 4887  4821  4822  4888
    4 4888  4822  4823  4889
    4 4889  4823  4824  4890
    4 4890  4824  4825  4891
    4 4891  4825  4826  4892
    4 4892  4826  4827  4893
    4 4893  4827  4828  4894
    4 4894  4828  4829  4895
    4 4895  4829  4830  4896
    4 4896  4830  4831  4897
    4 4897  4831  4832  4898
    4 4898  4832  4833  4899
    4 4899  4833  4834  4900
    4 4900  4834  4835  4901
    4 4901  4835  4836  4902
    4 4902  4836  4837  4903
    4 4903  4837  4838  4904
    4 4904  4838  4839  4905
    4 4905  4839  4840  4906
    4 4906  4840  4841  4907
    4 4907  4841  4842  4908
    4 4908  4842  4843  4909
    4 4909  4843  4844  4910
    4 4910  4844  4845  4911
    4 4911  4845  4846  4912
    4 4912  4846  4847  4913
    4 4913  4847  4848  4914
    4 4914  4848  4849  4915
    4 4915  4849  4850  4916
    4 4818  4752  4753  4819
    4 4819  4753  4754  4820
    4 4820  4754  4755  4821
    4 4821  4755  4756  4822
    4 4822  4756  4757  4823
    4 4823  4757  4758  4824
    4 4824  4758  4759  4825
    4 4825  4759  4760  4826
    4 4826  4760  4761  4827
    4 4827  4761  4762  4828
    4 4828  4762  4763  4829
    4 4829  4763  4764  4830
    4 4830  4764  4765  4831
    4 4831  4765  4766  4832
    4 4832  4766  4767  4833
    4 4833  4767  4768  4834
    4 4834  4768  4769  4835
    4 4835  4769  4770  4836
    4 4836  4770  4771  4837
    4 4837  4771  4772  4838
    4 4838  4772  4773  4839
    4 4839  4773  4774  4840
    4 4840  4774  4775  4841
    4 4841  4775  4776  4842
    4 4842  4776  4777  4843
    4 4843  4777  4778  4844
    4 4844  4778  4779  4845
    4 4845  4779  4780  4846
    4 4846  4780  4781  4847
    4 4847  4781  4782  4848
    4 4848  4782  4783  4849
    4 4849  4783  4784  4850
    4 4752  4686  4687  4753
    4 4753  4687  4688  4754
    4 4754  4688  4689  4755
    4 4755  4689  4690  4756
    4 4756  4690  4691  4757
    4 4757  4691  4692  4758
    4 4758  4692  4693  4759
    4 4759  4693  4694  4760
    4 4760  4694  4695  4761
    4 4761  4695  4696  4762
    4 4762  4696  4697  4763
    4 4763  4697  4698  4764
    4 4764  4698  4699  4765
    4 4765  4699  4700  4766
    4 4766  4700  4701  4767
    4 4767  4701  4702  4768
    4 4768  4702  4703  4769
    4 4769  4703  4704  4770
    4 4770  4704  4705  4771
    4 4771  4705  4706  4772
    4 4772  4706  4707  4773
    4 4773  4707  4708  4774
    4 4774  4708  4709  4775
    4 4775  4709  4710  4776
    4 4776  4710  4711  4777
    4 4777  4711  4712  4778
    4 4778  4712  4713  4779
    4 4779  4713  4714  4780
    4 4780  4714  4715  4781
    4 4781  4715  4716  4782
    4 4782  4716  4717  4783
    4 4783  4717  4718  4784
    4 4686  4620  4621  4687
    4 4687  4621  4622  4688
    4 4688  4622  4623  4689
    4 4689  4623  4624  4690
    4 4690  4624  4625  4691
    4 4691  4625  4626  4692
    4 4692  4626  4627  4693
    4 4693  4627  4628  4694
    4 4694  4628  4629  4695
    4 4695  4629  4630  4696
    4 4696  4630  4631  4697
    4 4697  4631  4632  4698
    4 4698  4632  4633  4699
    4 4699  4633  4634  4700
    4 4700  4634  4635  4701
    4 4701  4635  4636  4702
    4 4702  4636  4637  4703
    4 4703  4637  4638  4704
    4 4704  4638  4639  4705
    4 4705  4639  4640  4706
    4 4706  4640  4641  4707
    4 4707  4641  4642  4708
    4 4708  4642  4643  4709
    4 4709  4643  4644  4710
    4 4710  4644  4645  4711
    4 4711  4645  4646  4712
    4 4712  4646  4647  4713
    4 4713  4647  4648  4714
    4 4714  4648  4649  4715
    4 4715  4649  4650  4716
    4 4716  4650  4651  4717
    4 4717  4651  4652  4718
    4 4620  4554  4555  4621
    4 4621  4555  4556  4622
    4 4622  4556  4557  4623
    4 4623  4557  4558  4624
    4 4624  4558  4559  4625
    4 4625  4559  4560  4626
    4 4626  4560  4561  4627
    4 4627  4561  4562  4628
    4 4628  4562  4563  4629
    4 4629  4563  4564  4630
    4 4630  4564  4565  4631
    4 4631  4565  4566  4632
    4 4632  4566  4567  4633
    4 4633  4567  4568  4634
    4 4634  4568  4569  4635
    4 4635  4569  4570  4636
    4 4636  4570  4571  4637
    4 4637  4571  4572  4638
    4 4638  4572  4573  4639
    4 4639  4573  4574  4640
    4 4640  4574  4575  4641
    4 4641  4575  4576  4642
    4 4642  4576  4577  4643
    4 4643  4577  4578  4644
    4 4644  4578  4579  4645
    4 4645  4579  4580  4646
    4 4646  4580  4581  4647
    4 4647  4581  4582  4648
    4 4648  4582  4583  4649
    4 4649  4583  4584  4650
    4 4650  4584  4585  4651
    4 4651  4585  4586  4652
    4 4554  4488  4489  4555
    4 4555  4489  4490  4556
    4 4556  4490  4491  4557
    4 4557  4491  4492  4558
    4 4558  4492  4493  4559
    4 4559  4493  4494  4560
    4 4560  4494  4495  4561
    4 4561  4495  4496  4562
    4 4562  4496  4497  4563
    4 4563  4497  4498  4564
    4 4564  4498  4499  4565
    4 4565  4499  4500  4566
    4 4566  4500  4501  4567
    4 4567  4501  4502  4568
    4 4568  4502  4503  4569
    4 4569  4503  4504  4570
    4 4570  4504  4505  4571
    4 4571  4505  4506  4572
    4 4572  4506  4507  4573
    4 4573  4507  4508  4574
    4 4574  4508  4509  4575
    4 4575  4509  4510  4576
    4 4576  4510  4511  4577
    4 4577  4511  4512  4578
    4 4578  4512  4513  4579
    4 4579  4513  4514  4580
    4 4580  4514  4515  4581
    4 4581  4515  4516  4582
    4 4582  4516  4517  4583
    4 4583  4517  4518  4584
    4 4584  4518  4519  4585
    4 4585  4519  4520  4586
    4 4488  4422  4423  4489
    4 4489  4423  4424  4490
    4 4490  4424  4425  4491
    4 4491  4425  4426  4492
    4 4492  4426  4427  4493
    4 4493  4427  4428  4494
    4 4494  4428  4429  4495
    4 4495  4429  4430  4496
    4 4496  4430  4431  4497
    4 4497  4431  4432  4498
    4 4498  4432  4433  4499
    4 4499  4433  4434  4500
    4 4500  4434  4435  4501
    4 4501  4435  4436  4502
    4 4502  4436  4437  4503
    4 4503  4437  4438  4504
    4 4504  4438  4439  4505
    4 4505  4439  4440  4506
    4 4506  4440  4441  4507
    4 4507  4441  4442  4508
    4 4508  4442  4443  4509
    4 4509  4443  4444  4510
    4 4510  4444  4445  4511
    4 4511  4445  4446  4512
    4 4512  4446  4447  4513
    4 4513  4447  4448  4514
    4 4514  4448  4449  4515
    4 4515  4449  4450  4516
    4 4516  4450  4451  4517
    4 4517  4451  4452  4518
    4 4518  4452  4453  4519
    4 4519  4453  4454  4520
    4 4422  4356  4357  4423
    4 4423  4357  4358  4424
    4 4424  4358  4359  4425
    4 4425  4359  4360  4426
    4 4426  4360  4361  4427
    4 4427  4361  4362  4428
    4 4428  4362  4363  4429
    4 4429  4363  4364  4430
    4 4430  4364  4365  4431
    4 4431  4365  4366  4432
    4 4432  4366  4367  4433
    4 4433  4367  4368  4434
    4 4434  4368  4369  4435
    4 4435  4369  4370  4436
    4 4436  4370  4371  4437
    4 4437  4371  4372  4438
    4 4438  4372  4373  4439
    4 4439  4373  4374  4440
    4 4440  4374  4375  4441
    4 4441  4375  4376  4442
    4 4442  4376  4377  4443
    4 4443  4377  4378  4444
    4 4444  4378  4379  4445
    4 4445  4379  4380  4446
    4 4446  4380  4381  4447
    4 4447  4381  4382  4448
    4 4448  4382  4383  4449
    4 4449  4383  4384  4450
    4 4450  4384  4385  4451
    4 4451  4385  4386  4452
    4 4452  4386  4387  4453
    4 4453  4387  4388  4454
    4 4356  4290  4291  4357
    4 4357  4291  4292  4358
    4 4358  4292  4293  4359
    4 4359  4293  4294  4360
    4 4360  4294  4295  4361
    4 4361  4295  4296  4362
    4 4362  4296  4297  4363
    4 4363  4297  4298  4364
    4 4364  4298  4299  4365
    4 4365  4299  4300  4366
    4 4366  4300  4301  4367
    4 4367  4301  4302  4368
    4 4368  4302  4303  4369
    4 4369  4303  4304  4370
    4 4370  4304  4305  4371
    4 4371  4305  4306  4372
    4 4372  4306  4307  4373
    4 4373  4307  4308  4374
    4 4374  4308  4309  4375
    4 4375  4309  4310  4376
    4 4376  4310  4311  4377
    4 4377  4311  4312  4378
    4 4378  4312  4313  4379
    4 4379  4313  4314  4380
    4 4380  4314  4315  4381
    4 4381  4315  4316  4382
    4 4382  4316  4317  4383
    4 4383  4317  4318  4384
    4 4384  4318  4319  4385
    4 4385  4319  4320  4386
    4 4386  4320  4321  4387
    4 4387  4321  4322  4388
    4 4290  4224  4225  4291
    4 4291  4225  4226  4292
    4 4292  4226  4227  4293
    4 4293  4227  4228  4294
    4 4294  4228  4229  4295
    4 4295  4229  4230  4296
    4 4296  4230  4231  4297
    4 4297  4231  4232  4298
    4 4298  4232  4233  4299
    4 4299  4233  4234  4300
    4 4300  4234  4235  4301
    4 4301  4235  4236  4302
    4 4302  4236  4237  4303
    4 4303  4237  4238  4304
    4 4304  4238  4239  4305
    4 4305  4239  4240  4306
    4 4306  4240  4241  4307
    4 4307  4241  4242  4308
    4 4308  4242  4243  4309
    4 4309  4243  4244  4310
    4 4310  4244  4245  4311
    4 4311  4245  4246  4312
    4 4312  4246  4247  4313
    4 4313  4247  4248  4314
    4 4314  4248  4249  4315
    4 4315  4249  4250  4316
    4 4316  4250  4251  4317
    4 4317  4251  4252  4318
    4 4318  4252  4253  4319
    4 4319  4253  4254  4320
    4 4320  4254  4255  4321
    4 4321  4255  4256  4322
    4 4224  4158  4159  4225
    4 4225  4159  4160  4226
    4 4226  4160  4161  4227
    4 4227  4161  4162  4228
    4 4228  4162  4163  4229
    4 4229  4163  4164  4230
    4 4230  4164  4165  4231
    4 4231  4165  4166  4232
    4 4232  4166  4167  4233
    4 4233  4167  4168  4234
    4 4234  4168  4169  4235
    4 4235  4169  4170  4236
    4 4236  4170  4171  4237
    4 4237  4171  4172  4238
    4 4238  4172  4173  4239
    4 4239  4173  4174  4240
    4 4240  4174  4175  4241
    4 4241  4175  4176  4242
    4 4242  4176  4177  4243
    4 4243  4177  4178  4244
    4 4244  4178  4179  4245
    4 4245  4179  4180  4246
    4 4246  4180  4181  4247
    4 4247  4181  4182  4248
    4 4248  4182  4183  4249
    4 4249  4183  4184  4250
    4 4250  4184  4185  4251
    4 4251  4185  4186  4252
    4 4252  4186  4187  4253
    4 4253  4187  4188  4254
    4 4254  4188  4189  4255
    4 4255  4189  4190  4256
    4 4158  4092  4093  4159
    4 4159  4093  4094  4160
    4 4160  4094  4095  4161
    4 4161  4095  4096  4162
    4 4162  4096  4097  4163
    4 4163  4097  4098  4164
    4 4164  4098  4099  4165
    4 4165  4099  4100  4166
    4 4166  4100  4101  4167
    4 4167  4101  4102  4168
    4 4168  4102  4103  4169
    4 4169  4103  4104  4170
    4 4170  4104  4105  4171
    4 4171  4105  4106  4172
    4 4172  4106  4107  4173
    4 4173  4107  4108  4174
    4 4174  4108  4109  4175
    4 4175  4109  4110  4176
    4 4176  4110  4111  4177
    4 4177  4111  4112  4178
    4 4178  4112  4113  4179
    4 4179  4113  4114  4180
    4 4180  4114  4115  4181
    4 4181  4115  4116  4182
    4 4182  4116  4117  4183
    4 4183  4117  4118  4184
    4 4184  4118  4119  4185
    4 4185  4119  4120  4186
    4 4186  4120  4121  4187
    4 4187  4121  4122  4188
    4 4188  4122  4123  4189
    4 4189  4123  4124  4190
    4 4092  4026  4027  4093
    4 4093  4027  4028  4094
    4 4094  4028  4029  4095
    4 4095  4029  4030  4096
    4 4096  4030  4031  4097
    4 4097  4031  4032  4098
    4 4098  4032  4033  4099
    4 4099  4033  4034  4100
    4 4100  4034  4035  4101
    4 4101  4035  4036  4102
    4 4102  4036  4037  4103
    4 4103  4037  4038  4104
    4 4104  4038  4039  4105
    4 4105  4039  4040  4106
    4 4106  4040  4041  4107
    4 4107  4041  4042  4108
    4 4108  4042  4043  4109
    4 4109  4043  4044  4110
    4 4110  4044  4045  4111
    4 4111  4045  4046  4112
    4 4112  4046  4047  4113
    4 4113  4047  4048  4114
    4 4114  4048  4049  4115
    4 4115  4049  4050  4116
    4 4116  4050  4051  4117
    4 4117  4051  4052  4118
    4 4118  4052  4053  4119
    4 4119  4053  4054  4120
    4 4120  4054  4055  4121
    4 4121  4055  4056  4122
    4 4122  4056  4057  4123
    4 4123  4057  4058  4124
    4 4026  3960  3961  4027
    4 4027  3961  3962  4028
    4 4028  3962  3963  4029
    4 4029  3963  3964  4030
    4 4030  3964  3965  4031
    4 4031  3965  3966  4032
    4 4032  3966  3967  4033
    4 4033  3967  3968  4034
    4 4034  3968  3969  4035
    4 4035  3969  3970  4036
    4 4036  3970  3971  4037
    4 4037  3971  3972  4038
    4 4038  3972  3973  4039
    4 4039  3973  3974  4040
    4 4040  3974  3975  4041
    4 4041  3975  3976  4042
    4 4042  3976  3977  4043
    4 4043  3977  3978  4044
    4 4044  3978  3979  4045
    4 4045  3979  3980  4046
    4 4046  3980  3981  4047
    4 4047  3981  3982  4048
    4 4048  3982  3983  4049
    4 4049  3983  3984  4050
    4 4050  3984  3985  4051
    4 4051  3985  3986  4052
    4 4052  3986  3987  4053
    4 4053  3987  3988  4054
    4 4054  3988  3989  4055
    4 4055  3989  3990  4056
    4 4056  3990  3991  4057
    4 4057  3991  3992  4058
    4 3960  3894  3895  3961
    4 3961  3895  3896  3962
    4 3962  3896  3897  3963
    4 3963  3897  3898  3964
    4 3964  3898  3899  3965
    4 3965  3899  3900  3966
    4 3966  3900  3901  3967
    4 3967  3901  3902  3968
    4 3968  3902  3903  3969
    4 3969  3903  3904  3970
    4 3970  3904  3905  3971
    4 3971  3905  3906  3972
    4 3972  3906  3907  3973
    4 3973  3907  3908  3974
    4 3974  3908  3909  3975
    4 3975  3909  3910  3976
    4 3976  3910  3911  3977
    4 3977  3911  3912  3978
    4 3978  3912  3913  3979
    4 3979  3913  3914  3980
    4 3980  3914  3915  3981
    4 3981  3915  3916  3982
    4 3982  3916  3917  3983
    4 3983  3917  3918  3984
    4 3984  3918  3919  3985
    4 3985  3919  3920  3986
    4 3986  3920  3921  3987
    4 3987  3921  3922  3988
    4 3988  3922  3923  3989
    4 3989  3923  3924  3990
    4 3990  3924  3925  3991
    4 3991  3925  3926  3992
    4 3894  3828  3829  3895
    4 3895  3829  3830  3896
    4 3896  3830  3831  3897
    4 3897  3831  3832  3898
    4 3898  3832  3833  3899
    4 3899  3833  3834  3900
    4 3900  3834  3835  3901
    4 3901  3835  3836  3902
    4 3902  3836  3837  3903
    4 3903  3837  3838  3904
    4 3904  3838  3839  3905
    4 3905  3839  3840  3906
    4 3906  3840  3841  3907
    4 3907  3841  3842  3908
    4 3908  3842  3843  3909
    4 3909  3843  3844  3910
    4 3910  3844  3845  3911
    4 3911  3845  3846  3912
    4 3912  3846  3847  3913
    4 3913  3847  3848  3914
    4 3914  3848  3849  3915
    4 3915  3849  3850  3916
    4 3916  3850  3851  3917
    4 3917  3851  3852  3918
    4 3918  3852  3853  3919
    4 3919  3853  3854  3920
    4 3920  3854  3855  3921
    4 3921  3855  3856  3922
    4 3922  3856  3857  3923
    4 3923  3857  3858  3924
    4 3924  3858  3859  3925
    4 3925  3859  3860  3926
    4 3828  3762  3763  3829
    4 3829  3763  3764  3830
    4 3830  3764  3765  3831
    4 3831  3765  3766  3832
    4 3832  3766  3767  3833
    4 3833  3767  3768  3834
    4 3834  3768  3769  3835
    4 3835  3769  3770  3836
    4 3836  3770  3771  3837
    4 3837  3771  3772  3838
    4 3838  3772  3773  3839
    4 3839  3773  3774  3840
    4 3840  3774  3775  3841
    4 3841  3775  3776  3842
    4 3842  3776  3777  3843
    4 3843  3777  3778  3844
    4 3844  3778  3779  3845
    4 3845  3779  3780  3846
    4 3846  3780  3781  3847
    4 3847  3781  3782  3848
    4 3848  3782  3783  3849
    4 3849  3783  3784  3850
    4 3850  3784  3785  3851
    4 3851  3785  3786  3852
    4 3852  3786  3787  3853
    4 3853  3787  3788  3854
    4 3854  3788  3789  3855
    4 3855  3789  3790  3856
    4 3856  3790  3791  3857
    4 3857  3791  3792  3858
    4 3858  3792  3793  3859
    4 3859  3793  3794  3860
    4 3762  3696  3697  3763
    4 3763  3697  3698  3764
    4 3764  3698  3699  3765
    4 3765  3699  3700  3766
    4 3766  3700  3701  3767
    4 3767  3701  3702  3768
    4 3768  3702  3703  3769
    4 3769  3703  3704  3770
    4 3770  3704  3705  3771
    4 3771  3705  3706  3772
    4 3772  3706  3707  3773
    4 3773  3707  3708  3774
    4 3774  3708  3709  3775
    4 3775  3709  3710  3776
    4 3776  3710  3711  3777
    4 3777  3711  3712  3778
    4 3778  3712  3713  3779
    4 3779  3713  3714  3780
    4 3780  3714  3715  3781
    4 3781  3715  3716  3782
    4 3782  3716  3717  3783
    4 3783  3717  3718  3784
    4 3784  3718  3719  3785
    4 3785  3719  3720  3786
    4 3786  3720  3721  3787
    4 3787  3721  3722  3788
    4 3788  3722  3723  3789
    4 3789  3723  3724  3790
    4 3790  3724  3725  3791
    4 3791  3725  3726  3792
    4 3792  3726  3727  3793
    4 3793  3727  3728  3794
    4 3696  3630  3631  3697
    4 3697  3631  3632  3698
    4 3698  3632  3633  3699
    4 3699  3633  3634  3700
    4 3700  3634  3635  3701
    4 3701  3635  3636  3702
    4 3702  3636  3637  3703
    4 3703  3637  3638  3704
    4 3704  3638  3639  3705
    4 3705  3639  3640  3706
    4 3706  3640  3641  3707
    4 3707  3641  3642  3708
    4 3708  3642  3643  3709
    4 3709  3643  3644  3710
    4 3710  3644  3645  3711
    4 3711  3645  3646  3712
    4 3712  3646  3647  3713
    4 3713  3647  3648  3714
    4 3714  3648  3649  3715
    4 3715  3649  3650  3716
    4 3716  3650  3651  3717
    4 3717  3651  3652  3718
    4 3718  3652  3653  3719
    4 3719  3653  3654  3720
    4 3720  3654  3655  3721
    4 3721  3655  3656  3722
    4 3722  3656  3657  3723
    4 3723  3657  3658  3724
    4 3724  3658  3659  3725
    4 3725  3659  3660  3726
    4 3726  3660  3661  3727
    4 3727  3661  3662  3728
    4 3630  3564  3565  3631
    4 3631  3565  3566  3632
    4 3632  3566  3567  3633
    4 3633  3567  3568  3634
    4 3634  3568  3569  3635
    4 3635  3569  3570  3636
    4 3636  3570  3571  3637
    4 3637  3571  3572  3638
    4 3638  3572  3573  3639
    4 3639  3573  3574  3640
    4 3640  3574  3575  3641
    4 3641  3575  3576  3642
    4 3642  3576  3577  3643
    4 3643  3577  3578  3644
    4 3644  3578  3579  3645
    4 3645  3579  3580  3646
    4 3646  3580  3581  3647
    4 3647  3581  3582  3648
    4 3648  3582  3583  3649
    4 3649  3583  3584  3650
    4 3650  3584  3585  3651
    4 3651  3585  3586  3652
    4 3652  3586  3587  3653
    4 3653  3587  3588  3654
    4 3654  3588  3589  3655
    4 3655  3589  3590  3656
    4 3656  3590  3591  3657
    4 3657  3591  3592  3658
    4 3658  3592  3593  3659
    4 3659  3593  3594  3660
    4 3660  3594  3595  3661
    4 3661  3595  3596  3662
    4 3564  3498  3499  3565
    4 3565  3499  3500  3566
    4 3566  3500  3501  3567
    4 3567  3501  3502  3568
    4 3568  3502  3503  3569
    4 3569  3503  3504  3570
    4 3570  3504  3505  3571
    4 3571  3505  3506  3572
    4 3572  3506  3507  3573
    4 3573  3507  3508  3574
    4 3574  3508  3509  3575
    4 3575  3509  3510  3576
    4 3576  3510  3511  3577
    4 3577  3511  3512  3578
    4 3578  3512  3513  3579
    4 3579  3513  3514  3580
    4 3580  3514  3515  3581
    4 3581  3515  3516  3582
    4 3582  3516  3517  3583
    4 3583  3517  3518  3584
    4 3584  3518  3519  3585
    4 3585  3519  3520  3586
    4 3586  3520  3521  3587
    4 3587  3521  3522  3588
    4 3588  3522  3523  3589
    4 3589  3523  3524  3590
    4 3590  3524  3525  3591
    4 3591  3525  3526  3592
    4 3592  3526  3527  3593
    4 3593  3527  3528  3594
    4 3594  3528  3529  3595
    4 3595  3529  3530  3596
    4 3498  3432  3433  3499
    4 3499  3433  3434  3500
    4 3500  3434  3435  3501
    4 3501  3435  3436  3502
    4 3502  3436  3437  3503
    4 3503  3437  3438  3504
    4 3504  3438  3439  3505
    4 3505  3439  3440  3506
    4 3506  3440  3441  3507
    4 3507  3441  3442  3508
    4 3508  3442  3443  3509
    4 3509  3443  3444  3510
    4 3510  3444  3445  3511
    4 3511  3445  3446  3512
    4 3512  3446  3447  3513
    4 3513  3447  3448  3514
    4 3514  3448  3449  3515
    4 3515  3449  3450  3516
    4 3516  3450  3451  3517
    4 3517  3451  3452  3518
    4 3518  3452  3453  3519
    4 3519  3453  3454  3520
    4 3520  3454  3455  3521
    4 3521  3455  3456  3522
    4 3522  3456  3457  3523
    4 3523  3457  3458  3524
    4 3524  3458  3459  3525
    4 3525  3459  3460  3526
    4 3526  3460  3461  3527
    4 3527  3461  3462  3528
    4 3528  3462  3463  3529
    4 3529  3463  3464  3530
    4 3432  3366  3367  3433
    4 3433  3367  3368  3434
    4 3434  3368  3369  3435
    4 3435  3369  3370  3436
    4 3436  3370  3371  3437
    4 3437  3371  3372  3438
    4 3438  3372  3373  3439
    4 3439  3373  3374  3440
    4 3440  3374  3375  3441
    4 3441  3375  3376  3442
    4 3442  3376  3377  3443
    4 3443  3377  3378  3444
    4 3444  3378  3379  3445
    4 3445  3379  3380  3446
    4 3446  3380  3381  3447
    4 3447  3381  3382  3448
    4 3448  3382  3383  3449
    4 3449  3383  3384  3450
    4 3450  3384  3385  3451
    4 3451  3385  3386  3452
    4 3452  3386  3387  3453
    4 3453  3387  3388  3454
    4 3454  3388  3389  3455
    4 3455  3389  3390  3456
    4 3456  3390  3391  3457
    4 3457  3391  3392  3458
    4 3458  3392  3393  3459
    4 3459  3393  3394  3460
    4 3460  3394  3395  3461
    4 3461  3395  3396  3462
    4 3462  3396  3397  3463
    4 3463  3397  3398  3464
    4 3366  3300  3301  3367
    4 3367  3301  3302  3368
    4 3368  3302  3303  3369
    4 3369  3303  3304  3370
    4 3370  3304  3305  3371
    4 3371  3305  3306  3372
    4 3372  3306  3307  3373
    4 3373  3307  3308  3374
    4 3374  3308  3309  3375
    4 3375  3309  3310  3376
    4 3376  3310  3311  3377
    4 3377  3311  3312  3378
    4 3378  3312  3313  3379
    4 3379  3313  3314  3380
    4 3380  3314  3315  3381
    4 3381  3315  3316  3382
    4 3382  3316  3317  3383
    4 3383  3317  3318  3384
    4 3384  3318  3319  3385
    4 3385  3319  3320  3386
    4 3386  3320  3321  3387
    4 3387  3321  3322  3388
    4 3388  3322  3323  3389
    4 3389  3323  3324  3390
    4 3390  3324  3325  3391
    4 3391  3325  3326  3392
    4 3392  3326  3327  3393
    4 3393  3327  3328  3394
    4 3394  3328  3329  3395
    4 3395  3329  3330  3396
    4 3396  3330  3331  3397
    4 3397  3331  3332  3398
    4 3300  3234  3235  3301
    4 3301  3235  3236  3302
    4 3302  3236  3237  3303
    4 3303  3237  3238  3304
    4 3304  3238  3239  3305
    4 3305  3239  3240  3306
    4 3306  3240  3241  3307
    4 3307  3241  3242  3308
    4 3308  3242  3243  3309
    4 3309  3243  3244  3310
    4 3310  3244  3245  3311
    4 3311  3245  3246  3312
    4 3312  3246  3247  3313
    4 3313  3247  3248  3314
    4 3314  3248  3249  3315
    4 3315  3249  3250  3316
    4 3316  3250  3251  3317
    4 3317  3251  3252  3318
    4 3318  3252  3253  3319
    4 3319  3253  3254  3320
    4 3320  3254  3255  3321
    4 3321  3255  3256  3322
    4 3322  3256  3257  3323
    4 3323  3257  3258  3324
    4 3324  3258  3259  3325
    4 3325  3259  3260  3326
    4 3326  3260  3261  3327
    4 3327  3261  3262  3328
    4 3328  3262  3263  3329
    4 3329  3263  3264  3330
    4 3330  3264  3265  3331
    4 3331  3265  3266  3332
    4 3234  3168  3169  3235
    4 3235  3169  3170  3236
    4 3236  3170  3171  3237
    4 3237  3171  3172  3238
    4 3238  3172  3173  3239
    4 3239  3173  3174  3240
    4 3240  3174  3175  3241
    4 3241  3175  3176  3242
    4 3242  3176  3177  3243
    4 3243  3177  3178  3244
    4 3244  3178  3179  3245
    4 3245  3179  3180  3246
    4 3246  3180  3181  3247
    4 3247  3181  3182  3248
    4 3248  3182  3183  3249
    4 3249  3183  3184  3250
    4 3250  3184  3185  3251
    4 3251  3185  3186  3252
    4 3252  3186  3187  3253
    4 3253  3187  3188  3254
    4 3254  3188  3189  3255
    4 3255  3189  3190  3256
    4 3256  3190  3191  3257
    4 3257  3191  3192  3258
    4 3258  3192  3193  3259
    4 3259  3193  3194  3260
    4 3260  3194  3195  3261
    4 3261  3195  3196  3262
    4 3262  3196  3197  3263
    4 3263  3197  3198  3264
    4 3264  3198  3199  3265
    4 3265  3199  3200  3266
    4 3168  3102  3103  3169
    4 3169  3103  3104  3170
    4 3170  3104  3105  3171
    4 3171  3105  3106  3172
    4 3172  3106  3107  3173
    4 3173  3107  3108  3174
    4 3174  3108  3109  3175
    4 3175  3109  3110  3176
    4 3176  3110  3111  3177
    4 3177  3111  3112  3178
    4 3178  3112  3113  3179
    4 3179  3113  3114  3180
    4 3180  3114  3115  3181
    4 3181  3115  3116  3182
    4 3182  3116  3117  3183
    4 3183  3117  3118  3184
    4 3184  3118  3119  3185
    4 3185  3119  3120  3186
    4 3186  3120  3121  3187
    4 3187  3121  3122  3188
    4 3188  3122  3123  3189
    4 3189  3123  3124  3190
    4 3190  3124  3125  3191
    4 3191  3125  3126  3192
    4 3192  3126  3127  3193
    4 3193  3127  3128  3194
    4 3194  3128  3129  3195
    4 3195  3129  3130  3196
    4 3196  3130  3131  3197
    4 3197  3131  3132  3198
    4 3198  3132  3133  3199
    4 3199  3133  3134  3200
    4 3102  3036  3037  3103
    4 3103  3037  3038  3104
    4 3104  3038  3039  3105
    4 3105  3039  3040  3106
    4 3106  3040  3041  3107
    4 3107  3041  3042  3108
    4 3108  3042  3043  3109
    4 3109  3043  3044  3110
    4 3110  3044  3045  3111
    4 3111  3045  3046  3112
    4 3112  3046  3047  3113
    4 3113  3047  3048  3114
    4 3114  3048  3049  3115
    4 3115  3049  3050  3116
    4 3116  3050  3051  3117
    4 3117  3051  3052  3118
    4 3118  3052  3053  3119
    4 3119  3053  3054  3120
    4 3120  3054  3055  3121
    4 3121  3055  3056  3122
    4 3122  3056  3057  3123
    4 3123  3057  3058  3124
    4 3124  3058  3059  3125
    4 3125  3059  3060  3126
    4 3126  3060  3061  3127
    4 3127  3061  3062  3128
    4 3128  3062  3063  3129
    4 3129  3063  3064  3130
    4 3130  3064  3065  3131
    4 3131  3065  3066  3132
    4 3132  3066  3067  3133
    4 3133  3067  3068  3134
    4 3036  2970  2971  3037
    4 3037  2971  2972  3038
    4 3038  2972  2973  3039
    4 3039  2973  2974  3040
    4 3040  2974  2975  3041
    4 3041  2975  2976  3042
    4 3042  2976  2977  3043
    4 3043  2977  2978  3044
    4 3044  2978  2979  3045
    4 3045  2979  2980  3046
    4 3046  2980  2981  3047
    4 3047  2981  2982  3048
    4 3048  2982  2983  3049
    4 3049  2983  2984  3050
    4 3050  2984  2985  3051
    4 3051  2985  2986  3052
    4 3052  2986  2987  3053
    4 3053  2987  2988  3054
    4 3054  2988  2989  3055
    4 3055  2989  2990  3056
    4 3056  2990  2991  3057
    4 3057  2991  2992  3058
    4 3058  2992  2993  3059
    4 3059  2993  2994  3060
    4 3060  2994  2995  3061
    4 3061  2995  2996  3062
    4 3062  2996  2997  3063
    4 3063  2997  2998  3064
    4 3064  2998  2999  3065
    4 3065  2999  3000  3066
    4 3066  3000  3001  3067
    4 3067  3001  3002  3068
    4 2970  2904  2905  2971
    4 2971  2905  2906  2972
    4 2972  2906  2907  2973
    4 2973  2907  2908  2974
    4 2974  2908  2909  2975
    4 2975  2909  2910  2976
    4 2976  2910  2911  2977
    4 2977  2911  2912  2978
    4 2978  2912  2913  2979
    4 2979  2913  2914  2980
    4 2980  2914  2915  2981
    4 2981  2915  2916  2982
    4 2982  2916  2917  2983
    4 2983  2917  2918  2984
    4 2984  2918  2919  2985
    4 2985  2919  2920  2986
    4 2986  2920  2921  2987
    4 2987  2921  2922  2988
    4 2988  2922  2923  2989
    4 2989  2923  2924  2990
    4 2990  2924  2925  2991
    4 2991  2925  2926  2992
    4 2992  2926  2927  2993
    4 2993  2927  2928  2994
    4 2994  2928  2929  2995
    4 2995  2929  2930  2996
    4 2996  2930  2931  2997
    4 2997  2931  2932  2998
    4 2998  2932  2933  2999
    4 2999  2933  2934  3000
    4 3000  2934  2935  3001
    4 3001  2935  2936  3002
    4 2904  2838  2839  2905
    4 2905  2839  2840  2906
    4 2906  2840  2841  2907
    4 2907  2841  2842  2908
    4 2908  2842  2843  2909
    4 2909  2843  2844  2910
    4 2910  2844  2845  2911
    4 2911  2845  2846  2912
    4 2912  2846  2847  2913
    4 2913  2847  2848  2914
    4 2914  2848  2849  2915
    4 2915  2849  2850  2916
    4 2916  2850  2851  2917
    4 2917  2851  2852  2918
    4 2918  2852  2853  2919
    4 2919  2853  2854  2920
    4 2920  2854  2855  2921
    4 2921  2855  2856  2922
    4 2922  2856  2857  2923
    4 2923  2857  2858  2924
    4 2924  2858  2859  2925
    4 2925  2859  2860  2926
    4 2926  2860  2861  2927
    4 2927  2861  2862  2928
    4 2928  2862  2863  2929
    4 2929  2863  2864  2930
    4 2930  2864  2865  2931
    4 2931  2865  2866  2932
    4 2932  2866  2867  2933
    4 2933  2867  2868  2934
    4 2934  2868  2869  2935
    4 2935  2869  2870  2936
    4 2838  2772  2773  2839
    4 2839  2773  2774  2840
    4 2840  2774  2775  2841
    4 2841  2775  2776  2842
    4 2842  2776  2777  2843
    4 2843  2777  2778  2844
    4 2844  2778  2779  2845
    4 2845  2779  2780  2846
    4 2846  2780  2781  2847
    4 2847  2781  2782  2848
    4 2848  2782  2783  2849
    4 2849  2783  2784  2850
    4 2850  2784  2785  2851
    4 2851  2785  2786  2852
    4 2852  2786  2787  2853
    4 2853  2787  2788  2854
    4 2854  2788  2789  2855
    4 2855  2789  2790  2856
    4 2856  2790  2791  2857
    4 2857  2791  2792  2858
    4 2858  2792  2793  2859
    4 2859  2793  2794  2860
    4 2860  2794  2795  2861
    4 2861  2795  2796  2862
    4 2862  2796  2797  2863
    4 2863  2797  2798  2864
    4 2864  2798  2799  2865
    4 2865  2799  2800  2866
    4 2866  2800  2801  2867
    4 2867  2801  2802  2868
    4 2868  2802  2803  2869
    4 2869  2803  2804  2870
    4 2772  2706  2707  2773
    4 2773  2707  2708  2774
    4 2774  2708  2709  2775
    4 2775  2709  2710  2776
    4 2776  2710  2711  2777
    4 2777  2711  2712  2778
    4 2778  2712  2713  2779
    4 2779  2713  2714  2780
    4 2780  2714  2715  2781
    4 2781  2715  2716  2782
    4 2782  2716  2717  2783
    4 2783  2717  2718  2784
    4 2784  2718  2719  2785
    4 2785  2719  2720  2786
    4 2786  2720  2721  2787
    4 2787  2721  2722  2788
    4 2788  2722  2723  2789
    4 2789  2723  2724  2790
    4 2790  2724  2725  2791
    4 2791  2725  2726  2792
    4 2792  2726  2727  2793
    4 2793  2727  2728  2794
    4 2794  2728  2729  2795
    4 2795  2729  2730  2796
    4 2796  2730  2731  2797
    4 2797  2731  2732  2798
    4 2798  2732  2733  2799
    4 2799  2733  2734  2800
    4 2800  2734  2735  2801
    4 2801  2735  2736  2802
    4 2802  2736  2737  2803
    4 2803  2737  2738  2804
    4 2706  2640  2641  2707
    4 2707  2641  2642  2708
    4 2708  2642  2643  2709
    4 2709  2643  2644  2710
    4 2710  2644  2645  2711
    4 2711  2645  2646  2712
    4 2712  2646  2647  2713
    4 2713  2647  2648  2714
    4 2714  2648  2649  2715
    4 2715  2649  2650  2716
    4 2716  2650  2651  2717
    4 2717  2651  2652  2718
    4 2718  2652  2653  2719
    4 2719  2653  2654  2720
    4 2720  2654  2655  2721
    4 2721  2655  2656  2722
    4 2722  2656  2657  2723
    4 2723  2657  2658  2724
    4 2724  2658  2659  2725
    4 2725  2659  2660  2726
    4 2726  2660  2661  2727
    4 2727  2661  2662  2728
    4 2728  2662  2663  2729
    4 2729  2663  2664  2730
    4 2730  2664  2665  2731
    4 2731  2665  2666  2732
    4 2732  2666  2667  2733
    4 2733  2667  2668  2734
    4 2734  2668  2669  2735
    4 2735  2669  2670  2736
    4 2736  2670  2671  2737
    4 2737  2671  2672  2738
    4 2640  2574  2575  2641
    4 2641  2575  2576  2642
    4 2642  2576  2577  2643
    4 2643  2577  2578  2644
    4 2644  2578  2579  2645
    4 2645  2579  2580  2646
    4 2646  2580  2581  2647
    4 2647  2581  2582  2648
    4 2648  2582  2583  2649
    4 2649  2583  2584  2650
    4 2650  2584  2585  2651
    4 2651  2585  2586  2652
    4 2652  2586  2587  2653
    4 2653  2587  2588  2654
    4 2654  2588  2589  2655
    4 2655  2589  2590  2656
    4 2656  2590  2591  2657
    4 2657  2591  2592  2658
    4 2658  2592  2593  2659
    4 2659  2593  2594  2660
    4 2660  2594  2595  2661
    4 2661  2595  2596  2662
    4 2662  2596  2597  2663
    4 2663  2597  2598  2664
    4 2664  2598  2599  2665
    4 2665  2599  2600  2666
    4 2666  2600  2601  2667
    4 2667  2601  2602  2668
    4 2668  2602  2603  2669
    4 2669  2603  2604  2670
    4 2670  2604  2605  2671
    4 2671  2605  2606  2672
    4 2574  2508  2509  2575
    4 2575  2509  2510  2576
    4 2576  2510  2511  2577
    4 2577  2511  2512  2578
    4 2578  2512  2513  2579
    4 2579  2513  2514  2580
    4 2580  2514  2515  2581
    4 2581  2515  2516  2582
    4 2582  2516  2517  2583
    4 2583  2517  2518  2584
    4 2584  2518  2519  2585
    4 2585  2519  2520  2586
    4 2586  2520  2521  2587
    4 2587  2521  2522  2588
    4 2588  2522  2523  2589
    4 2589  2523  2524  2590
    4 2590  2524  2525  2591
    4 2591  2525  2526  2592
    4 2592  2526  2527  2593
    4 2593  2527  2528  2594
    4 2594  2528  2529  2595
    4 2595  2529  2530  2596
    4 2596  2530  2531  2597
    4 2597  2531  2532  2598
    4 2598  2532  2533  2599
    4 2599  2533  2534  2600
    4 2600  2534  2535  2601
    4 2601  2535  2536  2602
    4 2602  2536  2537  2603
    4 2603  2537  2538  2604
    4 2604  2538  2539  2605
    4 2605  2539  2540  2606
    4 2508  2442  2443  2509
    4 2509  2443  2444  2510
    4 2510  2444  2445  2511
    4 2511  2445  2446  2512
    4 2512  2446  2447  2513
    4 2513  2447  2448  2514
    4 2514  2448  2449  2515
    4 2515  2449  2450  2516
    4 2516  2450  2451  2517
    4 2517  2451  2452  2518
    4 2518  2452  2453  2519
    4 2519  2453  2454  2520
    4 2520  2454  2455  2521
    4 2521  2455  2456  2522
    4 2522  2456  2457  2523
    4 2523  2457  2458  2524
    4 2524  2458  2459  2525
    4 2525  2459  2460  2526
    4 2526  2460  2461  2527
    4 2527  2461  2462  2528
    4 2528  2462  2463  2529
    4 2529  2463  2464  2530
    4 2530  2464  2465  2531
    4 2531  2465  2466  2532
    4 2532  2466  2467  2533
    4 2533  2467  2468  2534
    4 2534  2468  2469  2535
    4 2535  2469  2470  2536
    4 2536  2470  2471  2537
    4 2537  2471  2472  2538
    4 2538  2472  2473  2539
    4 2539  2473  2474  2540
    4 2442  2376  2377  2443
    4 2443  2377  2378  2444
    4 2444  2378  2379  2445
    4 2445  2379  2380  2446
    4 2446  2380  2381  2447
    4 2447  2381  2382  2448
    4 2448  2382  2383  2449
    4 2449  2383  2384  2450
    4 2450  2384  2385  2451
    4 2451  2385  2386  2452
    4 2452  2386  2387  2453
    4 2453  2387  2388  2454
    4 2454  2388  2389  2455
    4 2455  2389  2390  2456
    4 2456  2390  2391  2457
    4 2457  2391  2392  2458
    4 2458  2392  2393  2459
    4 2459  2393  2394  2460
    4 2460  2394  2395  2461
    4 2461  2395  2396  2462
    4 2462  2396  2397  2463
    4 2463  2397  2398  2464
    4 2464  2398  2399  2465
    4 2465  2399  2400  2466
    4 2466  2400  2401  2467
    4 2467  2401  2402  2468
    4 2468  2402  2403  2469
    4 2469  2403  2404  2470
    4 2470  2404  2405  2471
    4 2471  2405  2406  2472
    4 2472  2406  2407  2473
    4 2473  2407  2408  2474
    4 2376  2310  2311  2377
    4 2377  2311  2312  2378
    4 2378  2312  2313  2379
    4 2379  2313  2314  2380
    4 2380  2314  2315  2381
    4 2381  2315  2316  2382
    4 2382  2316  2317  2383
    4 2383  2317  2318  2384
    4 2384  2318  2319  2385
    4 2385  2319  2320  2386
    4 2386  2320  2321  2387
    4 2387  2321  2322  2388
    4 2388  2322  2323  2389
    4 2389  2323  2324  2390
    4 2390  2324  2325  2391
    4 2391  2325  2326  2392
    4 2392  2326  2327  2393
    4 2393  2327  2328  2394
    4 2394  2328  2329  2395
    4 2395  2329  2330  2396
    4 2396  2330  2331  2397
    4 2397  2331  2332  2398
    4 2398  2332  2333  2399
    4 2399  2333  2334  2400
    4 2400  2334  2335  2401
    4 2401  2335  2336  2402
    4 2402  2336  2337  2403
    4 2403  2337  2338  2404
    4 2404  2338  2339  2405
    4 2405  2339  2340  2406
    4 2406  2340  2341  2407
    4 2407  2341  2342  2408
    4 2310  2244  2245  2311
    4 2311  2245  2246  2312
    4 2312  2246  2247  2313
    4 2313  2247  2248  2314
    4 2314  2248  2249  2315
    4 2315  2249  2250  2316
    4 2316  2250  2251  2317
    4 2317  2251  2252  2318
    4 2318  2252  2253  2319
    4 2319  2253  2254  2320
    4 2320  2254  2255  2321
    4 2321  2255  2256  2322
    4 2322  2256  2257  2323
    4 2323  2257  2258  2324
    4 2324  2258  2259  2325
    4 2325  2259  2260  2326
    4 2326  2260  2261  2327
    4 2327  2261  2262  2328
    4 2328  2262  2263  2329
    4 2329  2263  2264  2330
    4 2330  2264  2265  2331
    4 2331  2265  2266  2332
    4 2332  2266  2267  2333
    4 2333  2267  2268  2334
    4 2334  2268  2269  2335
    4 2335  2269  2270  2336
    4 2336  2270  2271  2337
    4 2337  2271  2272  2338
    4 2338  2272  2273  2339
    4 2339  2273  2274  2340
    4 2340  2274  2275  2341
    4 2341  2275  2276  2342
    4 2244  2178  2179  2245
    4 2245  2179  2180  2246
    4 2246  2180  2181  2247
    4 2247  2181  2182  2248
    4 2248  2182  2183  2249
    4 2249  2183  2184  2250
    4 2250  2184  2185  2251
    4 2251  2185  2186  2252
    4 2252  2186  2187  2253
    4 2253  2187  2188  2254
    4 2254  2188  2189  2255
    4 2255  2189  2190  2256
    4 2256  2190  2191  2257
    4 2257  2191  2192  2258
    4 2258  2192  2193  2259
    4 2259  2193  2194  2260
    4 2260  2194  2195  2261
    4 2261  2195  2196  2262
    4 2262  2196  2197  2263
    4 2263  2197  2198  2264
    4 2264  2198  2199  2265
    4 2265  2199  2200  2266
    4 2266  2200  2201  2267
    4 2267  2201  2202  2268
    4 2268  2202  2203  2269
    4 2269  2203  2204  2270
    4 2270  2204  2205  2271
    4 2271  2205  2206  2272
    4 2272  2206  2207  2273
    4 2273  2207  2208  2274
    4 2274  2208  2209  2275
    4 2275  2209  2210  2276
    4 2178  2112  2113  2179
    4 2179  2113  2114  2180
    4 2180  2114  2115  2181
    4 2181  2115  2116  2182
    4 2182  2116  2117  2183
    4 2183  2117  2118  2184
    4 2184  2118  2119  2185
    4 2185  2119  2120  2186
    4 2186  2120  2121  2187
    4 2187  2121  2122  2188
    4 2188  2122  2123  2189
    4 2189  2123  2124  2190
    4 2190  2124  2125  2191
    4 2191  2125  2126  2192
    4 2192  2126  2127  2193
    4 2193  2127  2128  2194
    4 2194  2128  2129  2195
    4 2195  2129  2130  2196
    4 2196  2130  2131  2197
    4 2197  2131  2132  2198
    4 2198  2132  2133  2199
    4 2199  2133  2134  2200
    4 2200  2134  2135  2201
    4 2201  2135  2136  2202
    4 2202  2136  2137  2203
    4 2203  2137  2138  2204
    4 2204  2138  2139  2205
    4 2205  2139  2140  2206
    4 2206  2140  2141  2207
    4 2207  2141  2142  2208
    4 2208  2142  2143  2209
    4 2209  2143  2144  2210
    4 2112  1984  1985  2113
    4 2113  1985  1986  2114
    4 2114  1986  1987  2115
    4 2115  1987  1988  2116
    4 2116  1988  1989  2117
    4 2117  1989  1990  2118
    4 2118  1990  1991  2119
    4 2119  1991  1992  2120
    4 2120  1992  1993  2121
    4 2121  1993  1994  2122
    4 2122  1994  1995  2123
    4 2123  1995  1996  2124
    4 2124  1996  1997  2125
    4 2125  1997  1998  2126
    4 2126  1998  1999  2127
    4 2127  1999  2000  2128
    4 2128  2000  2001  2129
    4 2129  2001  2002  2130
    4 2130  2002  2003  2131
    4 2131  2003  2004  2132
    4 2132  2004  2005  2133
    4 2133  2005  2006  2134
    4 2134  2006  2007  2135
    4 2135  2007  2008  2136
    4 2136  2008  2009  2137
    4 2137  2009  2010  2138
    4 2138  2010  2011  2139
    4 2139  2011  2012  2140
    4 2140  2012  2013  2141
    4 2141  2013  2014  2142
    4 2142  2014  2015  2143
    4 2143  2015  2110  2144
    4 1984  1860  1861  1985
    4 1985  1861  1862  1986
    4 1986  1862  1863  1987
    4 1987  1863  1864  1988
    4 1988  1864  1865  1989
    4 1989  1865  1866  1990
    4 1990  1866  1867  1991
    4 1991  1867  1868  1992
    4 1992  1868  1869  1993
    4 1993  1869  1870  1994
    4 1994  1870  1871  1995
    4 1995  1871  1872  1996
    4 1996  1872  1873  1997
    4 1997  1873  1874  1998
    4 1998  1874  1875  1999
    4 1999  1875  1876  2000
    4 2000  1876  1877  2001
    4 2001  1877  1878  2002
    4 2002  1878  1879  2003
    4 2003  1879  1880  2004
    4 2004  1880  1881  2005
    4 2005  1881  1882  2006
    4 2006  1882  1883  2007
    4 2007  1883  1884  2008
    4 2008  1884  1885  2009
    4 2009  1885  1886  2010
    4 2010  1886  1887  2011
    4 2011  1887  1888  2012
    4 2012  1888  1889  2013
    4 2013  1889  1890  2014
    4 2014  1890  1982  2015
    4 2015  1982  2108  2110
    4 1860  1740  1741  1861
    4 1861  1741  1742  1862
    4 1862  1742  1743  1863
    4 1863  1743  1744  1864
    4 1864  1744  1745  1865
    4 1865  1745  1746  1866
    4 1866  1746  1747  1867
    4 1867  1747  1748  1868
    4 1868  1748  1749  1869
    4 1869  1749  1750  1870
    4 1870  1750  1751  1871
    4 1871  1751  1752  1872
    4 1872  1752  1753  1873
    4 1873  1753  1754  1874
    4 1874  1754  1755  1875
    4 1875  1755  1756  1876
    4 1876  1756  1757  1877
    4 1877  1757  1758  1878
    4 1878  1758  1759  1879
    4 1879  1759  1760  1880
    4 1880  1760  1761  1881
    4 1881  1761  1762  1882
    4 1882  1762  1763  1883
    4 1883  1763  1764  1884
    4 1884  1764  1765  1885
    4 1885  1765  1766  1886
    4 1886  1766  1767  1887
    4 1887  1767  1768  1888
    4 1888  1768  1769  1889
    4 1889  1769  1858  1890
    4 1890  1858  1980  1982
    4 1982  1980  2106  2108
    4 1740  1624  1625  1741
    4 1741  1625  1626  1742
    4 1742  1626  1627  1743
    4 1743  1627  1628  1744
    4 1744  1628  1629  1745
    4 1745  1629  1630  1746
    4 1746  1630  1631  1747
    4 1747  1631  1632  1748
    4 1748  1632  1633  1749
    4 1749  1633  1634  1750
    4 1750  1634  1635  1751
    4 1751  1635  1636  1752
    4 1752  1636  1637  1753
    4 1753  1637  1638  1754
    4 1754  1638  1639  1755
    4 1755  1639  1640  1756
    4 1756  1640  1641  1757
    4 1757  1641  1642  1758
    4 1758  1642  1643  1759
    4 1759  1643  1644  1760
    4 1760  1644  1645  1761
    4 1761  1645  1646  1762
    4 1762  1646  1647  1763
    4 1763  1647  1648  1764
    4 1764  1648  1649  1765
    4 1765  1649  1650  1766
    4 1766  1650  1651  1767
    4 1767  1651  1652  1768
    4 1768  1652  1738  1769
    4 1769  1738  1856  1858
    4 1858  1856  1978  1980
    4 1980  1978  2104  2106
    4 1624  1512  1513  1625
    4 1625  1513  1514  1626
    4 1626  1514  1515  1627
    4 1627  1515  1516  1628
    4 1628  1516  1517  1629
    4 1629  1517  1518  1630
    4 1630  1518  1519  1631
    4 1631  1519  1520  1632
    4 1632  1520  1521  1633
    4 1633  1521  1522  1634
    4 1634  1522  1523  1635
    4 1635  1523  1524  1636
    4 1636  1524  1525  1637
    4 1637  1525  1526  1638
    4 1638  1526  1527  1639
    4 1639  1527  1528  1640
    4 1640  1528  1529  1641
    4 1641  1529  1530  1642
    4 1642  1530  1531  1643
    4 1643  1531  1532  1644
    4 1644  1532  1533  1645
    4 1645  1533  1534  1646
    4 1646  1534  1535  1647
    4 1647  1535  1536  1648
    4 1648  1536  1537  1649
    4 1649  1537  1538  1650
    4 1650  1538  1539  1651
    4 1651  1539  1622  1652
    4 1652  1622  1736  1738
    4 1738  1736  1854  1856
    4 1856  1854  1976  1978
    4 1978  1976  2102  2104
    4 1512  1404  1405  1513
    4 1513  1405  1406  1514
    4 1514  1406  1407  1515
    4 1515  1407  1408  1516
    4 1516  1408  1409  1517
    4 1517  1409  1410  1518
    4 1518  1410  1411  1519
    4 1519  1411  1412  1520
    4 1520  1412  1413  1521
    4 1521  1413  1414  1522
    4 1522  1414  1415  1523
    4 1523  1415  1416  1524
    4 1524  1416  1417  1525
    4 1525  1417  1418  1526
    4 1526  1418  1419  1527
    4 1527  1419  1420  1528
    4 1528  1420  1421  1529
    4 1529  1421  1422  1530
    4 1530  1422  1423  1531
    4 1531  1423  1424  1532
    4 1532  1424  1425  1533
    4 1533  1425  1426  1534
    4 1534  1426  1427  1535
    4 1535  1427  1428  1536
    4 1536  1428  1429  1537
    4 1537  1429  1430  1538
    4 1538  1430  1510  1539
    4 1539  1510  1620  1622
    4 1622  1620  1734  1736
    4 1736  1734  1852  1854
    4 1854  1852  1974  1976
    4 1976  1974  2100  2102
    4 1404  1300  1301  1405
    4 1405  1301  1302  1406
    4 1406  1302  1303  1407
    4 1407  1303  1304  1408
    4 1408  1304  1305  1409
    4 1409  1305  1306  1410
    4 1410  1306  1307  1411
    4 1411  1307  1308  1412
    4 1412  1308  1309  1413
    4 1413  1309  1310  1414
    4 1414  1310  1311  1415
    4 1415  1311  1312  1416
    4 1416  1312  1313  1417
    4 1417  1313  1314  1418
    4 1418  1314  1315  1419
    4 1419  1315  1316  1420
    4 1420  1316  1317  1421
    4 1421  1317  1318  1422
    4 1422  1318  1319  1423
    4 1423  1319  1320  1424
    4 1424  1320  1321  1425
    4 1425  1321  1322  1426
    4 1426  1322  1323  1427
    4 1427  1323  1324  1428
    4 1428  1324  1325  1429
    4 1429  1325  1402  1430
    4 1430  1402  1508  1510
    4 1510  1508  1618  1620
    4 1620  1618  1732  1734
    4 1734  1732  1850  1852
    4 1852  1850  1972  1974
    4 1974  1972  2098  2100
    4 1300  1200  1201  1301
    4 1301  1201  1202  1302
    4 1302  1202  1203  1303
    4 1303  1203  1204  1304
    4 1304  1204  1205  1305
    4 1305  1205  1206  1306
    4 1306  1206  1207  1307
    4 1307  1207  1208  1308
    4 1308  1208  1209  1309
    4 1309  1209  1210  1310
    4 1310  1210  1211  1311
    4 1311  1211  1212  1312
    4 1312  1212  1213  1313
    4 1313  1213  1214  1314
    4 1314  1214  1215  1315
    4 1315  1215  1216  1316
    4 1316  1216  1217  1317
    4 1317  1217  1218  1318
    4 1318  1218  1219  1319
    4 1319  1219  1220  1320
    4 1320  1220  1221  1321
    4 1321  1221  1222  1322
    4 1322  1222  1223  1323
    4 1323  1223  1224  1324
    4 1324  1224  1298  1325
    4 1325  1298  1400  1402
    4 1402  1400  1506  1508
    4 1508  1506  1616  1618
    4 1618  1616  1730  1732
    4 1732  1730  1848  1850
    4 1850  1848  1970  1972
    4 1972  1970  2096  2098
    4 1200  1104  1105  1201
    4 1201  1105  1106  1202
    4 1202  1106  1107  1203
    4 1203  1107  1108  1204
    4 1204  1108  1109  1205
    4 1205  1109  1110  1206
    4 1206  1110  1111  1207
    4 1207  1111  1112  1208
    4 1208  1112  1113  1209
    4 1209  1113  1114  1210
    4 1210  1114  1115  1211
    4 1211  1115  1116  1212
    4 1212  1116  1117  1213
    4 1213  1117  1118  1214
    4 1214  1118  1119  1215
    4 1215  1119  1120  1216
    4 1216  1120  1121  1217
    4 1217  1121  1122  1218
    4 1218  1122  1123  1219
    4 1219  1123  1124  1220
    4 1220  1124  1125  1221
    4 1221  1125  1126  1222
    4 1222  1126  1127  1223
    4 1223  1127  1198  1224
    4 1224  1198  1296  1298
    4 1298  1296  1398  1400
    4 1400  1398  1504  1506
    4 1506  1504  1614  1616
    4 1616  1614  1728  1730
    4 1730  1728  1846  1848
    4 1848  1846  1968  1970
    4 1970  1968  2094  2096
    4 1104  1012  1013  1105
    4 1105  1013  1014  1106
    4 1106  1014  1015  1107
    4 1107  1015  1016  1108
    4 1108  1016  1017  1109
    4 1109  1017  1018  1110
    4 1110  1018  1019  1111
    4 1111  1019  1020  1112
    4 1112  1020  1021  1113
    4 1113  1021  1022  1114
    4 1114  1022  1023  1115
    4 1115  1023  1024  1116
    4 1116  1024  1025  1117
    4 1117  1025  1026  1118
    4 1118  1026  1027  1119
    4 1119  1027  1028  1120
    4 1120  1028  1029  1121
    4 1121  1029  1030  1122
    4 1122  1030  1031  1123
    4 1123  1031  1032  1124
    4 1124  1032  1033  1125
    4 1125  1033  1034  1126
    4 1126  1034  1102  1127
    4 1127  1102  1196  1198
    4 1198  1196  1294  1296
    4 1296  1294  1396  1398
    4 1398  1396  1502  1504
    4 1504  1502  1612  1614
    4 1614  1612  1726  1728
    4 1728  1726  1844  1846
    4 1846  1844  1966  1968
    4 1968  1966  2092  2094
    4 1012   924   925  1013
    4 1013   925   926  1014
    4 1014   926   927  1015
    4 1015   927   928  1016
    4 1016   928   929  1017
    4 1017   929   930  1018
    4 1018   930   931  1019
    4 1019   931   932  1020
    4 1020   932   933  1021
    4 1021   933   934  1022
    4 1022   934   935  1023
    4 1023   935   936  1024
    4 1024   936   937  1025
    4 1025   937   938  1026
    4 1026   938   939  1027
    4 1027   939   940  1028
    4 1028   940   941  1029
    4 1029   941   942  1030
    4 1030   942   943  1031
    4 1031   943   944  1032
    4 1032   944   945  1033
    4 1033   945  1010  1034
    4 1034  1010  1100  1102
    4 1102  1100  1194  1196
    4 1196  1194  1292  1294
    4 1294  1292  1394  1396
    4 1396  1394  1500  1502
    4 1502  1500  1610  1612
    4 1612  1610  1724  1726
    4 1726  1724  1842  1844
    4 1844  1842  1964  1966
    4 1966  1964  2090  2092
    4  924   840   841   925
    4  925   841   842   926
    4  926   842   843   927
    4  927   843   844   928
    4  928   844   845   929
    4  929   845   846   930
    4  930   846   847   931
    4  931   847   848   932
    4  932   848   849   933
    4  933   849   850   934
    4  934   850   851   935
    4  935   851   852   936
    4  936   852   853   937
    4  937   853   854   938
    4  938   854   855   939
    4  939   855   856   940
    4  940   856   857   941
    4  941   857   858   942
    4  942   858   859   943
    4  943   859   860   944
    4  944   860   922   945
    4  945   922  1008  1010
    4 1010  1008  1098  1100
    4 1100  1098  1192  1194
    4 1194  1192  1290  1292
    4 1292  1290  1392  1394
    4 1394  1392  1498  1500
    4 1500  1498  1608  1610
    4 1610  1608  1722  1724
    4 1724  1722  1840  1842
    4 1842  1840  1962  1964
    4 1964  1962  2088  2090
    4  840   760   761   841
    4  841   761   762   842
    4  842   762   763   843
    4  843   763   764   844
    4  844   764   765   845
    4  845   765   766   846
    4  846   766   767   847
    4  847   767   768   848
    4  848   768   769   849
    4  849   769   770   850
    4  850   770   771   851
    4  851   771   772   852
    4  852   772   773   853
    4  853   773   774   854
    4  854   774   775   855
    4  855   775   776   856
    4  856   776   777   857
    4  857   777   778   858
    4  858   778   779   859
    4  859   779   838   860
    4  860   838   920   922
    4  922   920  1006  1008
    4 1008  1006  1096  1098
    4 1098  1096  1190  1192
    4 1192  1190  1288  1290
    4 1290  1288  1390  1392
    4 1392  1390  1496  1498
    4 1498  1496  1606  1608
    4 1608  1606  1720  1722
    4 1722  1720  1838  1840
    4 1840  1838  1960  1962
    4 1962  1960  2086  2088
    4  760   684   685   761
    4  761   685   686   762
    4  762   686   687   763
    4  763   687   688   764
    4  764   688   689   765
    4  765   689   690   766
    4  766   690   691   767
    4  767   691   692   768
    4  768   692   693   769
    4  769   693   694   770
    4  770   694   695   771
    4  771   695   696   772
    4  772   696   697   773
    4  773   697   698   774
    4  774   698   699   775
    4  775   699   700   776
    4  776   700   701   777
    4  777   701   702   778
    4  778   702   758   779
    4  779   758   836   838
    4  838   836   918   920
    4  920   918  1004  1006
    4 1006  1004  1094  1096
    4 1096  1094  1188  1190
    4 1190  1188  1286  1288
    4 1288  1286  1388  1390
    4 1390  1388  1494  1496
    4 1496  1494  1604  1606
    4 1606  1604  1718  1720
    4 1720  1718  1836  1838
    4 1838  1836  1958  1960
    4 1960  1958  2084  2086
    4  684   612   613   685
    4  685   613   614   686
    4  686   614   615   687
    4  687   615   616   688
    4  688   616   617   689
    4  689   617   618   690
    4  690   618   619   691
    4  691   619   620   692
    4  692   620   621   693
    4  693   621   622   694
    4  694   622   623   695
    4  695   623   624   696
    4  696   624   625   697
    4  697   625   626   698
    4  698   626   627   699
    4  699   627   628   700
    4  700   628   629   701
    4  701   629   682   702
    4  702   682   756   758
    4  758   756   834   836
    4  836   834   916   918
    4  918   916  1002  1004
    4 1004  1002  1092  1094
    4 1094  1092  1186  1188
    4 1188  1186  1284  1286
    4 1286  1284  1386  1388
    4 1388  1386  1492  1494
    4 1494  1492  1602  1604
    4 1604  1602  1716  1718
    4 1718  1716  1834  1836
    4 1836  1834  1956  1958
    4 1958  1956  2082  2084
    4  612   544   545   613
    4  613   545   546   614
    4  614   546   547   615
    4  615   547   548   616
    4  616   548   549   617
    4  617   549   550   618
    4  618   550   551   619
    4  619   551   552   620
    4  620   552   553   621
    4  621   553   554   622
    4  622   554   555   623
    4  623   555   556   624
    4  624   556   557   625
    4  625   557   558   626
    4  626   558   559   627
    4  627   559   560   628
    4  628   560   610   629
    4  629   610   680   682
    4  682   680   754   756
    4  756   754   832   834
    4  834   832   914   916
    4  916   914  1000  1002
    4 1002  1000  1090  1092
    4 1092  1090  1184  1186
    4 1186  1184  1282  1284
    4 1284  1282  1384  1386
    4 1386  1384  1490  1492
    4 1492  1490  1600  1602
    4 1602  1600  1714  1716
    4 1716  1714  1832  1834
    4 1834  1832  1954  1956
    4 1956  1954  2080  2082
    4  544   480   481   545
    4  545   481   482   546
    4  546   482   483   547
    4  547   483   484   548
    4  548   484   485   549
    4  549   485   486   550
    4  550   486   487   551
    4  551   487   488   552
    4  552   488   489   553
    4  553   489   490   554
    4  554   490   491   555
    4  555   491   492   556
    4  556   492   493   557
    4  557   493   494   558
    4  558   494   495   559
    4  559   495   542   560
    4  560   542   608   610
    4  610   608   678   680
    4  680   678   752   754
    4  754   752   830   832
    4  832   830   912   914
    4  914   912   998  1000
    4 1000   998  1088  1090
    4 1090  1088  1182  1184
    4 1184  1182  1280  1282
    4 1282  1280  1382  1384
    4 1384  1382  1488  1490
    4 1490  1488  1598  1600
    4 1600  1598  1712  1714
    4 1714  1712  1830  1832
    4 1832  1830  1952  1954
    4 1954  1952  2078  2080
    4  480   420   421   481
    4  481   421   422   482
    4  482   422   423   483
    4  483   423   424   484
    4  484   424   425   485
    4  485   425   426   486
    4  486   426   427   487
    4  487   427   428   488
    4  488   428   429   489
    4  489   429   430   490
    4  490   430   431   491
    4  491   431   432   492
    4  492   432   433   493
    4  493   433   434   494
    4  494   434   478   495
    4  495   478   540   542
    4  542   540   606   608
    4  608   606   676   678
    4  678   676   750   752
    4  752   750   828   830
    4  830   828   910   912
    4  912   910   996   998
    4  998   996  1086  1088
    4 1088  1086  1180  1182
    4 1182  1180  1278  1280
    4 1280  1278  1380  1382
    4 1382  1380  1486  1488
    4 1488  1486  1596  1598
    4 1598  1596  1710  1712
    4 1712  1710  1828  1830
    4 1830  1828  1950  1952
    4 1952  1950  2076  2078
    4  420   364   365   421
    4  421   365   366   422
    4  422   366   367   423
    4  423   367   368   424
    4  424   368   369   425
    4  425   369   370   426
    4  426   370   371   427
    4  427   371   372   428
    4  428   372   373   429
    4  429   373   374   430
    4  430   374   375   431
    4  431   375   376   432
    4  432   376   377   433
    4  433   377   418   434
    4  434   418   476   478
    4  478   476   538   540
    4  540   538   604   606
    4  606   604   674   676
    4  676   674   748   750
    4  750   748   826   828
    4  828   826   908   910
    4  910   908   994   996
    4  996   994  1084  1086
    4 1086  1084  1178  1180
    4 1180  1178  1276  1278
    4 1278  1276  1378  1380
    4 1380  1378  1484  1486
    4 1486  1484  1594  1596
    4 1596  1594  1708  1710
    4 1710  1708  1826  1828
    4 1828  1826  1948  1950
    4 1950  1948  2074  2076
    4  364   312   313   365
    4  365   313   314   366
    4  366   314   315   367
    4  367   315   316   368
    4  368   316   317   369
    4  369   317   318   370
    4  370   318   319   371
    4  371   319   320   372
    4  372   320   321   373
    4  373   321   322   374
    4  374   322   323   375
    4  375   323   324   376
    4  376   324   362   377
    4  377   362   416   418
    4  418   416   474   476
    4  476   474   536   538
    4  538   536   602   604
    4  604   602   672   674
    4  674   672   746   748
    4  748   746   824   826
    4  826   824   906   908
    4  908   906   992   994
    4  994   992  1082  1084
    4 1084  1082  1176  1178
    4 1178  1176  1274  1276
    4 1276  1274  1376  1378
    4 1378  1376  1482  1484
    4 1484  1482  1592  1594
    4 1594  1592  1706  1708
    4 1708  1706  1824  1826
    4 1826  1824  1946  1948
    4 1948  1946  2072  2074
    4  312   264   265   313
    4  313   265   266   314
    4  314   266   267   315
    4  315   267   268   316
    4  316   268   269   317
    4  317   269   270   318
    4  318   270   271   319
    4  319   271   272   320
    4  320   272   273   321
    4  321   273   274   322
    4  322   274   275   323
    4  323   275   310   324
    4  324   310   360   362
    4  362   360   414   416
    4  416   414   472   474
    4  474   472   534   536
    4  536   534   600   602
    4  602   600   670   672
    4  672   670   744   746
    4  746   744   822   824
    4  824   822   904   906
    4  906   904   990   992
    4  992   990  1080  1082
    4 1082  1080  1174  1176
    4 1176  1174  1272  1274
    4 1274  1272  1374  1376
    4 1376  1374  1480  1482
    4 1482  1480  1590  1592
    4 1592  1590  1704  1706
    4 1706  1704  1822  1824
    4 1824  1822  1944  1946
    4 1946  1944  2070  2072
    4  264   220   221   265
    4  265   221   222   266
    4  266   222   223   267
    4  267   223   224   268
    4  268   224   225   269
    4  269   225   226   270
    4  270   226   227   271
    4  271   227   228   272
    4  272   228   229   273
    4  273   229   230   274
    4  274   230   262   275
    4  275   262   308   310
    4  310   308   358   360
    4  360   358   412   414
    4  414   412   470   472
    4  472   470   532   534
    4  534   532   598   600
    4  600   598   668   670
    4  670   668   742   744
    4  744   742   820   822
    4  822   820   902   904
    4  904   902   988   990
    4  990   988  1078  1080
    4 1080  1078  1172  1174
    4 1174  1172  1270  1272
    4 1272  1270  1372  1374
    4 1374  1372  1478  1480
    4 1480  1478  1588  1590
    4 1590  1588  1702  1704
    4 1704  1702  1820  1822
    4 1822  1820  1942  1944
    4 1944  1942  2068  2070
    4  220   180   181   221
    4  221   181   182   222
    4  222   182   183   223
    4  223   183   184   224
    4  224   184   185   225
    4  225   185   186   226
    4  226   186   187   227
    4  227   187   188   228
    4  228   188   189   229
    4  229   189   218   230
    4  230   218   260   262
    4  262   260   306   308
    4  308   306   356   358
    4  358   356   410   412
    4  412   410   468   470
    4  470   468   530   532
    4  532   530   596   598
    4  598   596   666   668
    4  668   666   740   742
    4  742   740   818   820
    4  820   818   900   902
    4  902   900   986   988
    4  988   986  1076  1078
    4 1078  1076  1170  1172
    4 1172  1170  1268  1270
    4 1270  1268  1370  1372
    4 1372  1370  1476  1478
    4 1478  1476  1586  1588
    4 1588  1586  1700  1702
    4 1702  1700  1818  1820
    4 1820  1818  1940  1942
    4 1942  1940  2066  2068
    4  180   144   145   181
    4  181   145   146   182
    4  182   146   147   183
    4  183   147   148   184
    4  184   148   149   185
    4  185   149   150   186
    4  186   150   151   187
    4  187   151   152   188
    4  188   152   178   189
    4  189   178   216   218
    4  218   216   258   260
    4  260   258   304   306
    4  306   304   354   356
    4  356   354   408   410
    4  410   408   466   468
    4  468   466   528   530
    4  530   528   594   596
    4  596   594   664   666
    4  666   664   738   740
    4  740   738   816   818
    4  818   816   898   900
    4  900   898   984   986
    4  986   984  1074  1076
    4 1076  1074  1168  1170
    4 1170  1168  1266  1268
    4 1268  1266  1368  1370
    4 1370  1368  1474  1476
    4 1476  1474  1584  1586
    4 1586  1584  1698  1700
    4 1700  1698  1816  1818
    4 1818  1816  1938  1940
    4 1940  1938  2064  2066
    4  144   112   113   145
    4  145   113   114   146
    4  146   114   115   147
    4  147   115   116   148
    4  148   116   117   149
    4  149   117   118   150
    4  150   118   119   151
    4  151   119   142   152
    4  152   142   176   178
    4  178   176   214   216
    4  216   214   256   258
    4  258   256   302   304
    4  304   302   352   354
    4  354   352   406   408
    4  408   406   464   466
    4  466   464   526   528
    4  528   526   592   594
    4  594   592   662   664
    4  664   662   736   738
    4  738   736   814   816
    4  816   814   896   898
    4  898   896   982   984
    4  984   982  1072  1074
    4 1074  1072  1166  1168
    4 1168  1166  1264  1266
    4 1266  1264  1366  1368
    4 1368  1366  1472  1474
    4 1474  1472  1582  1584
    4 1584  1582  1696  1698
    4 1698  1696  1814  1816
    4 1816  1814  1936  1938
    4 1938  1936  2062  2064
    4  112    84    85   113
    4  113    85    86   114
    4  114    86    87   115
    4  115    87    88   116
    4  116    88    89   117
    4  117    89    90   118
    4  118    90   110   119
    4  119   110   140   142
    4  142   140   174   176
    4  176   174   212   214
    4  214   212   254   256
    4  256   254   300   302
    4  302   300   350   352
    4  352   350   404   406
    4  406   404   462   464
    4  464   462   524   526
    4  526   524   590   592
    4  592   590   660   662
    4  662   660   734   736
    4  736   734   812   814
    4  814   812   894   896
    4  896   894   980   982
    4  982   980  1070  1072
    4 1072  1070  1164  1166
    4 1166  1164  1262  1264
    4 1264  1262  1364  1366
    4 1366  1364  1470  1472
    4 1472  1470  1580  1582
    4 1582  1580  1694  1696
    4 1696  1694  1812  1814
    4 1814  1812  1934  1936
    4 1936  1934  2060  2062
    4   84    60    61    85
    4   85    61    62    86
    4   86    62    63    87
    4   87    63    64    88
    4   88    64    65    89
    4   89    65    82    90
    4   90    82   108   110
    4  110   108   138   140
    4  140   138   172   174
    4  174   172   210   212
    4  212   210   252   254
    4  254   252   298   300
    4  300   298   348   350
    4  350   348   402   404
    4  404   402   460   462
    4  462   460   522   524
    4  524   522   588   590
    4  590   588   658   660
    4  660   658   732   734
    4  734   732   810   812
    4  812   810   892   894
    4  894   892   978   980
    4  980   978  1068  1070
    4 1070  1068  1162  1164
    4 1164  1162  1260  1262
    4 1262  1260  1362  1364
    4 1364  1362  1468  1470
    4 1470  1468  1578  1580
    4 1580  1578  1692  1694
    4 1694  1692  1810  1812
    4 1812  1810  1932  1934
    4 1934  1932  2058  2060
    4   60    40    41    61
    4   61    41    42    62
    4   62    42    43    63
    4   63    43    44    64
    4   64    44    58    65
    4   65    58    80    82
    4   82    80   106   108
    4  108   106   136   138
    4  138   136   170   172
    4  172   170   208   210
    4  210   208   250   252
    4  252   250   296   298
    4  298   296   346   348
    4  348   346   400   402
    4  402   400   458   460
    4  460   458   520   522
    4  522   520   586   588
    4  588   586   656   658
    4  658   656   730   732
    4  732   730   808   810
    4  810   808   890   892
    4  892   890   976   978
    4  978   976  1066  1068
    4 1068  1066  1160  1162
    4 1162  1160  1258  1260
    4 1260  1258  1360  1362
    4 1362  1360  1466  1468
    4 1468  1466  1576  1578
    4 1578  1576  1690  1692
    4 1692  1690  1808  1810
    4 1810  1808  1930  1932
    4 1932  1930  2056  2058
    4   40    24    25    41
    4   41    25    26    42
    4   42    26    27    43
    4   43    27    38    44
    4   44    38    56    58
    4   58    56    78    80
    4   80    78   104   106
    4  106   104   134   136
    4  136   134   168   170
    4  170   168   206   208
    4  208   206   248   250
    4  250   248   294   296
    4  296   294   344   346
    4  346   344   398   400
    4  400   398   456   458
    4  458   456   518   520
    4  520   518   584   586
    4  586   584   654   656
    4  656   654   728   730
    4  730   728   806   808
    4  808   806   888   890
    4  890   888   974   976
    4  976   974  1064  1066
    4 1066  1064  1158  1160
    4 1160  1158  1256  1258
    4 1258  1256  1358  1360
    4 1360  1358  1464  1466
    4 1466  1464  1574  1576
    4 1576  1574  1688  1690
    4 1690  1688  1806  1808
    4 1808  1806  1928  1930
    4 1930  1928  2054  2056
    4   24    12    13    25
    4   25    13    14    26
    4   26    14    22    27
    4   27    22    36    38
    4   38    36    54    56
    4   56    54    76    78
    4   78    76   102   104
    4  104   102   132   134
    4  134   132   166   168
    4  168   166   204   206
    4  206   204   246   248
    4  248   246   292   294
    4  294   292   342   344
    4  344   342   396   398
    4  398   396   454   456
    4  456   454   516   518
    4  518   516   582   584
    4  584   582   652   654
    4  654   652   726   728
    4  728   726   804   806
    4  806   804   886   888
    4  888   886   972   974
    4  974   972  1062  1064
    4 1064  1062  1156  1158
    4 1158  1156  1254  1256
    4 1256  1254  1356  1358
    4 1358  1356  1462  1464
    4 1464  1462  1572  1574
    4 1574  1572  1686  1688
    4 1688  1686  1804  1806
    4 1806  1804  1926  1928
    4 1928  1926  2052  2054
    4   12     4     5    13
    4   13     5    10    14
    4   14    10    20    22
    4   22    20    34    36
    4   36    34    52    54
    4   54    52    74    76
    4   76    74   100   102
    4  102   100   130   132
    4  132   130   164   166
    4  166   164   202   204
    4  204   202   244   246
    4  246   244   290   292
    4  292   290   340   342
    4  342   340   394   396
    4  396   394   452   454
    4  454   452   514   516
    4  516   514   580   582
    4  582   580   650   652
    4  652   650   724   726
    4  726   724   802   804
    4  804   802   884   886
    4  886   884   970   972
    4  972   970  1060  1062
    4 1062  1060  1154  1156
    4 1156  1154  1252  1254
    4 1254  1252  1354  1356
    4 1356  1354  1460  1462
    4 1462  1460  1570  1572
    4 1572  1570  1684  1686
    4 1686  1684  1802  1804
    4 1804  1802  1924  1926
    4 1926  1924  2050  2052
    4    4     0     2     5
    4    5     2     8    10
    4   10     8    18    20
    4   20    18    32    34
    4   34    32    50    52
    4   52    50    72    74
    4   74    72    98   100
    4  100    98   128   130
    4  130   128   162   164
    4  164   162   200   202
    4  202   200   242   244
    4  244   242   288   290
    4  290   288   338   340
    4  340   338   392   394
    4  394   392   450   452
    4  452   450   512   514
    4  514   512   578   580
    4  580   578   648   650
    4  650   648   722   724
    4  724   722   800   802
    4  802   800   882   884
    4  884   882   968   970
    4  970   968  1058  1060
    4 1060  1058  1152  1154
    4 1154  1152  1250  1252
    4 1252  1250  1352  1354
    4 1354  1352  1458  1460
    4 1460  1458  1568  1570
    4 1570  1568  1682  1684
    4 1684  1682  1800  1802
    4 1802  1800  1922  1924
    4 1924  1922  2048  2050
CELL_TYPES  8192
    9
    9
    9
    9
    9
    9
    9
    9
    9
    9
    9
    9
    9
    9
    9
    9
    9
    9
    9
    9
    9
    9
    9
    9
    9
    9
    9
    9
    9
    9
    9
    9
    9
    9
    9
    9
    9
    9
    9
    9
    9
    9
    9
    9
    9
    9
    9
    9
    9
    9
    9
    9
    9
    9
    9
    9
    9
    9
    9
    9
    9
    9
    9
    9
    9
    9
    9
    9
    9
    9
    9
    9
    9
    9
    9
    9
    9
    9
    9
    9
    9
    9
    9
    9
    9
    9
    9
    9
    9
    9
    9
    9
    9
    9
    9
    9
    9
    9
    9
    9
    9
    9
    9
    9
    9
    9
    9
    9
    9
    9
    9
    9
    9
    9
    9
    9
    9
    9
    9
    9
    9
    9
    9
    9
    9
    9
    9
    9
    9
    9
    9
    9
    9
    9
    9
    9
    9
    9
    9
    9
    9
    9
    9
    9
    9
    9
    9
    9
    9
    9
    9
    9
    9
    9
    9
    9
    9
    9
    9
    9
    9
    9
    9
    9
    9
    9
    9
    9
    9
    9
    9
    9
    9
    9
    9
    9
    9
    9
    9
    9
    9
    9
    9
    9
    9
    9
    9
    9
    9
    9
    9
    9
    9
    9
    9
    9
    9
    9
    9
    9
    9
    9
    9
    9
    9
    9
    9
    9
    9
    9
    9
    9
    9
    9
    9
    9
    9
    9
    9
    9
    9
    9
    9
    9
    9
    9
    9
    9
    9
    9
    9
    9
    9
    9
    9
    9
    9
    9
    9
    9
    9
    9
    9
    9
    9
    9
    9
    9
    9
    9
    9
    9
    9
    9
    9
    9
    9
    9
    9
    9
    9
    9
    9
    9
    9
    9
    9
    9
    9
    9
    9
    9
    9
    9
    9
    9
    9
    9
    9
    9
    9
    9
    9
    9
    9
    9
    9
    9
    9
    9
    9
    9
    9
    9
    9
    9
    9
    9
    9
    9
    9
    9
    9
    9
    9
    9
    9
    9
    9
    9
    9
    9
    9
    9
    9
    9
    9
    9
    9
    9
    9
    9
    9
    9
    9
    9
    9
    9
    9
    9
    9
    9
    9
    9
    9
    9
    9
    9
    9
    9
    9
    9
    9
    9
    9
    9
    9
    9
    9
    9
    9
    9
    9
    9
    9
    9
    9
    9
    9
    9
    9
    9
    9
    9
    9
    9
    9
    9
    9
    9
    9
    9
    9
    9
    9
    9
    9
    9
    9
    9
    9
    9
    9
    9
    9
    9
    9
    9
    9
    9
    9
    9
    9
    9
    9
    9
    9
    9
    9
    9
    9
    9
    9
    9
    9
    9
    9
    9
    9
    9
    9
    9
    9
    9
    9
    9
    9
    9
    9
    9
    9
    9
    9
    9
    9
    9
    9
    9
    9
    9
    9
    9
    9
    9
    9
    9
    9
    9
    9
    9
    9
    9
    9
    9
    9
    9
    9
    9
    9
    9
    9
    9
    9
    9
    9
    9
    9
    9
    9
    9
    9
    9
    9
    9
    9
    9
    9
    9
    9
    9
    9
    9
    9
    9
    9
    9
    9
    9
    9
    9
    9
    9
    9
    9
    9
    9
    9
    9
    9
    9
    9
    9
    9
    9
    9
    9
    9
    9
    9
    9
    9
    9
    9
    9
    9
    9
    9
    9
    9
    9
    9
    9
    9
    9
    9
    9
    9
    9
    9
    9
    9
    9
    9
    9
    9
    9
    9
    9
    9
    9
    9
    9
    9
    9
    9
    9
    9
    9
    9
    9
    9
    9
    9
    9
    9
    9
    9
    9
    9
    9
    9
    9
    9
    9
    9
    9
    9
    9
    9
    9
    9
    9
    9
    9
    9
    9
    9
    9
    9
    9
    9
    9
    9
    9
    9
    9
    9
    9
    9
    9
    9
    9
    9
    9
    9
    9
    9
    9
    9
    9
    9
    9
    9
    9
    9
    9
    9
    9
    9
    9
    9
    9
    9
    9
    9
    9
    9
    9
    9
    9
    9
    9
    9
    9
    9
    9
    9
    9
    9
    9
    9
    9
    9
    9
    9
    9
    9
    9
    9
    9
    9
    9
    9
    9
    9
    9
    9
    9
    9
    9
    9
    9
    9
    9
    9
    9
    9
    9
    9
    9
    9
    9
    9
    9
    9
    9
    9
    9
    9
    9
    9
    9
    9
    9
    9
    9
    9
    9
    9
    9
    9
    9
    9
    9
    9
    9
    9
    9
    9
    9
    9
    9
    9
    9
    9
    9
    9
    9
    9
    9
    9
    9
    9
    9
    9
    9
    9
    9
    9
    9
    9
    9
    9
    9
    9
    9
    9
    9
    9
    9
    9
    9
    9
    9
    9
    9
    9
    9
    9
    9
    9
    9
    9
    9
    9
    9
    9
    9
    9
    9
    9
    9
    9
    9
    9
    9
    9
    9
    9
    9
    9
    9
    9
    9
    9
    9
    9
    9
    9
    9
    9
    9
    9
    9
    9
    9
    9
    9
    9
    9
    9
    9
    9
    9
    9
    9
    9
    9
    9
    9
    9
    9
    9
    9
    9
    9
    9
    9
    9
    9
    9
    9
    9
    9
    9
    9
    9
    9
    9
    9
    9
    9
    9
    9
    9
    9
    9
    9
    9
    9
    9
    9
    9
    9
    9
    9
    9
    9
    9
    9
    9
    9
    9
    9
    9
    9
    9
    9
    9
    9
    9
    9
    9
    9
    9
    9
    9
    9
    9
    9
    9
    9
    9
    9
    9
    9
    9
    9
    9
    9
    9
    9
    9
    9
    9
    9
    9
    9
    9
    9
    9
    9
    9
    9
    9
    9
    9
    9
    9
    9
    9
    9
    9
    9
    9
    9
    9
    9
    9
    9
    9
    9
    9
    9
    9
    9
    9
    9
    9
    9
    9
    9
    9
    9
    9
    9
    9
    9
    9
    9
    9
    9
    9
    9
    9
    9
    9
    9
    9
    9
    9
    9
    9
    9
    9
    9
    9
    9
    9
    9
    9
    9
    9
    9
    9
    9
    9
    9
    9
    9
    9
    9
    9
    9
    9
    9
    9
    9
    9
    9
    9
    9
    9
    9
    9
    9
    9
    9
    9
    9
    9
    9
    9
    9
    9
    9
    9
    9
    9
    9
    9
    9
    9
    9
    9
    9
    9
    9
    9
    9
    9
    9
    9
    9
    9
    9
    9
    9
    9
    9
    9
    9
    9
    9
    9
    9
    9
    9
    9
    9
    9
    9
    9
    9
    9
    9
    9
    9
    9
    9
    9
    9
    9
    9
    9
    9
    9
    9
    9
    9
    9
    9
    9
    9
    9
    9
    9
    9
    9
    9
    9
    9
    9
    9
    9
    9
    9
    9
    9
    9
    9
    9
    9
    9
    9
    9
    9
    9
    9
    9
    9
    9
    9
    9
    9
    9
    9
    9
    9
    9
    9
    9
    9
    9
    9
    9
    9
    9
    9
    9
    9
    9
    9
    9
    9
    9
    9
    9
    9
    9
    9
    9
    9
    9
    9
    9
    9
    9
    9
    9
    9
    9
    9
    9
    9
    9
    9
    9
    9
    9
    9
    9
    9
    9
    9
    9
    9
    9
    9
    9
    9
    9
    9
    9
    9
    9
    9
    9
    9
    9
    9
    9
    9
    9
    9
    9
    9
    9
    9
    9
    9
    9
    9
    9
    9
    9
    9
    9
    9
    9
    9
    9
    9
    9
    9
    9
    9
    9
    9
    9
    9
    9
    9
    9
    9
    9
    9
    9
    9
    9
    9
    9
    9
    9
    9
    9
    9
    9
    9
    9
    9
    9
    9
    9
    9
    9
    9
    9
    9
    9
    9
    9
    9
    9
    9
    9
    9
    9
    9
    9
    9
    9
    9
    9
    9
    9
    9
    9
    9
    9
    9
    9
    9
    9
    9
    9
    9
    9
    9
    9
    9
    9
    9
    9
    9
    9
    9
    9
    9
    9
    9
    9
    9
    9
    9
    9
    9
    9
    9
    9
    9
    9
    9
    9
    9
    9
    9
    9
    9
    9
    9
    9
    9
    9
    9
    9
    9
    9
    9
    9
    9
    9
    9
    9
    9
    9
    9
    9
    9
    9
    9
    9
    9
    9
    9
    9
    9
    9
    9
    9
    9
    9
    9
    9
    9
    9
    9
    9
    9
    9
    9
    9
    9
    9
    9
    9
    9
    9
    9
    9
    9
    9
    9
    9
    9
    9
    9
    9
    9
    9
    9
    9
    9
    9
    9
    9
    9
    9
    9
    9
    9
    9
    9
    9
    9
    9
    9
    9
    9
    9
    9
    9
    9
    9
    9
    9
    9
    9
    9
    9
    9
    9
    9
    9
    9
    9
    9
    9
    9
    9
    9
    9
    9
    9
    9
    9
    9
    9
    9
    9
    9
    9
    9
    9
    9
    9
    9
    9
    9
    9
    9
    9
    9
    9
    9
    9
    9
    9
    9
    9
    9
    9
    9
    9
    9
    9
    9
    9
    9
    9
    9
    9
    9
    9
    9
    9
    9
    9
    9
    9
    9
    9
    9
    9
    9
    9
    9
    9
    9
    9
    9
    9
    9
    9
    9
    9
    9
    9
    9
    9
    9
    9
    9
    9
    9
    9
    9
    9
    9
    9
    9
    9
    9
    9
    9
    9
    9
    9
    9
    9
    9
    9
    9
    9
    9
    9
    9
    9
    9
    9
    9
    9
    9
    9
    9
    9
    9
    9
    9
    9
    9
    9
    9
    9
    9
    9
    9
    9
    9
    9
    9
    9
    9
    9
    9
    9
    9
    9
    9
    9
    9
    9
    9
    9
    9
    9
    9
    9
    9
    9
    9
    9
    9
    9
    9
    9
    9
    9
    9
    9
    9
    9
    9
    9
    9
    9
    9
    9
    9
    9
    9
    9
    9
    9
    9
    9
    9
    9
    9
    9
    9
    9
    9
    9
    9
    9
    9
    9
    9
    9
    9
    9
    9
    9
    9
    9
    9
    9
    9
    9
    9
    9
    9
    9
    9
    9
    9
    9
    9
    9
    9
    9
    9
    9
    9
    9
    9
    9
    9
    9
    9
    9
    9
    9
    9
    9
    9
    9
    9
    9
    9
    9
    9
    9
    9
    9
    9
    9
    9
    9
    9
    9
    9
    9
    9
    9
    9
    9
    9
    9
    9
    9
    9
    9
    9
    9
    9
    9
    9
    9
    9
    9
    9
    9
    9
    9
    9
    9
    9
    9
    9
    9
    9
    9
    9
    9
    9
    9
    9
    9
    9
    9
    9
    9
    9
    9
    9
    9
    9
    9
    9
    9
    9
    9
    9
    9
    9
    9
    9
    9
    9
    9
    9
    9
    9
    9
    9
    9
    9
    9
    9
    9
    9
    9
    9
    9
    9
    9
    9
    9
    9
    9
    9
    9
    9
    9
    9
    9
    9
    9
    9
    9
    9
    9
    9
    9
    9
    9
    9
    9
    9
    9
    9
    9
    9
    9
    9
    9
    9
    9
    9
    9
    9
    9
    9
    9
    9
    9
    9
    9
    9
    9
    9
    9
    9
    9
    9
    9
    9
    9
    9
    9
    9
    9
    9
    9
    9
    9
    9
    9
    9
    9
    9
    9
    9
    9
    9
    9
    9
    9
    9
    9
    9
    9
    9
    9
    9
    9
    9
    9
    9
    9
    9
    9
    9
    9
    9
    9
    9
    9
    9
    9
    9
    9
    9
    9
    9
    9
    9
    9
    9
    9
    9
    9
    9
    9
    9
    9
    9
    9
    9
    9
    9
    9
    9
    9
    9
    9
    9
    9
    9
    9
    9
    9
    9
    9
    9
    9
    9
    9
    9
    9
    9
    9
    9
    9
    9
    9
    9
    9
    9
    9
    9
    9
    9
    9
    9
    9
    9
    9
    9
    9
    9
    9
    9
    9
    9
    9
    9
    9
    9
    9
    9
    9
    9
    9
    9
    9
    9
    9
    9
    9
    9
    9
    9
    9
    9
    9
    9
    9
    9
    9
    9
    9
    9
    9
    9
    9
    9
    9
    9
    9
    9
    9
    9
    9
    9
    9
    9
    9
    9
    9
    9
    9
    9
    9
    9
    9
    9
    9
    9
    9
    9
    9
    9
    9
    9
    9
    9
    9
    9
    9
    9
    9
    9
    9
    9
    9
    9
    9
    9
    9
    9
    9
    9
    9
    9
    9
    9
    9
    9
    9
    9
    9
    9
    9
    9
    9
    9
    9
    9
    9
    9
    9
    9
    9
    9
    9
    9
    9
    9
    9
    9
    9
    9
    9
    9
    9
    9
    9
    9
    9
    9
    9
    9
    9
    9
    9
    9
    9
    9
    9
    9
    9
    9
    9
    9
    9
    9
    9
    9
    9
    9
    9
    9
    9
    9
    9
    9
    9
    9
    9
    9
    9
    9
    9
    9
    9
    9
    9
    9
    9
    9
    9
    9
    9
    9
    9
    9
    9
    9
    9
    9
    9
    9
    9
    9
    9
    9
    9
    9
    9
    9
    9
    9
    9
    9
    9
    9
    9
    9
    9
    9
    9
    9
    9
    9
    9
    9
    9
    9
    9
    9
    9
    9
    9
    9
    9
    9
    9
    9
    9
    9
    9
    9
    9
    9
    9
    9
    9
    9
    9
    9
    9
    9
    9
    9
    9
    9
    9
    9
    9
    9
    9
    9
    9
    9
    9
    9
    9
    9
    9
    9
    9
    9
    9
    9
    9
    9
    9
    9
    9
    9
    9
    9
    9
    9
    9
    9
    9
    9
    9
    9
    9
    9
    9
    9
    9
    9
    9
    9
    9
    9
    9
    9
    9
    9
    9
    9
    9
    9
    9
    9
    9
    9
    9
    9
    9
    9
    9
    9
    9
    9
    9
    9
    9
    9
    9
    9
    9
    9
    9
    9
    9
    9
    9
    9
    9
    9
    9
    9
    9
    9
    9
    9
    9
    9
    9
    9
    9
    9
    9
    9
    9
    9
    9
    9
    9
    9
    9
    9
    9
    9
    9
    9
    9
    9
    9
    9
    9
    9
    9
    9
    9
    9
    9
    9
    9
    9
    9
    9
    9
    9
    9
    9
    9
    9
    9
    9
    9
    9
    9
    9
    9
    9
    9
    9
    9
    9
    9
    9
    9
    9
    9
    9
    9
    9
    9
    9
    9
    9
    9
    9
    9
    9
    9
    9
    9
    9
    9
    9
    9
    9
    9
    9
    9
    9
    9
    9
    9
    9
    9
    9
    9
    9
    9
    9
    9
    9
    9
    9
    9
    9
    9
    9
    9
    9
    9
    9
    9
    9
    9
    9
    9
    9
    9
    9
    9
    9
    9
    9
    9
    9
    9
    9
    9
    9
    9
    9
    9
    9
    9
    9
    9
    9
    9
    9
    9
    9
    9
    9
    9
    9
    9
    9
    9
    9
    9
    9
    9
    9
    9
    9
    9
    9
    9
    9
    9
    9
    9
    9
    9
    9
    9
    9
    9
    9
    9
    9
    9
    9
    9
    9
    9
    9
    9
    9
    9
    9
    9
    9
    9
    9
    9
    9
    9
    9
    9
    9
    9
    9
    9
    9
    9
    9
    9
    9
    9
    9
    9
    9
    9
    9
    9
    9
    9
    9
    9
    9
    9
    9
    9
    9
    9
    9
    9
    9
    9
    9
    9
    9
    9
    9
    9
    9
    9
    9
    9
    9
    9
    9
    9
    9
    9
    9
    9
    9
    9
    9
    9
    9
    9
    9
    9
    9
    9
    9
    9
    9
    9
    9
    9
    9
    9
    9
    9
    9
    9
    9
    9
    9
    9
    9
    9
    9
    9
    9
    9
    9
    9
    9
    9
    9
    9
    9
    9
    9
    9
    9
    9
    9
    9
    9
    9
    9
    9
    9
    9
    9
    9
    9
    9
    9
    9
    9
    9
    9
    9
    9
    9
    9
    9
    9
    9
    9
    9
    9
    9
    9
    9
    9
    9
    9
    9
    9
    9
    9
    9
    9
    9
    9
    9
    9
    9
    9
    9
    9
    9
    9
    9
    9
    9
    9
    9
    9
    9
    9
    9
    9
    9
    9
    9
    9
    9
    9
    9
    9
    9
    9
    9
    9
    9
    9
    9
    9
    9
    9
    9
    9
    9
    9
    9
    9
    9
    9
    9
    9
    9
    9
    9
    9
    9
    9
    9
    9
    9
    9
    9
    9
    9
    9
    9
    9
    9
    9
    9
    9
    9
    9
    9
    9
    9
    9
    9
    9
    9
    9
    9
    9
    9
    9
    9
    9
    9
    9
    9
    9
    9
    9
    9
    9
    9
    9
    9
    9
    9
    9
    9
    9
    9
    9
    9
    9
    9
    9
    9
    9
    9
    9
    9
    9
    9
    9
    9
    9
    9
    9
    9
    9
    9
    9
    9
    9
    9
    9
    9
    9
    9
    9
    9
    9
    9
    9
    9
    9
    9
    9
    9
    9
    9
    9
    9
    9
    9
    9
    9
    9
    9
    9
    9
    9
    9
    9
    9
    9
    9
    9
    9
    9
    9
    9
    9
    9
    9
    9
    9
    9
    9
    9
    9
    9
    9
    9
    9
    9
    9
    9
    9
    9
    9
    9
    9
    9
    9
    9
    9
    9
    9
    9
    9
    9
    9
    9
    9
    9
    9
    9
    9
    9
    9
    9
    9
    9
    9
    9
    9
    9
    9
    9
    9
    9
    9
    9
    9
    9
    9
    9
    9
    9
    9
    9
    9
    9
    9
    9
    9
    9
    9
    9
    9
    9
    9
    9
    9
    9
    9
    9
    9
    9
    9
    9
    9
    9
    9
    9
    9
    9
    9
    9
    9
    9
    9
    9
    9
    9
    9
    9
    9
    9
    9
    9
    9
    9
    9
    9
    9
    9
    9
    9
    9
    9
    9
    9
    9
    9
    9
    9
    9
    9
    9
    9
    9
    9
    9
    9
    9
    9
    9
    9
    9
    9
    9
    9
    9
    9
    9
    9
    9
    9
    9
    9
    9
    9
    9
    9
    9
    9
    9
    9
    9
    9
    9
    9
    9
    9
    9
    9
    9
    9
    9
    9
    9
    9
    9
    9
    9
    9
    9
    9
    9
    9
    9
    9
    9
    9
    9
    9
    9
    9
    9
    9
    9
    9
    9
    9
    9
    9
    9
    9
    9
    9
    9
    9
    9
    9
    9
    9
    9
    9
    9
    9
    9
    9
    9
    9
    9
    9
    9
    9
    9
    9
    9
    9
    9
    9
    9
    9
    9
    9
    9
    9
    9
    9
    9
    9
    9
    9
    9
    9
    9
    9
    9
    9
    9
    9
    9
    9
    9
    9
    9
    9
    9
    9
    9
    9
    9
    9
    9
    9
    9
    9
    9
    9
    9
    9
    9
    9
    9
    9
    9
    9
    9
    9
    9
    9
    9
    9
    9
    9
    9
    9
    9
    9
    9
    9
    9
    9
    9
    9
    9
    9
    9
    9
    9
    9
    9
    9
    9
    9
    9
    9
    9
    9
    9
    9
    9
    9
    9
    9
    9
    9
    9
    9
    9
    9
    9
    9
    9
    9
    9
    9
    9
    9
    9
    9
    9
    9
    9
    9
    9
    9
    9
    9
    9
    9
    9
    9
    9
    9
    9
    9
    9
    9
    9
    9
    9
    9
    9
    9
    9
    9
    9
    9
    9
    9
    9
    9
    9
    9
    9
    9
    9
    9
    9
    9
    9
    9
    9
    9
    9
    9
    9
    9
    9
    9
    9
    9
    9
    9
    9
    9
    9
    9
    9
    9
    9
    9
    9
    9
    9
    9
    9
    9
    9
    9
    9
    9
    9
    9
    9
    9
    9
    9
    9
    9
    9
    9
    9
    9
    9
    9
    9
    9
    9
    9
    9
    9
    9
    9
    9
    9
    9
    9
    9
    9
    9
    9
    9
    9
    9
    9
    9
    9
    9
    9
    9
    9
    9
    9
    9
    9
    9
    9
    9
    9
    9
    9
    9
    9
    9
    9
    9
    9
    9
    9
    9
    9
    9
    9
    9
    9
    9
    9
    9
    9
    9
    9
    9
    9
    9
    9
    9
    9
    9
    9
    9
    9
    9
    9
    9
    9
    9
    9
    9
    9
    9
    9
    9
    9
    9
    9
    9
    9
    9
    9
    9
    9
    9
    9
    9
    9
    9
    9
    9
    9
    9
    9
    9
    9
    9
    9
    9
    9
    9
    9
    9
    9
    9
    9
    9
    9
    9
    9
    9
    9
    9
    9
    9
    9
    9
    9
    9
    9
    9
    9
    9
    9
    9
    9
    9
    9
    9
    9
    9
    9
    9
    9
    9
    9
    9
    9
    9
    9
    9
    9
    9
    9
    9
    9
    9
    9
    9
    9
    9
    9
    9
    9
    9
    9
    9
    9
    9
    9
    9
    9
    9
    9
    9
    9
    9
    9
    9
    9
    9
    9
    9
    9
    9
    9
    9
    9
    9
    9
    9
    9
    9
    9
    9
    9
    9
    9
    9
    9
    9
    9
    9
    9
    9
    9
    9
    9
    9
    9
    9
    9
    9
    9
    9
    9
    9
    9
    9
    9
    9
    9
    9
    9
    9
    9
    9
    9
    9
    9
    9
    9
    9
    9
    9
    9
    9
    9
    9
    9
    9
    9
    9
    9
    9
    9
    9
    9
    9
    9
    9
    9
    9
    9
    9
    9
    9
    9
    9
    9
    9
    9
    9
    9
    9
    9
    9
    9
    9
    9
    9
    9
    9
    9
    9
    9
    9
    9
    9
    9
    9
    9
    9
    9
    9
    9
    9
    9
    9
    9
    9
    9
    9
    9
    9
    9
    9
    9
    9
    9
    9
    9
    9
    9
    9
    9
    9
    9
    9
    9
    9
    9
    9
    9
    9
    9
    9
    9
    9
    9
    9
    9
    9
    9
    9
    9
    9
    9
    9
    9
    9
    9
    9
    9
    9
    9
    9
    9
    9
    9
    9
    9
    9
    9
    9
    9
    9
    9
    9
    9
    9
    9
    9
    9
    9
    9
    9
    9
    9
    9
    9
    9
    9
    9
    9
    9
    9
    9
    9
    9
    9
    9
    9
    9
    9
    9
    9
    9
    9
    9
    9
    9
    9
    9
    9
    9
    9
    9
    9
    9
    9
    9
    9
    9
    9
    9
    9
    9
    9
    9
    9
    9
    9
    9
    9
    9
    9
    9
    9
    9
    9
    9
    9
    9
    9
    9
    9
    9
    9
    9
    9
    9
    9
    9
    9
    9
    9
    9
    9
    9
    9
    9
    9
    9
    9
    9
    9
    9
    9
    9
    9
    9
    9
    9
    9
    9
    9
    9
    9
    9
    9
    9
    9
    9
    9
    9
    9
    9
    9
    9
    9
    9
    9
    9
    9
    9
    9
    9
    9
    9
    9
    9
    9
    9
    9
    9
    9
    9
    9
    9
    9
    9
    9
    9
    9
    9
    9
    9
    9
    9
    9
    9
    9
    9
    9
    9
    9
    9
    9
    9
    9
    9
    9
    9
    9
    9
    9
    9
    9
    9
    9
    9
    9
    9
    9
    9
    9
    9
    9
    9
    9
    9
    9
    9
    9
    9
    9
    9
    9
    9
    9
    9
    9
    9
    9
    9
    9
    9
    9
    9
    9
    9
    9
    9
    9
    9
    9
    9
    9
    9
    9
    9
    9
    9
    9
    9
    9
    9
    9
    9
    9
    9
    9
    9
    9
    9
    9
    9
    9
    9
    9
    9
    9
    9
    9
    9
    9
    9
    9
    9
    9
    9
    9
    9
    9
    9
    9
    9
    9
    9
    9
    9
    9
    9
    9
    9
    9
    9
    9
    9
    9
    9
    9
    9
    9
    9
    9
    9
    9
    9
    9
    9
    9
    9
    9
    9
    9
    9
    9
    9
    9
    9
    9
    9
    9
    9
    9
    9
    9
    9
    9
    9
    9
    9
    9
    9
    9
    9
    9
    9
    9
    9
    9
    9
    9
    9
    9
    9
    9
    9
    9
    9
    9
    9
    9
    9
    9
    9
    9
    9
    9
    9
    9
    9
    9
    9
    9
    9
    9
    9
    9
    9
    9
    9
    9
    9
    9
    9
    9
    9
    9
    9
    9
    9
    9
    9
    9
    9
    9
    9
    9
    9
    9
    9
    9
    9
    9
    9
    9
    9
    9
    9
    9
    9
    9
    9
    9
    9
    9
    9
    9
    9
    9
    9
    9
    9
    9
    9
    9
    9
    9
    9
    9
    9
    9
    9
    9
    9
    9
    9
    9
    9
    9
    9
    9
    9
    9
    9
    9
    9
    9
    9
    9
    9
    9
    9
    9
    9
    9
    9
    9
    9
    9
    9
    9
    9
    9
    9
    9
    9
    9
    9
    9
    9
    9
    9
    9
    9
    9
    9
    9
    9
    9
    9
    9
    9
    9
    9
    9
    9
    9
    9
    9
    9
    9
    9
    9
    9
    9
    9
    9
    9
    9
    9
    9
    9
    9
    9
    9
    9
    9
    9
    9
    9
    9
    9
    9
    9
    9
    9
    9
    9
    9
    9
    9
    9
    9
    9
    9
    9
    9
    9
    9
    9
    9
    9
    9
    9
    9
    9
    9
    9
    9
    9
    9
    9
    9
    9
    9
    9
    9
    9
    9
    9
    9
    9
    9
    9
    9
    9
    9
    9
    9
    9
    9
    9
    9
    9
    9
    9
    9
    9
    9
    9
    9
    9
    9
    9
    9
    9
    9
    9
    9
    9
    9
    9
    9
    9
    9
    9
    9
    9
    9
    9
    9
    9
    9
    9
    9
    9
    9
    9
    9
    9
    9
    9
    9
    9
    9
    9
    9
    9
    9
    9
    9
    9
    9
    9
    9
    9
    9
    9
    9
    9
    9
    9
    9
    9
    9
    9
    9
    9
    9
    9
    9
    9
    9
    9
    9
    9
    9
    9
    9
    9
    9
    9
    9
    9
    9
    9
    9
    9
    9
    9
    9
    9
    9
    9
    9
    9
    9
    9
    9
    9
    9
    9
    9
    9
    9
    9
    9
    9
    9
    9
    9
    9
    9
    9
    9
    9
    9
    9
    9
    9
    9
    9
    9
    9
    9
    9
    9
    9
    9
    9
    9
    9
    9
    9
    9
    9
    9
    9
    9
    9
    9
    9
    9
    9
    9
    9
    9
    9
    9
    9
    9
    9
    9
    9
    9
    9
    9
    9
    9
    9
    9
    9
    9
    9
    9
    9
    9
    9
    9
    9
    9
    9
    9
    9
    9
    9
    9
    9
    9
    9
    9
    9
    9
    9
    9
    9
    9
    9
    9
    9
    9
    9
    9
    9
    9
    9
    9
    9
    9
    9
    9
    9
    9
    9
    9
    9
    9
    9
    9
    9
    9
    9
    9
    9
    9
    9
    9
    9
    9
    9
    9
    9
    9
    9
    9
    9
    9
    9
    9
    9
    9
    9
    9
    9
    9
    9
    9
    9
    9
    9
    9
    9
    9
    9
    9
    9
    9
    9
    9
    9
    9
    9
    9
    9
    9
    9
    9
    9
    9
    9
    9
    9
    9
    9
    9
    9
    9
    9
    9
    9
    9
    9
    9
    9
    9
    9
    9
    9
    9
    9
    9
    9
    9
    9
    9
    9
    9
    9
    9
    9
    9
    9
    9
    9
    9
    9
    9
    9
    9
    9
    9
    9
    9
    9
    9
    9
    9
    9
    9
    9
    9
    9
    9
    9
    9
    9
    9
    9
    9
    9
    9
    9
    9
    9
    9
    9
    9
    9
    9
    9
    9
    9
    9
    9
    9
    9
    9
    9
    9
    9
    9
    9
    9
    9
    9
    9
    9
    9
    9
    9
    9
    9
    9
    9
    9
    9
    9
    9
    9
    9
    9
    9
    9
    9
    9
    9
    9
    9
    9
    9
    9
    9
    9
    9
    9
    9
    9
    9
    9
    9
    9
    9
    9
    9
    9
    9
    9
    9
    9
    9
    9
    9
    9
    9
    9
    9
    9
    9
    9
    9
    9
    9
    9
    9
    9
    9
    9
    9
    9
    9
    9
    9
    9
    9
    9
    9
    9
    9
    9
    9
    9
    9
    9
    9
    9
    9
    9
    9
    9
    9
    9
    9
    9
    9
    9
    9
    9
    9
    9
    9
    9
    9
    9
    9
    9
    9
    9
    9
    9
    9
    9
    9
    9
    9
    9
    9
    9
    9
    9
    9
    9
    9
    9
    9
    9
    9
    9
    9
    9
    9
    9
    9
    9
    9
    9
    9
    9
    9
    9
    9
    9
    9
    9
    9
    9
    9
    9
    9
    9
    9
    9
    9
    9
    9
    9
    9
    9
    9
    9
    9
    9
    9
    9
    9
    9
    9
    9
    9
    9
    9
    9
    9
    9
    9
    9
    9
    9
    9
    9
    9
    9
    9
    9
    9
    9
    9
    9
    9
    9
    9
    9
    9
    9
    9
    9
    9
    9
    9
    9
    9
    9
    9
    9
    9
    9
    9
    9
    9
    9
    9
    9
    9
    9
    9
    9
    9
    9
    9
    9
    9
    9
    9
    9
    9
    9
    9
    9
    9
    9
    9
    9
    9
    9
    9
    9
    9
    9
    9
    9
    9
    9
    9
    9
    9
    9
    9
    9
    9
    9
    9
    9
    9
    9
    9
    9
    9
    9
    9
    9
    9
    9
    9
    9
    9
    9
    9
    9
    9
    9
    9
    9
    9
    9
    9
    9
    9
    9
    9
    9
    9
    9
    9
    9
    9
    9
    9
    9
    9
    9
    9
    9
    9
    9
    9
    9
    9
    9
    9
    9
    9
    9
    9
    9
    9
    9
    9
    9
    9
    9
    9
    9
    9
    9
    9
    9
    9
    9
    9
    9
    9
    9
    9
    9
    9
    9
    9
    9
    9
    9
    9
    9
    9
    9
    9
    9
    9
    9
    9
    9
    9
    9
    9
    9
    9
    9
    9
    9
    9
    9
    9
    9
    9
    9
    9
    9
    9
    9
    9
    9
    9
    9
    9
    9
    9
    9
    9
    9
    9
    9
    9
    9
    9
    9
    9
    9
    9
    9
    9
    9
    9
    9
    9
    9
    9
    9
    9
    9
    9
    9
    9
    9
    9
    9
    9
    9
    9
    9
    9
    9
    9
    9
    9
    9
    9
    9
    9
    9
    9
    9
    9
    9
    9
    9
    9
    9
    9
    9
    9
    9
    9
    9
    9
    9
    9
    9
    9
    9
    9
    9
    9
    9
    9
    9
    9
    9
    9
    9
    9
    9
    9
    9
    9
    9
    9
    9
    9
    9
    9
    9
    9
    9
    9
    9
    9
    9
    9
    9
    9
    9
    9
    9
    9
    9
    9
    9
    9
    9
    9
    9
    9
    9
    9
    9
    9
    9
    9
    9
    9
    9
    9
    9
    9
    9
    9
    9
    9
    9
    9
    9
    9
    9
    9
    9
    9
    9
    9
    9
    9
    9
    9
    9
    9
    9
    9
    9
    9
    9
    9
    9
    9
    9
    9
    9
    9
    9
    9
    9
    9
    9
    9
    9
    9
    9
    9
    9
    9
    9
    9
    9
    9
    9
    9
    9
    9
    9
    9
    9
    9
    9
    9
    9
    9
    9
    9
    9
    9
    9
    9
    9
    9
    9
    9
    9
    9
    9
    9
    9
    9
    9
    9
    9
    9
    9
    9
    9
    9
    9
    9
    9
    9
    9
    9
    9
    9
    9
    9
    9
    9
    9
    9
    9
    9
    9
    9
    9
    9
    9
    9
    9
    9
    9
    9
    9
    9
    9
    9
    9
    9
    9
    9
    9
    9
    9
    9
    9
    9
    9
    9
    9
    9
    9
    9
    9
    9
    9
    9
    9
    9
    9
    9
    9
    9
    9
    9
    9
    9
    9
    9
    9
    9
    9
    9
    9
    9
    9
    9
    9
    9
    9
    9
    9
    9
    9
    9
    9
    9
    9
    9
    9
    9
    9
    9
    9
    9
    9
    9
    9
    9
    9
    9
    9
    9
    9
    9
    9
    9
    9
    9
    9
    9
    9
    9
    9
    9
    9
    9
    9
    9
    9
    9
    9
    9
    9
    9
    9
    9
    9
    9
    9
    9
    9
    9
    9
    9
    9
    9
    9
    9
    9
    9
    9
    9
    9
    9
    9
    9
    9
    9
    9
    9
    9
    9
    9
    9
    9
    9
    9
    9
    9
    9
    9
    9
    9
    9
    9
    9
    9
    9
    9
    9
    9
    9
    9
    9
    9
    9
    9
    9
    9
    9
    9
    9
    9
    9
    9
    9
    9
    9
    9
    9
    9
    9
    9
    9
    9
    9
    9
    9
    9
    9
    9
    9
    9
    9
    9
    9
    9
    9
    9
    9
    9
    9
    9
    9
    9
    9
    9
    9
    9
    9
    9
    9
    9
    9
    9
    9
    9
    9
    9
    9
    9
    9
    9
    9
    9
    9
    9
    9
    9
    9
    9
    9
    9
    9
    9
    9
    9
    9
    9
    9
    9
    9
    9
    9
    9
    9
    9
    9
    9
    9
    9
    9
    9
    9
    9
    9
    9
    9
    9
    9
    9
    9
    9
    9
    9
    9
    9
    9
    9
    9
    9
    9
    9
    9
    9
    9
    9
    9
    9
    9
    9
    9
    9
    9
    9
    9
    9
    9
    9
    9
    9
    9
    9
    9
    9
    9
    9
    9
    9
    9
    9
    9
    9
    9
    9
    9
    9
    9
    9
    9
    9
    9
    9
    9
    9
    9
    9
    9
    9
    9
    9
    9
    9
    9
    9
    9
    9
    9
    9
    9
    9
    9
    9
    9
    9
    9
    9
    9
    9
    9
    9
    9
    9
    9
    9
    9
    9
    9
    9
    9
    9
    9
    9
    9
    9
    9
    9
    9
    9
    9
    9
    9
    9
    9
    9
    9
    9
    9
    9
    9
    9
    9
    9
    9
    9
    9
    9
    9
    9
    9
    9
    9
    9
    9
    9
    9
    9
    9
    9
    9
    9
    9
    9
    9
    9
    9
    9
    9
    9
    9
    9
    9
    9
    9
    9
    9
    9
    9
    9
    9
    9
    9
    9
    9
    9
    9
    9
    9
    9
    9
    9
    9
    9
    9
    9
    9
    9
    9
    9
    9
    9
    9
    9
    9
    9
    9
    9
    9
    9
    9
    9
    9
    9
    9
    9
    9
    9
    9
    9
    9
    9
    9
    9
    9
    9
    9
    9
    9
    9
    9
    9
    9
    9
    9
    9
    9
    9
    9
    9
    9
    9
    9
    9
    9
    9
    9
    9
    9
    9
    9
    9
    9
    9
    9
    9
    9
    9
    9
    9
    9
    9
    9
    9
    9
    9
    9
    9
    9
    9
    9
    9
    9
    9
    9
    9
    9
    9
    9
    9
    9
    9
    9
    9
    9
    9
    9
    9
    9
    9
    9
    9
    9
    9
    9
    9
    9
    9
    9
    9
    9
    9
    9
    9
    9
    9
    9
    9
    9
    9
    9
    9
    9
    9
    9
    9
    9
    9
    9
    9
    9
    9
    9
    9
    9
    9
    9
    9
    9
    9
    9
    9
    9
    9
    9
    9
    9
    9
    9
    9
    9
    9
    9
    9
    9
    9
    9
    9
    9
    9
    9
    9
    9
    9
    9
    9
    9
    9
    9
    9
    9
    9
    9
    9
    9
    9
    9
    9
    9
    9
    9
    9
    9
    9
    9
    9
    9
    9
    9
    9
    9
    9
    9
    9
    9
    9
    9
    9
    9
    9
    9
    9
    9
    9
    9
    9
    9
    9
    9
    9
    9
    9
    9
    9
    9
    9
    9
    9
    9
    9
    9
    9
    9
    9
    9
    9
    9
    9
    9
    9
    9
    9
    9
    9
    9
    9
    9
    9
    9
    9
    9
    9
    9
    9
    9
    9
    9
    9
    9
    9
    9
    9
    9
    9
    9
    9
    9
    9
    9
    9
    9
    9
    9
    9
    9
    9
    9
    9
    9
    9
    9
    9
    9
    9
    9
    9
    9
    9
    9
    9
    9
    9
    9
    9
    9
    9
    9
    9
    9
    9
    9
    9
    9
    9
    9
    9
    9
    9
    9
    9
    9
    9
    9
    9
    9
    9
    9
    9
    9
    9
    9
    9
    9
    9
    9
    9
    9
    9
    9
    9
    9
    9
    9
    9
    9
    9
    9
    9
    9
    9
    9
    9
    9
    9
    9
    9
    9
    9
    9
    9
    9
    9
    9
    9
    9
    9
    9
    9
    9
    9
    9
    9
    9
    9
    9
    9
    9
    9
    9
    9
    9
    9
    9
    9
    9
    9
    9
    9
    9
    9
    9
    9
    9
    9
    9
    9
    9
    9
    9
    9
    9
    9
    9
    9
    9
    9
    9
    9
    9
    9
    9
    9
    9
    9
    9
    9
    9
    9
    9
    9
    9
    9
    9
    9
    9
    9
    9
    9
    9
    9
    9
    9
    9
    9
    9
    9
    9
    9
    9
    9
    9
    9
    9
    9
    9
    9
    9
    9
    9
    9
    9
    9
    9
    9
    9
    9
    9
    9
    9
    9
    9
    9
    9
    9
    9
    9
    9
    9
    9
    9
    9
    9
    9
    9
    9
    9
    9
    9
    9
    9
    9
    9
    9
    9
    9
    9
    9
    9
    9
    9
    9
    9
    9
    9
    9
    9
    9
    9
    9
    9
    9
    9
    9
    9
    9
    9
    9
    9
    9
    9
    9
    9
    9
    9
    9
    9
    9
    9
    9
    9
    9
    9
    9
    9
    9
    9
    9
    9
    9
    9
    9
    9
    9
    9
    9
    9
    9
    9
    9
    9
    9
    9
    9
    9
    9
    9
    9
    9
    9
    9
    9
    9
    9
    9
    9
    9
    9
    9
    9
    9
    9
    9
    9
    9
    9
    9
    9
    9
    9
    9
    9
    9
    9
    9
    9
    9
    9
    9
    9
    9
    9
    9
    9
    9
    9
    9
    9
    9
    9
    9
    9
    9
    9
    9
    9
    9
    9
    9
    9
    9
    9
    9
    9
    9
    9
    9
    9
    9
    9
    9
    9
    9
    9
    9
    9
    9
    9
    9
    9
    9
    9
    9
    9
    9
    9
    9
    9
    9
    9
    9
    9
    9
    9
    9
    9
    9
    9
    9
    9
    9
    9
    9
    9
    9
    9
    9
    9
    9
    9
    9
    9
    9
    9
    9
    9
    9
    9
    9
    9
    9
    9
    9
    9
    9
    9
    9
    9
    9
    9
    9
    9
    9
    9
    9
    9
    9
    9
    9
    9
    9
    9
    9
    9
    9
    9
    9
    9
    9
    9
    9
    9
    9
    9
    9
    9
    9
    9
    9
    9
    9
    9
    9
    9
    9
    9
    9
    9
    9
    9
    9
    9
    9
    9
    9
    9
    9
    9
    9
    9
    9
    9
    9
    9
    9
    9
    9
    9
    9
    9
    9
    9
    9
    9
    9
    9
    9
    9
    9
    9
    9
    9
    9
    9
    9
    9
    9
    9
    9
    9
    9
    9
    9
    9
    9
    9
    9
    9
    9
    9
    9
    9
    9
    9
    9
    9
    9
    9
    9
    9
    9
    9
    9
    9
    9
    9
    9
    9
    9
    9
    9
    9
    9
    9
    9
    9
    9
    9
    9
    9
    9
    9
    9
    9
    9
    9
    9
    9
    9
    9
    9
    9
    9
    9
    9
    9
    9
    9
    9
    9
    9
    9
    9
    9
    9
    9
    9
    9
    9
    9
    9
    9
    9
    9
    9
    9
    9
    9
    9
    9
    9
    9
    9
    9
    9
    9
    9
    9
    9
    9
    9
    9
    9
    9
    9
    9
    9
    9
    9
    9
    9
    9
    9
    9
    9
    9
    9
    9
    9
    9
    9
    9
    9
    9
    9
    9
    9
    9
    9
    9
    9
    9
    9
    9
    9
    9
    9
    9
    9
    9
    9
    9
    9
    9
    9
    9
    9
    9
    9
    9
    9
    9
    9
    9
    9
    9
    9
    9
    9
    9
    9
    9
    9
    9
    9
    9
    9
    9
    9
    9
    9
    9
    9
    9
    9
    9
    9
    9
    9
    9
    9
    9
    9
    9
    9
    9
    9
    9
    9
    9
    9
    9
    9
    9
    9
    9
    9
    9
    9
    9
    9
    9
    9
    9
    9
    9
    9
    9
    9
    9
    9
    9
    9
    9
    9
    9
    9
    9
    9
    9
    9
    9
    9
    9
    9
    9
    9
    9
    9
    9
    9
    9
    9
    9
    9
    9
    9
    9
    9
    9
    9
    9
    9
    9
    9
    9
    9
    9
    9
    9
    9
    9
    9
    9
    9
    9
    9
    9
    9
    9
    9
    9
    9
    9
    9
    9
    9
    9
    9
    9
    9
    9
    9
    9
    9
    9
    9
    9
    9
    9
    9
    9
    9
    9
    9
    9
    9
    9
    9
    9
    9
    9
    9
    9
    9
    9
    9
    9
    9
    9
    9
    9
    9
    9
    9
    9
    9
    9
    9
    9
    9
    9
    9
    9
    9
    9
    9
    9
    9
    9
    9
    9
    9
    9
    9
    9
    9
    9
    9
    9
    9
    9
    9
    9
    9
    9
    9
    9
    9
    9
    9
    9
    9
    9
    9
    9
    9
    9
    9
    9
    9
    9
    9
    9
    9
    9
    9
    9
    9
    9
    9
    9
    9
    9
    9
    9
    9
    9
    9
    9
    9
    9
    9
    9
    9
    9
    9
    9
    9
    9
    9
    9
    9
    9
    9
    9
    9
    9
    9
    9
    9
    9
    9
    9
    9
    9
    9
    9
    9
    9
    9
    9
    9
    9
    9
    9
    9
    9
    9
    9
    9
    9
    9
    9
    9
    9
    9
    9
    9
    9
    9
    9
    9
    9
    9
    9
    9
    9
    9
    9
    9
    9
    9
    9
    9
    9
    9
    9
    9
    9
    9
    9
    9
    9
    9
    9
    9
    9
    9
    9
    9
    9
    9
    9
    9
    9
    9
    9
    9
    9
    9
    9
    9
    9
    9
    9
    9
    9
    9
    9
    9
    9
    9
    9
    9
    9
    9
    9
    9
    9
    9
    9
    9
    9
    9
    9
    9
    9
    9
    9
    9
    9
    9
    9
    9
    9
    9
    9
    9
    9
    9
    9
    9
    9
    9
    9
    9
    9
    9
    9
    9
    9
    9
    9
    9
    9
    9
    9
    9
    9
    9
    9
    9
    9
    9
    9
    9
    9
    9
    9
    9
    9
    9
    9
    9
    9
    9
    9
    9
    9
    9
    9
    9
    9
    9
    9
    9
    9
    9
    9
    9
    9
    9
    9
    9
    9
    9
    9
    9
    9
    9
    9
    9
    9
    9
    9
    9
    9
    9
    9
    9
    9
    9
    9
    9
    9
    9
    9
    9
    9
    9
    9
    9
    9
    9
    9
    9
    9
    9
    9
    9
    9
    9
    9
    9
    9
    9
    9
    9
    9
    9
    9
    9
    9
    9
    9
    9
    9
    9
    9
    9
    9
    9
    9
    9
    9
    9
    9
    9
    9
    9
    9
    9
    9
    9
    9
    9
    9
    9
    9
    9
    9
    9
    9
    9
    9
    9
    9
    9
    9
    9
    9
    9
    9
    9
    9
    9
    9
    9
    9
    9
    9
    9
    9
    9
    9
    9
    9
    9
    9
    9
    9
    9
    9
    9
    9
    9
    9
    9
    9
    9
    9
    9
    9
    9
    9
    9
    9
    9
    9
    9
    9
    9
    9
    9
    9
    9
    9
    9
    9
    9
    9
    9
    9
    9
    9
    9
    9
    9
    9
    9
    9
    9
    9
    9
    9
    9
    9
    9
    9
    9
    9
    9
    9
    9
    9
    9
    9
    9
    9
    9
    9
    9
    9
    9
    9
    9
    9
    9
    9
    9
    9
    9
    9
    9
    9
    9
    9
    9
    9
    9
    9
    9
    9
    9
    9
    9
    9
    9
    9
    9
    9
    9
    9
    9
    9
    9
    9
    9
    9
    9
    9
    9
    9
    9
    9
    9
    9
    9
    9
    9
    9
    9
    9
    9
    9
    9
    9
    9
    9
    9
    9
    9
    9
    9
    9
    9
    9
    9
    9
    9
    9
    9
    9
    9
    9
    9
    9
    9
    9
    9
    9
    9
    9
    9
    9
    9
    9
    9
    9
    9
    9
    9
    9
    9
    9
    9
    9
    9
    9
    9
    9
    9
    9
    9
    9
    9
    9
    9
    9
    9
    9
    9
    9
    9
    9
    9
    9
    9
    9
    9
    9
    9
    9
    9
    9
    9
    9
    9
    9
    9
    9
    9
    9
    9
    9
    9
    9
    9
    9
    9
    9
    9
    9
    9
    9
    9
    9
    9
    9
    9
    9
    9
    9
    9
    9
    9
    9
    9
    9
    9
    9
    9
    9
    9
    9
    9
    9
    9
    9
    9
    9
    9
    9
    9
    9
    9
    9
    9
    9
    9
    9
    9
    9
    9
    9
    9
    9
    9
    9
    9
    9
    9
    9
    9
    9
    9
    9
    9
    9
    9
    9
    9
    9
    9
    9
    9
    9
    9
    9
    9
    9
    9
    9
    9
    9
    9
    9
    9
    9
    9
    9
    9
    9
    9
    9
    9
    9
    9
    9
    9
    9
    9
    9
    9
    9
    9
    9
    9
    9
    9
    9
    9
    9
    9
    9
    9
    9
    9
    9
    9
    9
    9
    9
    9
    9
    9
    9
    9
    9
    9
    9
    9
    9
    9
    9
    9
    9
    9
    9
    9
    9
    9
    9
    9
    9
    9
    9
    9
    9
    9
    9
    9
    9
    9
    9
    9
    9
    9
    9
    9
    9
    9
    9
    9
    9
    9
    9
    9
    9
    9
    9
    9
    9
    9
    9
    9
    9
    9
    9
    9
    9
    9
    9
    9
    9
    9
    9
    9
    9
    9
    9
    9
    9
    9
    9
    9
    9
    9
    9
    9
    9
    9
    9
    9
    9
    9
    9
    9
    9
    9
    9
    9
    9
    9
    9
    9
    9
    9
    9
    9
    9
    9
    9
    9
    9
    9
    9
    9
    9
    9
    9
    9
    9
    9
    9
    9
    9
    9
    9
    9
    9
    9
    9
    9
    9
    9
    9
    9
    9
    9
    9
    9
    9
    9
    9
    9
    9
    9
    9
    9
    9
    9
    9
    9
    9
    9
    9
    9
    9
    9
    9
    9
    9
    9
    9
    9
    9
    9
    9
    9
    9
    9
    9
    9
    9
    9
    9
    9
    9
    9
    9
    9
    9
    9
    9
    9
    9
    9
    9
    9
    9
    9
    9
    9
    9
    9
    9
    9
    9
    9
    9
    9
    9
    9
    9
    9
    9
    9
    9
    9
    9
    9
    9
    9
    9
    9
    9
    9
    9
    9
    9
    9
    9
    9
    9
    9
    9
    9
    9
    9
    9
    9
    9
    9
    9
    9
    9
    9
    9
    9
    9
    9
    9
    9
    9
    9
    9
    9
    9
    9
    9
    9
    9
    9
    9
    9
    9
    9
    9
    9
    9
    9
    9
    9
    9
    9
    9
    9
    9
    9
    9
    9
    9
    9
    9
    9
    9
    9
    9
    9
    9
    9
    9
    9
    9
    9
    9
    9
    9
    9
    9
    9
    9
    9
    9
    9
    9
    9
    9
    9
    9
    9
    9
    9
    9
    9
    9
    9
    9
    9
    9
    9
    9
    9
    9
    9
    9
    9
    9
    9
    9
    9
    9
    9
    9
    9
    9
    9
    9
    9
    9
    9
    9
    9
    9
    9
    9
    9
    9
    9
    9
    9
    9
    9
    9
    9
    9
    9
    9
    9
    9
    9
    9
    9
    9
    9
    9
    9
    9
    9
    9
    9
    9
    9
    9
    9
    9
    9
    9
    9
    9
    9
    9
    9
    9
    9
    9
    9
    9
    9
    9
    9
    9
    9
    9
    9
    9
    9
    9
    9
    9
    9
    9
    9
    9
    9
    9
    9
    9
    9
    9
    9
    9
    9
    9
    9
    9
    9
    9
    9
    9
    9
    9
    9
    9
    9
    9
    9
    9
    9
    9
    9
    9
    9
    9
    9
    9
    9
    9
    9
    9
    9
    9
    9
    9
    9
    9
    9
    9
    9
    9
    9
    9
    9
    9
    9
    9
    9
    9
    9
    9
    9
    9
    9
    9
    9
    9
    9
    9
    9
    9
    9
    9
    9
    9
    9
    9
    9
    9
    9
    9
    9
    9
    9
    9
    9
    9
    9
    9
    9
    9
    9
    9
    9
    9
    9
    9
    9
    9
    9
    9
    9
    9
    9
    9
    9
    9
    9
    9
    9
    9
    9
    9
    9
    9
    9
    9
    9
    9
    9
    9
    9
    9
    9
    9
    9
    9
    9
    9
    9
    9
    9
    9
    9
    9
    9
    9
    9
    9
    9
    9
    9
    9
    9
    9
    9
    9
    9
    9
    9
    9
    9
    9
    9
    9
    9
    9
    9
    9
    9
    9
    9
    9
    9
    9
    9
    9
    9
    9
    9
    9
    9
    9
    9
    9
    9
    9
    9
    9
    9
    9
    9
    9
    9
    9
    9
    9
    9
    9
    9
    9
    9
    9
    9
    9
    9
    9
    9
    9
    9
    9
    9
    9
    9
    9
    9
    9
    9
    9
    9
    9
    9
    9
    9
    9
    9
    9
    9
    9
    9
    9
    9
    9
    9
    9
    9
    9
    9
    9
    9
    9
    9
    9
    9
    9
    9
    9
    9
    9
    9
    9
    9
    9
    9
    9
    9
    9
    9
    9
    9
    9
    9
    9
    9
    9
    9
    9
    9
    9
    9
    9
    9
    9
    9
    9
    9
    9
    9
    9
    9
    9
    9
    9
    9
    9
    9
    9
    9
    9
    9
    9
    9
    9
    9
    9
    9
    9
    9
    9
    9
    9
    9
    9
    9
    9
    9
    9
    9
    9
    9
    9
    9
    9
    9
    9
    9
    9
    9
    9
    9
    9
    9
    9
    9
    9
    9
    9
    9
    9
    9
    9
    9
    9
    9
    9
    9
    9
    9
    9
    9
    9
    9
    9
    9
    9
    9
    9
    9
    9
    9
    9
    9
    9
    9
    9
    9
    9
    9
    9
    9
    9
    9
    9
    9
    9
    9
    9
    9
    9
    9
    9
    9
    9
    9
    9
    9
    9
    9
    9
    9
    9
    9
    9
    9
    9
    9
    9
    9
    9
    9
    9
    9
    9
    9
    9
    9
    9
    9
    9
    9
    9
    9
    9
    9
    9
    9
    9
    9
    9
    9
    9
    9
    9
    9
    9
    9
    9
    9
    9
    9
    9
    9
    9
    9
    9
    9
    9
    9
    9
    9
    9
    9
    9
    9
    9
    9
    9
    9
    9
    9
    9
    9
    9
    9
    9
    9
    9
    9
    9
    9
    9
    9
    9
    9
    9
    9
    9
    9
    9
    9
    9
    9
    9
    9
    9
    9
    9
    9
    9
    9
    9
    9
    9
    9
    9
    9
    9
    9
    9
    9
    9
    9
    9
    9
    9
    9
    9
    9
    9
    9
    9
    9
    9
    9
    9
    9
    9
    9
    9
    9
    9
    9
    9
    9
    9
    9
    9
    9
    9
    9
    9
    9
    9
    9
    9
    9
    9
    9
    9
    9
    9
    9
    9
    9
    9
    9
    9
    9
    9
    9
    9
    9
    9
    9
    9
    9
    9
    9
    9
    9
    9
    9
    9
    9
    9
    9
    9
    9
    9
    9
    9
    9
    9
    9
    9
    9
    9
    9
    9
    9
    9
    9
    9
    9
    9
    9
    9
    9
    9
    9
    9
    9
    9
    9
    9
    9
    9
    9
    9
    9
    9
    9
    9
    9
    9
    9
    9
    9
    9
    9
    9
    9
    9
    9
    9
    9
    9
    9
    9
    9
    9
    9
    9
    9
    9
    9
    9
    9
    9
    9
    9
    9
    9
    9
    9
    9
    9
    9
    9
    9
    9
    9
    9
    9
    9
    9
    9
    9
    9
    9
    9
    9
    9
    9
    9
    9
    9
    9
    9
    9
    9
    9
    9
    9
    9
    9
    9
    9
    9
    9
    9
    9
    9
    9
    9
    9
    9
    9
    9
    9
    9
    9
    9
    9
    9
    9
    9
    9
    9
    9
    9
    9
    9
    9
    9
    9
    9
    9
    9
    9
    9
    9
    9
    9
    9
    9
    9
    9
    9
    9
    9
    9
    9
    9
    9
    9
    9
    9
    9
    9
    9
    9
    9
    9
    9
    9
    9
    9
    9
    9
    9
    9
    9
    9
    9
    9
    9
    9
    9
    9
    9
    9
    9
    9
    9
    9
    9
    9
    9
    9
    9
    9
    9
    9
    9
    9
    9
    9
    9
    9
    9
    9
    9
    9
    9
    9
    9
    9
    9
    9
    9
    9
    9
    9
    9
    9
    9
    9
    9
    9
    9
    9
    9
    9
    9
    9
    9
    9
    9
    9
    9
    9
    9
    9
    9
    9
    9
    9
    9
    9
    9
    9
    9
    9
    9
    9
    9
    9
    9
    9
    9
    9
    9
    9
    9
    9
    9
    9
    9
    9
    9
    9
    9
    9
    9
    9
    9
    9
    9
    9
    9
    9
    9
    9
    9
    9
    9
    9
    9
    9
    9
    9
    9
    9
    9
    9
    9
    9
    9
    9
    9
    9
    9
    9
    9
    9
    9
    9
    9
    9
    9
    9
    9
    9
    9
    9
    9
    9
    9
    9
    9
    9
    9
    9
    9
    9
    9
    9
    9
    9
    9
    9
    9
    9
    9
    9
    9
    9
    9
    9
    9
    9
    9
    9
    9
    9
    9
    9
    9
    9
    9
    9
    9
    9
    9
    9
    9
    9
    9
    9
    9
    9
    9
    9
    9
    9
    9
    9
    9
    9
    9
    9
    9
    9
    9
    9
    9
    9
    9
    9
    9
    9
    9
    9
    9
    9
    9
    9
    9
    9
    9
    9
    9
    9
    9
    9
    9
    9
    9
    9
    9
    9
    9
    9
    9
    9
    9
    9
    9
    9
    9
    9
    9
    9
    9
    9
    9
    9
    9
    9
    9
    9
    9
    9
    9
    9
    9
    9
    9
    9
    9
    9
    9
    9
    9
    9
    9
    9
    9
    9
    9
    9
    9
    9
    9
    9
    9
    9
    9
    9
    9
    9
    9
    9
    9
    9
POINT_DATA  8448
SCALARS displacement FLOAT     3
LOOKUP_TABLE default
-0.326620E-004  0.133301E-004  0.000000E+000
-0.316384E-004  0.133714E-004  0.000000E+000
-0.318898E-004  0.129822E-004  0.000000E+000
-0.308913E-004  0.130266E-004  0.000000E+000
-0.327478E-004  0.128676E-004  0.000000E+000
-0.319822E-004  0.125298E-004  0.000000E+000
-0.306124E-004  0.134169E-004  0.000000E+000
-0.298901E-004  0.130751E-004  0.000000E+000
-0.311196E-004  0.126343E-004  0.000000E+000
-0.301460E-004  0.126817E-004  0.000000E+000
-0.312187E-004  0.121920E-004  0.000000E+000
-0.291696E-004  0.127334E-004  0.000000E+000
-0.328390E-004  0.124041E-004  0.000000E+000
-0.320800E-004  0.120765E-004  0.000000E+000
-0.313232E-004  0.117487E-004  0.000000E+000
-0.295840E-004  0.134666E-004  0.000000E+000
-0.288864E-004  0.131279E-004  0.000000E+000
-0.281906E-004  0.127895E-004  0.000000E+000
-0.303517E-004  0.122863E-004  0.000000E+000
-0.294029E-004  0.123370E-004  0.000000E+000
-0.304575E-004  0.118541E-004  0.000000E+000
-0.284512E-004  0.123919E-004  0.000000E+000
-0.305689E-004  0.114208E-004  0.000000E+000
-0.274967E-004  0.124512E-004  0.000000E+000
-0.329360E-004  0.119399E-004  0.000000E+000
-0.321835E-004  0.116223E-004  0.000000E+000
-0.314334E-004  0.113046E-004  0.000000E+000
-0.306860E-004  0.109867E-004  0.000000E+000
-0.285533E-004  0.135209E-004  0.000000E+000
-0.278803E-004  0.131854E-004  0.000000E+000
-0.272090E-004  0.128502E-004  0.000000E+000
-0.265394E-004  0.125153E-004  0.000000E+000
-0.295861E-004  0.119384E-004  0.000000E+000
-0.286620E-004  0.119923E-004  0.000000E+000
-0.296989E-004  0.115162E-004  0.000000E+000
-0.277349E-004  0.120505E-004  0.000000E+000
-0.298173E-004  0.110928E-004  0.000000E+000
-0.268048E-004  0.121133E-004  0.000000E+000
-0.299414E-004  0.106685E-004  0.000000E+000
-0.258719E-004  0.121809E-004  0.000000E+000
-0.330387E-004  0.114752E-004  0.000000E+000
-0.322928E-004  0.111677E-004  0.000000E+000
-0.315495E-004  0.108599E-004  0.000000E+000
-0.308090E-004  0.105519E-004  0.000000E+000
-0.300714E-004  0.102437E-004  0.000000E+000
-0.275204E-004  0.135798E-004  0.000000E+000
-0.268719E-004  0.132476E-004  0.000000E+000
-0.262249E-004  0.129158E-004  0.000000E+000
-0.255797E-004  0.125843E-004  0.000000E+000
-0.249363E-004  0.122534E-004  0.000000E+000
-0.288231E-004  0.115905E-004  0.000000E+000
-0.279236E-004  0.116478E-004  0.000000E+000
-0.289431E-004  0.111782E-004  0.000000E+000
-0.270210E-004  0.117094E-004  0.000000E+000
-0.290686E-004  0.107646E-004  0.000000E+000
-0.261153E-004  0.117757E-004  0.000000E+000
-0.291999E-004  0.103502E-004  0.000000E+000
-0.252065E-004  0.118469E-004  0.000000E+000
-0.293372E-004  0.993519E-005  0.000000E+000
-0.242950E-004  0.119231E-004  0.000000E+000
-0.331475E-004  0.110102E-004  0.000000E+000
-0.324082E-004  0.107127E-004  0.000000E+000
-0.316716E-004  0.104149E-004  0.000000E+000
-0.309380E-004  0.101169E-004  0.000000E+000
-0.302076E-004  0.981850E-005  0.000000E+000
-0.294806E-004  0.951982E-005  0.000000E+000
-0.264855E-004  0.136437E-004  0.000000E+000
-0.258613E-004  0.133148E-004  0.000000E+000
-0.252385E-004  0.129863E-004  0.000000E+000
-0.246175E-004  0.126584E-004  0.000000E+000
-0.239982E-004  0.123311E-004  0.000000E+000
-0.233809E-004  0.120045E-004  0.000000E+000
-0.280630E-004  0.112426E-004  0.000000E+000
-0.271880E-004  0.113034E-004  0.000000E+000
-0.281903E-004  0.108401E-004  0.000000E+000
-0.263097E-004  0.113686E-004  0.000000E+000
-0.283232E-004  0.104364E-004  0.000000E+000
-0.254282E-004  0.114385E-004  0.000000E+000
-0.284619E-004  0.100318E-004  0.000000E+000
-0.245436E-004  0.115134E-004  0.000000E+000
-0.286066E-004  0.962646E-005  0.000000E+000
-0.236560E-004  0.115934E-004  0.000000E+000
-0.287575E-004  0.922084E-005  0.000000E+000
-0.227657E-004  0.116786E-004  0.000000E+000
-0.332624E-004  0.105453E-004  0.000000E+000
-0.325297E-004  0.102578E-004  0.000000E+000
-0.317999E-004  0.997002E-005  0.000000E+000
-0.310732E-004  0.968188E-005  0.000000E+000
-0.303499E-004  0.939338E-005  0.000000E+000
-0.296302E-004  0.910452E-005  0.000000E+000
-0.289146E-004  0.881530E-005  0.000000E+000
-0.254487E-004  0.137127E-004  0.000000E+000
-0.248487E-004  0.133871E-004  0.000000E+000
-0.242501E-004  0.130621E-004  0.000000E+000
-0.236531E-004  0.127377E-004  0.000000E+000
-0.230578E-004  0.124141E-004  0.000000E+000
-0.224643E-004  0.120913E-004  0.000000E+000
-0.218729E-004  0.117694E-004  0.000000E+000
-0.273060E-004  0.108949E-004  0.000000E+000
-0.264554E-004  0.109592E-004  0.000000E+000
-0.274408E-004  0.105021E-004  0.000000E+000
-0.256014E-004  0.110281E-004  0.000000E+000
-0.275813E-004  0.101081E-004  0.000000E+000
-0.247439E-004  0.111017E-004  0.000000E+000
-0.277276E-004  0.971311E-005  0.000000E+000
-0.238833E-004  0.111804E-004  0.000000E+000
-0.278800E-004  0.931749E-005  0.000000E+000
-0.230195E-004  0.112643E-004  0.000000E+000
-0.280386E-004  0.892157E-005  0.000000E+000
-0.221530E-004  0.113536E-004  0.000000E+000
-0.282035E-004  0.852573E-005  0.000000E+000
-0.212838E-004  0.114484E-004  0.000000E+000
-0.333835E-004  0.100808E-004  0.000000E+000
-0.326575E-004  0.980335E-005  0.000000E+000
-0.319344E-004  0.952553E-005  0.000000E+000
-0.312147E-004  0.924732E-005  0.000000E+000
-0.304984E-004  0.896871E-005  0.000000E+000
-0.297861E-004  0.868969E-005  0.000000E+000
-0.290780E-004  0.841027E-005  0.000000E+000
-0.283746E-004  0.813043E-005  0.000000E+000
-0.244102E-004  0.137868E-004  0.000000E+000
-0.238344E-004  0.134646E-004  0.000000E+000
-0.232599E-004  0.131431E-004  0.000000E+000
-0.226869E-004  0.128224E-004  0.000000E+000
-0.221154E-004  0.125025E-004  0.000000E+000
-0.215457E-004  0.121835E-004  0.000000E+000
-0.209780E-004  0.118656E-004  0.000000E+000
-0.204124E-004  0.115488E-004  0.000000E+000
-0.265525E-004  0.105472E-004  0.000000E+000
-0.257262E-004  0.106152E-004  0.000000E+000
-0.266951E-004  0.101641E-004  0.000000E+000
-0.248962E-004  0.106879E-004  0.000000E+000
-0.268433E-004  0.977969E-005  0.000000E+000
-0.240627E-004  0.107655E-004  0.000000E+000
-0.269975E-004  0.939433E-005  0.000000E+000
-0.232259E-004  0.108482E-004  0.000000E+000
-0.271578E-004  0.900832E-005  0.000000E+000
-0.223858E-004  0.109362E-004  0.000000E+000
-0.273244E-004  0.862201E-005  0.000000E+000
-0.215429E-004  0.110296E-004  0.000000E+000
-0.274972E-004  0.823581E-005  0.000000E+000
-0.206972E-004  0.111286E-004  0.000000E+000
-0.276763E-004  0.785020E-005  0.000000E+000
-0.198493E-004  0.112333E-004  0.000000E+000
-0.335110E-004  0.961713E-005  0.000000E+000
-0.327915E-004  0.934972E-005  0.000000E+000
-0.320752E-004  0.908190E-005  0.000000E+000
-0.313624E-004  0.881364E-005  0.000000E+000
-0.306532E-004  0.854495E-005  0.000000E+000
-0.299482E-004  0.827581E-005  0.000000E+000
-0.292477E-004  0.800622E-005  0.000000E+000
-0.285520E-004  0.773617E-005  0.000000E+000
-0.278617E-004  0.746567E-005  0.000000E+000
-0.233705E-004  0.138662E-004  0.000000E+000
-0.228187E-004  0.135474E-004  0.000000E+000
-0.222682E-004  0.132295E-004  0.000000E+000
-0.217190E-004  0.129124E-004  0.000000E+000
-0.211714E-004  0.125963E-004  0.000000E+000
-0.206254E-004  0.122812E-004  0.000000E+000
-0.200813E-004  0.119673E-004  0.000000E+000
-0.195392E-004  0.116547E-004  0.000000E+000
-0.189994E-004  0.113436E-004  0.000000E+000
-0.258029E-004  0.101997E-004  0.000000E+000
-0.250007E-004  0.102716E-004  0.000000E+000
-0.259534E-004  0.982614E-005  0.000000E+000
-0.241946E-004  0.103482E-004  0.000000E+000
-0.261098E-004  0.945128E-005  0.000000E+000
-0.233849E-004  0.104298E-004  0.000000E+000
-0.262721E-004  0.907544E-005  0.000000E+000
-0.225717E-004  0.105167E-004  0.000000E+000
-0.264405E-004  0.869895E-005  0.000000E+000
-0.217553E-004  0.106089E-004  0.000000E+000
-0.266153E-004  0.832218E-005  0.000000E+000
-0.209357E-004  0.107067E-004  0.000000E+000
-0.267964E-004  0.794556E-005  0.000000E+000
-0.201135E-004  0.108101E-004  0.000000E+000
-0.269838E-004  0.756957E-005  0.000000E+000
-0.192888E-004  0.109192E-004  0.000000E+000
-0.271774E-004  0.719473E-005  0.000000E+000
-0.184621E-004  0.110341E-004  0.000000E+000
-0.336446E-004  0.915475E-005  0.000000E+000
-0.329317E-004  0.889740E-005  0.000000E+000
-0.322221E-004  0.863960E-005  0.000000E+000
-0.315162E-004  0.838134E-005  0.000000E+000
-0.308142E-004  0.812261E-005  0.000000E+000
-0.301165E-004  0.786339E-005  0.000000E+000
-0.294234E-004  0.760369E-005  0.000000E+000
-0.287355E-004  0.734349E-005  0.000000E+000
-0.280533E-004  0.708280E-005  0.000000E+000
-0.273772E-004  0.682163E-005  0.000000E+000
-0.223297E-004  0.139507E-004  0.000000E+000
-0.218019E-004  0.136355E-004  0.000000E+000
-0.212753E-004  0.133211E-004  0.000000E+000
-0.207500E-004  0.130078E-004  0.000000E+000
-0.202260E-004  0.126955E-004  0.000000E+000
-0.197037E-004  0.123844E-004  0.000000E+000
-0.191831E-004  0.120746E-004  0.000000E+000
-0.186644E-004  0.117662E-004  0.000000E+000
-0.181479E-004  0.114595E-004  0.000000E+000
-0.176339E-004  0.111545E-004  0.000000E+000
-0.250576E-004  0.985247E-005  0.000000E+000
-0.242793E-004  0.992834E-005  0.000000E+000
-0.252164E-004  0.948833E-005  0.000000E+000
-0.234970E-004  0.100091E-004  0.000000E+000
-0.253810E-004  0.912290E-005  0.000000E+000
-0.227110E-004  0.100949E-004  0.000000E+000
-0.255517E-004  0.875648E-005  0.000000E+000
-0.219213E-004  0.101861E-004  0.000000E+000
-0.257287E-004  0.838943E-005  0.000000E+000
-0.211282E-004  0.102827E-004  0.000000E+000
-0.259119E-004  0.802212E-005  0.000000E+000
-0.203319E-004  0.103850E-004  0.000000E+000
-0.261015E-004  0.765501E-005  0.000000E+000
-0.195329E-004  0.104930E-004  0.000000E+000
-0.262975E-004  0.728858E-005  0.000000E+000
-0.187313E-004  0.106068E-004  0.000000E+000
-0.264997E-004  0.692338E-005  0.000000E+000
-0.179277E-004  0.107264E-004  0.000000E+000
-0.267081E-004  0.656001E-005  0.000000E+000
-0.171225E-004  0.108516E-004  0.000000E+000
-0.337843E-004  0.869416E-005  0.000000E+000
-0.330780E-004  0.844691E-005  0.000000E+000
-0.323751E-004  0.819918E-005  0.000000E+000
-0.316761E-004  0.795096E-005  0.000000E+000
-0.309811E-004  0.770224E-005  0.000000E+000
-0.302907E-004  0.745302E-005  0.000000E+000
-0.296051E-004  0.720327E-005  0.000000E+000
-0.289249E-004  0.695300E-005  0.000000E+000
-0.282506E-004  0.670220E-005  0.000000E+000
-0.275828E-004  0.645090E-005  0.000000E+000
-0.269222E-004  0.619911E-005  0.000000E+000
-0.212883E-004  0.140405E-004  0.000000E+000
-0.207844E-004  0.137288E-004  0.000000E+000
-0.202816E-004  0.134180E-004  0.000000E+000
-0.197801E-004  0.131084E-004  0.000000E+000
-0.192798E-004  0.127999E-004  0.000000E+000
-0.187811E-004  0.124928E-004  0.000000E+000
-0.182840E-004  0.121871E-004  0.000000E+000
-0.177887E-004  0.118831E-004  0.000000E+000
-0.172955E-004  0.115808E-004  0.000000E+000
-0.168045E-004  0.112804E-004  0.000000E+000
-0.163162E-004  0.109823E-004  0.000000E+000
-0.243172E-004  0.950552E-005  0.000000E+000
-0.235626E-004  0.958557E-005  0.000000E+000
-0.244845E-004  0.915071E-005  0.000000E+000
-0.228039E-004  0.967059E-005  0.000000E+000
-0.246578E-004  0.879460E-005  0.000000E+000
-0.220413E-004  0.976083E-005  0.000000E+000
-0.248372E-004  0.843751E-005  0.000000E+000
-0.212749E-004  0.985649E-005  0.000000E+000
-0.250228E-004  0.807980E-005  0.000000E+000
-0.205050E-004  0.995774E-005  0.000000E+000
-0.252149E-004  0.772187E-005  0.000000E+000
-0.197319E-004  0.100647E-004  0.000000E+000
-0.254134E-004  0.736419E-005  0.000000E+000
-0.189558E-004  0.101775E-004  0.000000E+000
-0.256182E-004  0.700725E-005  0.000000E+000
-0.181772E-004  0.102962E-004  0.000000E+000
-0.258294E-004  0.665164E-005  0.000000E+000
-0.173965E-004  0.104207E-004  0.000000E+000
-0.260466E-004  0.629796E-005  0.000000E+000
-0.166142E-004  0.105509E-004  0.000000E+000
-0.262695E-004  0.594686E-005  0.000000E+000
-0.158307E-004  0.106865E-004  0.000000E+000
-0.339299E-004  0.823590E-005  0.000000E+000
-0.332300E-004  0.799880E-005  0.000000E+000
-0.325339E-004  0.776120E-005  0.000000E+000
-0.318417E-004  0.752309E-005  0.000000E+000
-0.311538E-004  0.728445E-005  0.000000E+000
-0.304705E-004  0.704529E-005  0.000000E+000
-0.297924E-004  0.680558E-005  0.000000E+000
-0.291199E-004  0.656533E-005  0.000000E+000
-0.284535E-004  0.632453E-005  0.000000E+000
-0.277939E-004  0.608320E-005  0.000000E+000
-0.271417E-004  0.584137E-005  0.000000E+000
-0.264978E-004  0.559906E-005  0.000000E+000
-0.202467E-004  0.141353E-004  0.000000E+000
-0.197667E-004  0.138270E-004  0.000000E+000
-0.192877E-004  0.135199E-004  0.000000E+000
-0.188098E-004  0.132140E-004  0.000000E+000
-0.183332E-004  0.129095E-004  0.000000E+000
-0.178580E-004  0.126064E-004  0.000000E+000
-0.173844E-004  0.123048E-004  0.000000E+000
-0.169125E-004  0.120050E-004  0.000000E+000
-0.164425E-004  0.117072E-004  0.000000E+000
-0.159747E-004  0.114115E-004  0.000000E+000
-0.155093E-004  0.111181E-004  0.000000E+000
-0.150467E-004  0.108273E-004  0.000000E+000
-0.235822E-004  0.915898E-005  0.000000E+000
-0.228511E-004  0.924339E-005  0.000000E+000
-0.237584E-004  0.881337E-005  0.000000E+000
-0.221158E-004  0.933291E-005  0.000000E+000
-0.239406E-004  0.846647E-005  0.000000E+000
-0.213764E-004  0.942776E-005  0.000000E+000
-0.241290E-004  0.811859E-005  0.000000E+000
-0.206331E-004  0.952813E-005  0.000000E+000
-0.243238E-004  0.777012E-005  0.000000E+000
-0.198862E-004  0.963422E-005  0.000000E+000
-0.245250E-004  0.742149E-005  0.000000E+000
-0.191360E-004  0.974613E-005  0.000000E+000
-0.247327E-004  0.707316E-005  0.000000E+000
-0.183828E-004  0.986396E-005  0.000000E+000
-0.249468E-004  0.672566E-005  0.000000E+000
-0.176270E-004  0.998771E-005  0.000000E+000
-0.251672E-004  0.637958E-005  0.000000E+000
-0.168690E-004  0.101173E-004  0.000000E+000
-0.253936E-004  0.603554E-005  0.000000E+000
-0.161094E-004  0.102527E-004  0.000000E+000
-0.256257E-004  0.569422E-005  0.000000E+000
-0.153486E-004  0.103935E-004  0.000000E+000
-0.258631E-004  0.535633E-005  0.000000E+000
-0.145873E-004  0.105395E-004  0.000000E+000
-0.340810E-004  0.778056E-005  0.000000E+000
-0.333876E-004  0.755367E-005  0.000000E+000
-0.326981E-004  0.732627E-005  0.000000E+000
-0.320126E-004  0.709834E-005  0.000000E+000
-0.313317E-004  0.686988E-005  0.000000E+000
-0.306556E-004  0.664086E-005  0.000000E+000
-0.299849E-004  0.641129E-005  0.000000E+000
-0.293200E-004  0.618117E-005  0.000000E+000
-0.286614E-004  0.595048E-005  0.000000E+000
-0.280099E-004  0.571926E-005  0.000000E+000
-0.273661E-004  0.548751E-005  0.000000E+000
-0.267309E-004  0.525528E-005  0.000000E+000
-0.261051E-004  0.502264E-005  0.000000E+000
-0.192053E-004  0.142348E-004  0.000000E+000
-0.187491E-004  0.139301E-004  0.000000E+000
-0.182939E-004  0.136266E-004  0.000000E+000
-0.178397E-004  0.133245E-004  0.000000E+000
-0.173867E-004  0.130238E-004  0.000000E+000
-0.169351E-004  0.127247E-004  0.000000E+000
-0.164849E-004  0.124273E-004  0.000000E+000
-0.160363E-004  0.121318E-004  0.000000E+000
-0.155895E-004  0.118384E-004  0.000000E+000
-0.151448E-004  0.115472E-004  0.000000E+000
-0.147024E-004  0.112587E-004  0.000000E+000
-0.142627E-004  0.109729E-004  0.000000E+000
-0.138260E-004  0.106902E-004  0.000000E+000
-0.228534E-004  0.881297E-005  0.000000E+000
-0.221456E-004  0.890197E-005  0.000000E+000
-0.230388E-004  0.847644E-005  0.000000E+000
-0.214334E-004  0.899620E-005  0.000000E+000
-0.232303E-004  0.813861E-005  0.000000E+000
-0.207170E-004  0.909588E-005  0.000000E+000
-0.234282E-004  0.779983E-005  0.000000E+000
-0.199966E-004  0.920121E-005  0.000000E+000
-0.236324E-004  0.746051E-005  0.000000E+000
-0.192725E-004  0.931236E-005  0.000000E+000
-0.238432E-004  0.712106E-005  0.000000E+000
-0.185449E-004  0.942944E-005  0.000000E+000
-0.240605E-004  0.678200E-005  0.000000E+000
-0.178143E-004  0.955252E-005  0.000000E+000
-0.242842E-004  0.644387E-005  0.000000E+000
-0.170811E-004  0.968159E-005  0.000000E+000
-0.245141E-004  0.610727E-005  0.000000E+000
-0.163457E-004  0.981659E-005  0.000000E+000
-0.247501E-004  0.577283E-005  0.000000E+000
-0.156086E-004  0.995735E-005  0.000000E+000
-0.249918E-004  0.544126E-005  0.000000E+000
-0.148703E-004  0.101036E-004  0.000000E+000
-0.252385E-004  0.511329E-005  0.000000E+000
-0.141315E-004  0.102550E-004  0.000000E+000
-0.254898E-004  0.478967E-005  0.000000E+000
-0.133928E-004  0.104110E-004  0.000000E+000
-0.342373E-004  0.732878E-005  0.000000E+000
-0.335503E-004  0.711218E-005  0.000000E+000
-0.328672E-004  0.689505E-005  0.000000E+000
-0.321885E-004  0.667739E-005  0.000000E+000
-0.315144E-004  0.645919E-005  0.000000E+000
-0.308455E-004  0.624043E-005  0.000000E+000
-0.301820E-004  0.602111E-005  0.000000E+000
-0.295246E-004  0.580123E-005  0.000000E+000
-0.288738E-004  0.558078E-005  0.000000E+000
-0.282302E-004  0.535979E-005  0.000000E+000
-0.275947E-004  0.513828E-005  0.000000E+000
-0.269679E-004  0.491629E-005  0.000000E+000
-0.263510E-004  0.469390E-005  0.000000E+000
-0.257449E-004  0.447119E-005  0.000000E+000
-0.181646E-004  0.143387E-004  0.000000E+000
-0.177322E-004  0.140375E-004  0.000000E+000
-0.173007E-004  0.137377E-004  0.000000E+000
-0.168702E-004  0.134393E-004  0.000000E+000
-0.164409E-004  0.131425E-004  0.000000E+000
-0.160127E-004  0.128474E-004  0.000000E+000
-0.155859E-004  0.125541E-004  0.000000E+000
-0.151607E-004  0.122629E-004  0.000000E+000
-0.147372E-004  0.119739E-004  0.000000E+000
-0.143156E-004  0.116873E-004  0.000000E+000
-0.138963E-004  0.114034E-004  0.000000E+000
-0.134794E-004  0.111225E-004  0.000000E+000
-0.130654E-004  0.108449E-004  0.000000E+000
-0.126547E-004  0.105710E-004  0.000000E+000
-0.221316E-004  0.846767E-005  0.000000E+000
-0.214468E-004  0.856148E-005  0.000000E+000
-0.223266E-004  0.814006E-005  0.000000E+000
-0.207574E-004  0.866067E-005  0.000000E+000
-0.225279E-004  0.781117E-005  0.000000E+000
-0.200638E-004  0.876544E-005  0.000000E+000
-0.227355E-004  0.748137E-005  0.000000E+000
-0.193660E-004  0.887598E-005  0.000000E+000
-0.229497E-004  0.715106E-005  0.000000E+000
-0.186644E-004  0.899246E-005  0.000000E+000
-0.231704E-004  0.682072E-005  0.000000E+000
-0.179593E-004  0.911497E-005  0.000000E+000
-0.233977E-004  0.649085E-005  0.000000E+000
-0.172511E-004  0.924356E-005  0.000000E+000
-0.236314E-004  0.616201E-005  0.000000E+000
-0.165402E-004  0.937821E-005  0.000000E+000
-0.238714E-004  0.583483E-005  0.000000E+000
-0.158271E-004  0.951884E-005  0.000000E+000
-0.241174E-004  0.550996E-005  0.000000E+000
-0.151123E-004  0.966524E-005  0.000000E+000
-0.243689E-004  0.518812E-005  0.000000E+000
-0.143964E-004  0.981713E-005  0.000000E+000
-0.246255E-004  0.487005E-005  0.000000E+000
-0.136799E-004  0.997411E-005  0.000000E+000
-0.248864E-004  0.455652E-005  0.000000E+000
-0.129635E-004  0.101357E-004  0.000000E+000
-0.251509E-004  0.424832E-005  0.000000E+000
-0.122479E-004  0.103011E-004  0.000000E+000
-0.343980E-004  0.688119E-005  0.000000E+000
-0.337173E-004  0.667496E-005  0.000000E+000
-0.330407E-004  0.646821E-005  0.000000E+000
-0.323686E-004  0.626092E-005  0.000000E+000
-0.317013E-004  0.605309E-005  0.000000E+000
-0.310393E-004  0.584470E-005  0.000000E+000
-0.303830E-004  0.563575E-005  0.000000E+000
-0.297329E-004  0.542624E-005  0.000000E+000
-0.290897E-004  0.521618E-005  0.000000E+000
-0.284540E-004  0.500557E-005  0.000000E+000
-0.278266E-004  0.479445E-005  0.000000E+000
-0.272082E-004  0.458287E-005  0.000000E+000
-0.265998E-004  0.437090E-005  0.000000E+000
-0.260027E-004  0.415864E-005  0.000000E+000
-0.254179E-004  0.394624E-005  0.000000E+000
-0.171251E-004  0.144466E-004  0.000000E+000
-0.167166E-004  0.141489E-004  0.000000E+000
-0.163088E-004  0.138527E-004  0.000000E+000
-0.159020E-004  0.135580E-004  0.000000E+000
-0.154962E-004  0.132650E-004  0.000000E+000
-0.150916E-004  0.129738E-004  0.000000E+000
-0.146883E-004  0.126847E-004  0.000000E+000
-0.142864E-004  0.123976E-004  0.000000E+000
-0.138861E-004  0.121130E-004  0.000000E+000
-0.134877E-004  0.118309E-004  0.000000E+000
-0.130913E-004  0.115517E-004  0.000000E+000
-0.126974E-004  0.112756E-004  0.000000E+000
-0.123062E-004  0.110030E-004  0.000000E+000
-0.119181E-004  0.107342E-004  0.000000E+000
-0.115337E-004  0.104696E-004  0.000000E+000
-0.214178E-004  0.812328E-005  0.000000E+000
-0.207557E-004  0.822218E-005  0.000000E+000
-0.216229E-004  0.780443E-005  0.000000E+000
-0.200889E-004  0.832659E-005  0.000000E+000
-0.218343E-004  0.748434E-005  0.000000E+000
-0.194177E-004  0.843673E-005  0.000000E+000
-0.220523E-004  0.716337E-005  0.000000E+000
-0.187422E-004  0.855277E-005  0.000000E+000
-0.222768E-004  0.684198E-005  0.000000E+000
-0.180629E-004  0.867486E-005  0.000000E+000
-0.225080E-004  0.652063E-005  0.000000E+000
-0.173800E-004  0.880308E-005  0.000000E+000
-0.227457E-004  0.619986E-005  0.000000E+000
-0.166939E-004  0.893747E-005  0.000000E+000
-0.229899E-004  0.588025E-005  0.000000E+000
-0.160052E-004  0.907799E-005  0.000000E+000
-0.232403E-004  0.556244E-005  0.000000E+000
-0.153141E-004  0.922451E-005  0.000000E+000
-0.234967E-004  0.524711E-005  0.000000E+000
-0.146214E-004  0.937681E-005  0.000000E+000
-0.237585E-004  0.493498E-005  0.000000E+000
-0.139276E-004  0.953460E-005  0.000000E+000
-0.240252E-004  0.462680E-005  0.000000E+000
-0.132332E-004  0.969741E-005  0.000000E+000
-0.242962E-004  0.432337E-005  0.000000E+000
-0.125390E-004  0.986471E-005  0.000000E+000
-0.245704E-004  0.402548E-005  0.000000E+000
-0.118456E-004  0.100358E-004  0.000000E+000
-0.248470E-004  0.373392E-005  0.000000E+000
-0.111536E-004  0.102098E-004  0.000000E+000
-0.345626E-004  0.643848E-005  0.000000E+000
-0.338881E-004  0.624272E-005  0.000000E+000
-0.332178E-004  0.604644E-005  0.000000E+000
-0.325521E-004  0.584963E-005  0.000000E+000
-0.318915E-004  0.565229E-005  0.000000E+000
-0.312363E-004  0.545439E-005  0.000000E+000
-0.305870E-004  0.525595E-005  0.000000E+000
-0.299442E-004  0.505695E-005  0.000000E+000
-0.293084E-004  0.485741E-005  0.000000E+000
-0.286804E-004  0.465735E-005  0.000000E+000
-0.280608E-004  0.445679E-005  0.000000E+000
-0.274506E-004  0.425579E-005  0.000000E+000
-0.268506E-004  0.405442E-005  0.000000E+000
-0.262621E-004  0.385280E-005  0.000000E+000
-0.256863E-004  0.365109E-005  0.000000E+000
-0.251246E-004  0.344949E-005  0.000000E+000
-0.160875E-004  0.145578E-004  0.000000E+000
-0.157027E-004  0.142636E-004  0.000000E+000
-0.153187E-004  0.139709E-004  0.000000E+000
-0.149356E-004  0.136799E-004  0.000000E+000
-0.145534E-004  0.133907E-004  0.000000E+000
-0.141723E-004  0.131034E-004  0.000000E+000
-0.137924E-004  0.128182E-004  0.000000E+000
-0.134139E-004  0.125354E-004  0.000000E+000
-0.130369E-004  0.122550E-004  0.000000E+000
-0.126616E-004  0.119773E-004  0.000000E+000
-0.122883E-004  0.117027E-004  0.000000E+000
-0.119173E-004  0.114313E-004  0.000000E+000
-0.115489E-004  0.111635E-004  0.000000E+000
-0.111835E-004  0.108997E-004  0.000000E+000
-0.108216E-004  0.106403E-004  0.000000E+000
-0.104638E-004  0.103858E-004  0.000000E+000
-0.207132E-004  0.778009E-005  0.000000E+000
-0.200734E-004  0.788437E-005  0.000000E+000
-0.209289E-004  0.746983E-005  0.000000E+000
-0.194289E-004  0.799432E-005  0.000000E+000
-0.211510E-004  0.715836E-005  0.000000E+000
-0.187798E-004  0.811014E-005  0.000000E+000
-0.213798E-004  0.684610E-005  0.000000E+000
-0.181264E-004  0.823199E-005  0.000000E+000
-0.216152E-004  0.653348E-005  0.000000E+000
-0.174690E-004  0.836001E-005  0.000000E+000
-0.218573E-004  0.622102E-005  0.000000E+000
-0.168080E-004  0.849426E-005  0.000000E+000
-0.221059E-004  0.590927E-005  0.000000E+000
-0.161438E-004  0.863475E-005  0.000000E+000
-0.223611E-004  0.559882E-005  0.000000E+000
-0.154768E-004  0.878142E-005  0.000000E+000
-0.226224E-004  0.529034E-005  0.000000E+000
-0.148076E-004  0.893412E-005  0.000000E+000
-0.228896E-004  0.498452E-005  0.000000E+000
-0.141367E-004  0.909261E-005  0.000000E+000
-0.231622E-004  0.468209E-005  0.000000E+000
-0.134647E-004  0.925654E-005  0.000000E+000
-0.234395E-004  0.438382E-005  0.000000E+000
-0.127923E-004  0.942543E-005  0.000000E+000
-0.237208E-004  0.409051E-005  0.000000E+000
-0.121200E-004  0.959868E-005  0.000000E+000
-0.240052E-004  0.380296E-005  0.000000E+000
-0.114485E-004  0.977558E-005  0.000000E+000
-0.242916E-004  0.352198E-005  0.000000E+000
-0.107786E-004  0.995525E-005  0.000000E+000
-0.245787E-004  0.324833E-005  0.000000E+000
-0.101108E-004  0.101367E-004  0.000000E+000
-0.347302E-004  0.600129E-005  0.000000E+000
-0.340616E-004  0.581611E-005  0.000000E+000
-0.333975E-004  0.563043E-005  0.000000E+000
-0.327381E-004  0.544422E-005  0.000000E+000
-0.320840E-004  0.525749E-005  0.000000E+000
-0.314354E-004  0.507022E-005  0.000000E+000
-0.307930E-004  0.488242E-005  0.000000E+000
-0.301572E-004  0.469409E-005  0.000000E+000
-0.295287E-004  0.450523E-005  0.000000E+000
-0.289081E-004  0.431587E-005  0.000000E+000
-0.282962E-004  0.412604E-005  0.000000E+000
-0.276939E-004  0.393580E-005  0.000000E+000
-0.271021E-004  0.374522E-005  0.000000E+000
-0.265219E-004  0.355444E-005  0.000000E+000
-0.259547E-004  0.336360E-005  0.000000E+000
-0.254019E-004  0.317294E-005  0.000000E+000
-0.248651E-004  0.298277E-005  0.000000E+000
-0.150522E-004  0.146716E-004  0.000000E+000
-0.146912E-004  0.143808E-004  0.000000E+000
-0.143309E-004  0.140916E-004  0.000000E+000
-0.139715E-004  0.138042E-004  0.000000E+000
-0.136129E-004  0.135187E-004  0.000000E+000
-0.132554E-004  0.132352E-004  0.000000E+000
-0.128990E-004  0.129540E-004  0.000000E+000
-0.125438E-004  0.126751E-004  0.000000E+000
-0.121902E-004  0.123989E-004  0.000000E+000
-0.118381E-004  0.121256E-004  0.000000E+000
-0.114879E-004  0.118554E-004  0.000000E+000
-0.111399E-004  0.115886E-004  0.000000E+000
-0.107943E-004  0.113255E-004  0.000000E+000
-0.104516E-004  0.110665E-004  0.000000E+000
-0.101122E-004  0.108121E-004  0.000000E+000
-0.977671E-005  0.105626E-004  0.000000E+000
-0.944588E-005  0.103187E-004  0.000000E+000
-0.200193E-004  0.743845E-005  0.000000E+000
-0.194015E-004  0.754845E-005  0.000000E+000
-0.202461E-004  0.713659E-005  0.000000E+000
-0.187788E-004  0.766428E-005  0.000000E+000
-0.204795E-004  0.683359E-005  0.000000E+000
-0.181514E-004  0.778613E-005  0.000000E+000
-0.207196E-004  0.652987E-005  0.000000E+000
-0.175197E-004  0.791414E-005  0.000000E+000
-0.209665E-004  0.622592E-005  0.000000E+000
-0.168839E-004  0.804844E-005  0.000000E+000
-0.212201E-004  0.592224E-005  0.000000E+000
-0.162444E-004  0.818905E-005  0.000000E+000
-0.214802E-004  0.561941E-005  0.000000E+000
-0.156017E-004  0.833598E-005  0.000000E+000
-0.217469E-004  0.531807E-005  0.000000E+000
-0.149563E-004  0.848913E-005  0.000000E+000
-0.220197E-004  0.501887E-005  0.000000E+000
-0.143086E-004  0.864832E-005  0.000000E+000
-0.222982E-004  0.472253E-005  0.000000E+000
-0.136593E-004  0.881328E-005  0.000000E+000
-0.225820E-004  0.442981E-005  0.000000E+000
-0.130089E-004  0.898361E-005  0.000000E+000
-0.228703E-004  0.414147E-005  0.000000E+000
-0.123580E-004  0.915880E-005  0.000000E+000
-0.231624E-004  0.385832E-005  0.000000E+000
-0.117074E-004  0.933824E-005  0.000000E+000
-0.234572E-004  0.358117E-005  0.000000E+000
-0.110577E-004  0.952113E-005  0.000000E+000
-0.237538E-004  0.331081E-005  0.000000E+000
-0.104096E-004  0.970659E-005  0.000000E+000
-0.240507E-004  0.304802E-005  0.000000E+000
-0.976364E-005  0.989355E-005  0.000000E+000
-0.243464E-004  0.279352E-005  0.000000E+000
-0.912059E-005  0.100808E-004  0.000000E+000
-0.348996E-004  0.557029E-005  0.000000E+000
-0.342369E-004  0.539581E-005  0.000000E+000
-0.335787E-004  0.522084E-005  0.000000E+000
-0.329255E-004  0.504536E-005  0.000000E+000
-0.322776E-004  0.486938E-005  0.000000E+000
-0.316356E-004  0.469288E-005  0.000000E+000
-0.309998E-004  0.451587E-005  0.000000E+000
-0.303708E-004  0.433835E-005  0.000000E+000
-0.297493E-004  0.416033E-005  0.000000E+000
-0.291359E-004  0.398184E-005  0.000000E+000
-0.285314E-004  0.380291E-005  0.000000E+000
-0.279367E-004  0.362361E-005  0.000000E+000
-0.273527E-004  0.344402E-005  0.000000E+000
-0.267806E-004  0.326425E-005  0.000000E+000
-0.262217E-004  0.308449E-005  0.000000E+000
-0.256774E-004  0.290497E-005  0.000000E+000
-0.251493E-004  0.272599E-005  0.000000E+000
-0.246394E-004  0.254801E-005  0.000000E+000
-0.140198E-004  0.147871E-004  0.000000E+000
-0.136826E-004  0.144996E-004  0.000000E+000
-0.133461E-004  0.142139E-004  0.000000E+000
-0.130103E-004  0.139300E-004  0.000000E+000
-0.126754E-004  0.136480E-004  0.000000E+000
-0.123415E-004  0.133683E-004  0.000000E+000
-0.120086E-004  0.130909E-004  0.000000E+000
-0.116769E-004  0.128160E-004  0.000000E+000
-0.113465E-004  0.125438E-004  0.000000E+000
-0.110177E-004  0.122746E-004  0.000000E+000
-0.106907E-004  0.120087E-004  0.000000E+000
-0.103656E-004  0.117463E-004  0.000000E+000
-0.100429E-004  0.114877E-004  0.000000E+000
-0.972295E-005  0.112334E-004  0.000000E+000
-0.940613E-005  0.109837E-004  0.000000E+000
-0.909305E-005  0.107391E-004  0.000000E+000
-0.878438E-005  0.105000E-004  0.000000E+000
-0.848099E-005  0.102671E-004  0.000000E+000
-0.193379E-004  0.709886E-005  0.000000E+000
-0.187416E-004  0.721496E-005  0.000000E+000
-0.195765E-004  0.680520E-005  0.000000E+000
-0.181403E-004  0.733705E-005  0.000000E+000
-0.198218E-004  0.651048E-005  0.000000E+000
-0.175342E-004  0.746531E-005  0.000000E+000
-0.200739E-004  0.621516E-005  0.000000E+000
-0.169238E-004  0.759988E-005  0.000000E+000
-0.203328E-004  0.591972E-005  0.000000E+000
-0.163092E-004  0.774082E-005  0.000000E+000
-0.205985E-004  0.562472E-005  0.000000E+000
-0.156909E-004  0.788818E-005  0.000000E+000
-0.208708E-004  0.533075E-005  0.000000E+000
-0.150694E-004  0.804190E-005  0.000000E+000
-0.211495E-004  0.503845E-005  0.000000E+000
-0.144451E-004  0.820187E-005  0.000000E+000
-0.214342E-004  0.474851E-005  0.000000E+000
-0.138186E-004  0.836787E-005  0.000000E+000
-0.217246E-004  0.446165E-005  0.000000E+000
-0.131905E-004  0.853959E-005  0.000000E+000
-0.220201E-004  0.417865E-005  0.000000E+000
-0.125614E-004  0.871659E-005  0.000000E+000
-0.223199E-004  0.390028E-005  0.000000E+000
-0.119319E-004  0.889832E-005  0.000000E+000
-0.226231E-004  0.362734E-005  0.000000E+000
-0.113027E-004  0.908413E-005  0.000000E+000
-0.229288E-004  0.336065E-005  0.000000E+000
-0.106744E-004  0.927319E-005  0.000000E+000
-0.232358E-004  0.310099E-005  0.000000E+000
-0.100478E-004  0.946455E-005  0.000000E+000
-0.235427E-004  0.284913E-005  0.000000E+000
-0.942340E-005  0.965713E-005  0.000000E+000
-0.238480E-004  0.260578E-005  0.000000E+000
-0.880194E-005  0.984970E-005  0.000000E+000
-0.241500E-004  0.237160E-005  0.000000E+000
-0.818397E-005  0.100409E-004  0.000000E+000
-0.350697E-004  0.514610E-005  0.000000E+000
-0.344126E-004  0.498243E-005  0.000000E+000
-0.337603E-004  0.481830E-005  0.000000E+000
-0.331130E-004  0.465369E-005  0.000000E+000
-0.324712E-004  0.448860E-005  0.000000E+000
-0.318353E-004  0.432302E-005  0.000000E+000
-0.312059E-004  0.415695E-005  0.000000E+000
-0.305835E-004  0.399040E-005  0.000000E+000
-0.299688E-004  0.382339E-005  0.000000E+000
-0.293623E-004  0.365593E-005  0.000000E+000
-0.287649E-004  0.348808E-005  0.000000E+000
-0.281775E-004  0.331989E-005  0.000000E+000
-0.276010E-004  0.315145E-005  0.000000E+000
-0.270366E-004  0.298290E-005  0.000000E+000
-0.264855E-004  0.281440E-005  0.000000E+000
-0.259493E-004  0.264619E-005  0.000000E+000
-0.254294E-004  0.247860E-005  0.000000E+000
-0.249279E-004  0.231206E-005  0.000000E+000
-0.244469E-004  0.214716E-005  0.000000E+000
-0.129907E-004  0.149033E-004  0.000000E+000
-0.126774E-004  0.146191E-004  0.000000E+000
-0.123647E-004  0.143366E-004  0.000000E+000
-0.120526E-004  0.140561E-004  0.000000E+000
-0.117414E-004  0.137777E-004  0.000000E+000
-0.114311E-004  0.135015E-004  0.000000E+000
-0.111217E-004  0.132278E-004  0.000000E+000
-0.108135E-004  0.129567E-004  0.000000E+000
-0.105065E-004  0.126884E-004  0.000000E+000
-0.102010E-004  0.124232E-004  0.000000E+000
-0.989715E-005  0.121614E-004  0.000000E+000
-0.959518E-005  0.119032E-004  0.000000E+000
-0.929541E-005  0.116489E-004  0.000000E+000
-0.899821E-005  0.113990E-004  0.000000E+000
-0.870400E-005  0.111538E-004  0.000000E+000
-0.841333E-005  0.109137E-004  0.000000E+000
-0.812685E-005  0.106792E-004  0.000000E+000
-0.784539E-005  0.104509E-004  0.000000E+000
-0.756999E-005  0.102293E-004  0.000000E+000
-0.186711E-004  0.676197E-005  0.000000E+000
-0.180959E-004  0.688459E-005  0.000000E+000
-0.189223E-004  0.647628E-005  0.000000E+000
-0.175155E-004  0.701339E-005  0.000000E+000
-0.191802E-004  0.618968E-005  0.000000E+000
-0.169303E-004  0.714849E-005  0.000000E+000
-0.194450E-004  0.590258E-005  0.000000E+000
-0.163406E-004  0.729001E-005  0.000000E+000
-0.197167E-004  0.561554E-005  0.000000E+000
-0.157468E-004  0.743804E-005  0.000000E+000
-0.199951E-004  0.532912E-005  0.000000E+000
-0.151492E-004  0.759253E-005  0.000000E+000
-0.202802E-004  0.504392E-005  0.000000E+000
-0.145485E-004  0.775343E-005  0.000000E+000
-0.205716E-004  0.476063E-005  0.000000E+000
-0.139450E-004  0.792058E-005  0.000000E+000
-0.208689E-004  0.447993E-005  0.000000E+000
-0.133393E-004  0.809372E-005  0.000000E+000
-0.211717E-004  0.420257E-005  0.000000E+000
-0.127321E-004  0.827248E-005  0.000000E+000
-0.214793E-004  0.392932E-005  0.000000E+000
-0.121239E-004  0.845641E-005  0.000000E+000
-0.217910E-004  0.366097E-005  0.000000E+000
-0.115154E-004  0.864491E-005  0.000000E+000
-0.221058E-004  0.339832E-005  0.000000E+000
-0.109073E-004  0.883726E-005  0.000000E+000
-0.224227E-004  0.314217E-005  0.000000E+000
-0.103002E-004  0.903260E-005  0.000000E+000
-0.227404E-004  0.289331E-005  0.000000E+000
-0.969470E-005  0.922996E-005  0.000000E+000
-0.230575E-004  0.265247E-005  0.000000E+000
-0.909157E-005  0.942819E-005  0.000000E+000
-0.233725E-004  0.242035E-005  0.000000E+000
-0.849137E-005  0.962606E-005  0.000000E+000
-0.236836E-004  0.219759E-005  0.000000E+000
-0.789466E-005  0.982217E-005  0.000000E+000
-0.239890E-004  0.198471E-005  0.000000E+000
-0.730193E-005  0.100151E-004  0.000000E+000
-0.352392E-004  0.472926E-005  0.000000E+000
-0.345875E-004  0.457655E-005  0.000000E+000
-0.339407E-004  0.442339E-005  0.000000E+000
-0.332991E-004  0.426978E-005  0.000000E+000
-0.326631E-004  0.411573E-005  0.000000E+000
-0.320332E-004  0.396121E-005  0.000000E+000
-0.314100E-004  0.380624E-005  0.000000E+000
-0.307938E-004  0.365082E-005  0.000000E+000
-0.301855E-004  0.349496E-005  0.000000E+000
-0.295856E-004  0.333871E-005  0.000000E+000
-0.289950E-004  0.318210E-005  0.000000E+000
-0.284146E-004  0.302520E-005  0.000000E+000
-0.278452E-004  0.286810E-005  0.000000E+000
-0.272881E-004  0.271093E-005  0.000000E+000
-0.267444E-004  0.255386E-005  0.000000E+000
-0.262157E-004  0.239715E-005  0.000000E+000
-0.257036E-004  0.224110E-005  0.000000E+000
-0.252099E-004  0.208616E-005  0.000000E+000
-0.247367E-004  0.193291E-005  0.000000E+000
-0.242866E-004  0.178215E-005  0.000000E+000
-0.119655E-004  0.150192E-004  0.000000E+000
-0.116760E-004  0.147380E-004  0.000000E+000
-0.113872E-004  0.144587E-004  0.000000E+000
-0.110989E-004  0.141815E-004  0.000000E+000
-0.108114E-004  0.139064E-004  0.000000E+000
-0.105247E-004  0.136337E-004  0.000000E+000
-0.102390E-004  0.133635E-004  0.000000E+000
-0.995426E-005  0.130960E-004  0.000000E+000
-0.967072E-005  0.128314E-004  0.000000E+000
-0.938853E-005  0.125700E-004  0.000000E+000
-0.910788E-005  0.123121E-004  0.000000E+000
-0.882902E-005  0.120578E-004  0.000000E+000
-0.855222E-005  0.118077E-004  0.000000E+000
-0.827783E-005  0.115619E-004  0.000000E+000
-0.800627E-005  0.113208E-004  0.000000E+000
-0.773804E-005  0.110850E-004  0.000000E+000
-0.747377E-005  0.108548E-004  0.000000E+000
-0.721425E-005  0.106307E-004  0.000000E+000
-0.696045E-005  0.104133E-004  0.000000E+000
-0.671361E-005  0.102031E-004  0.000000E+000
-0.180219E-004  0.642866E-005  0.000000E+000
-0.174671E-004  0.655831E-005  0.000000E+000
-0.182864E-004  0.615076E-005  0.000000E+000
-0.169071E-004  0.669427E-005  0.000000E+000
-0.185577E-004  0.587203E-005  0.000000E+000
-0.163421E-004  0.683669E-005  0.000000E+000
-0.188360E-004  0.559303E-005  0.000000E+000
-0.157727E-004  0.698567E-005  0.000000E+000
-0.191212E-004  0.531426E-005  0.000000E+000
-0.151991E-004  0.714118E-005  0.000000E+000
-0.194132E-004  0.503632E-005  0.000000E+000
-0.146219E-004  0.730326E-005  0.000000E+000
-0.197117E-004  0.475985E-005  0.000000E+000
-0.140414E-004  0.747173E-005  0.000000E+000
-0.200164E-004  0.448554E-005  0.000000E+000
-0.134583E-004  0.764642E-005  0.000000E+000
-0.203270E-004  0.421409E-005  0.000000E+000
-0.128730E-004  0.782702E-005  0.000000E+000
-0.206427E-004  0.394627E-005  0.000000E+000
-0.122863E-004  0.801312E-005  0.000000E+000
-0.209630E-004  0.368283E-005  0.000000E+000
-0.116986E-004  0.820422E-005  0.000000E+000
-0.212870E-004  0.342459E-005  0.000000E+000
-0.111108E-004  0.839967E-005  0.000000E+000
-0.216138E-004  0.317232E-005  0.000000E+000
-0.105233E-004  0.859869E-005  0.000000E+000
-0.219421E-004  0.292682E-005  0.000000E+000
-0.993697E-005  0.880041E-005  0.000000E+000
-0.222708E-004  0.268885E-005  0.000000E+000
-0.935233E-005  0.900377E-005  0.000000E+000
-0.225983E-004  0.245914E-005  0.000000E+000
-0.877005E-005  0.920763E-005  0.000000E+000
-0.229230E-004  0.223835E-005  0.000000E+000
-0.819070E-005  0.941070E-005  0.000000E+000
-0.232433E-004  0.202708E-005  0.000000E+000
-0.761483E-005  0.961158E-005  0.000000E+000
-0.235571E-004  0.182582E-005  0.000000E+000
-0.704291E-005  0.980876E-005  0.000000E+000
-0.238625E-004  0.163496E-005  0.000000E+000
-0.647531E-005  0.100007E-004  0.000000E+000
-0.354065E-004  0.432026E-005  0.000000E+000
-0.347600E-004  0.417863E-005  0.000000E+000
-0.341185E-004  0.403659E-005  0.000000E+000
-0.334823E-004  0.389413E-005  0.000000E+000
-0.328518E-004  0.375125E-005  0.000000E+000
-0.322276E-004  0.360794E-005  0.000000E+000
-0.316102E-004  0.346421E-005  0.000000E+000
-0.310000E-004  0.332008E-005  0.000000E+000
-0.303978E-004  0.317555E-005  0.000000E+000
-0.298042E-004  0.303066E-005  0.000000E+000
-0.292200E-004  0.288545E-005  0.000000E+000
-0.286460E-004  0.274000E-005  0.000000E+000
-0.280834E-004  0.259440E-005  0.000000E+000
-0.275331E-004  0.244878E-005  0.000000E+000
-0.269964E-004  0.230331E-005  0.000000E+000
-0.264748E-004  0.215824E-005  0.000000E+000
-0.259698E-004  0.201389E-005  0.000000E+000
-0.254833E-004  0.187068E-005  0.000000E+000
-0.250174E-004  0.172919E-005  0.000000E+000
-0.245745E-004  0.159021E-005  0.000000E+000
-0.241573E-004  0.145477E-005  0.000000E+000
-0.109446E-004  0.151334E-004  0.000000E+000
-0.106790E-004  0.148551E-004  0.000000E+000
-0.104140E-004  0.145789E-004  0.000000E+000
-0.101496E-004  0.143047E-004  0.000000E+000
-0.988585E-005  0.140328E-004  0.000000E+000
-0.962287E-005  0.137633E-004  0.000000E+000
-0.936074E-005  0.134965E-004  0.000000E+000
-0.909957E-005  0.132324E-004  0.000000E+000
-0.883949E-005  0.129713E-004  0.000000E+000
-0.858068E-005  0.127135E-004  0.000000E+000
-0.832329E-005  0.124592E-004  0.000000E+000
-0.806758E-005  0.122087E-004  0.000000E+000
-0.781379E-005  0.119624E-004  0.000000E+000
-0.756225E-005  0.117204E-004  0.000000E+000
-0.731335E-005  0.114833E-004  0.000000E+000
-0.706758E-005  0.112514E-004  0.000000E+000
-0.682552E-005  0.110251E-004  0.000000E+000
-0.658792E-005  0.108049E-004  0.000000E+000
-0.635569E-005  0.105913E-004  0.000000E+000
-0.613000E-005  0.103847E-004  0.000000E+000
-0.591235E-005  0.101856E-004  0.000000E+000
-0.173938E-004  0.610020E-005  0.000000E+000
-0.168587E-004  0.623737E-005  0.000000E+000
-0.176724E-004  0.582980E-005  0.000000E+000
-0.163183E-004  0.638106E-005  0.000000E+000
-0.179581E-004  0.555883E-005  0.000000E+000
-0.157731E-004  0.653133E-005  0.000000E+000
-0.182508E-004  0.528773E-005  0.000000E+000
-0.152233E-004  0.668820E-005  0.000000E+000
-0.185504E-004  0.501711E-005  0.000000E+000
-0.146694E-004  0.685175E-005  0.000000E+000
-0.188567E-004  0.474761E-005  0.000000E+000
-0.141119E-004  0.702182E-005  0.000000E+000
-0.191694E-004  0.447984E-005  0.000000E+000
-0.135512E-004  0.719827E-005  0.000000E+000
-0.194882E-004  0.421451E-005  0.000000E+000
-0.129879E-004  0.738086E-005  0.000000E+000
-0.198125E-004  0.395236E-005  0.000000E+000
-0.124226E-004  0.756924E-005  0.000000E+000
-0.201418E-004  0.369413E-005  0.000000E+000
-0.118559E-004  0.776294E-005  0.000000E+000
-0.204753E-004  0.344061E-005  0.000000E+000
-0.112883E-004  0.796140E-005  0.000000E+000
-0.208120E-004  0.319258E-005  0.000000E+000
-0.107207E-004  0.816392E-005  0.000000E+000
-0.211510E-004  0.295081E-005  0.000000E+000
-0.101535E-004  0.836970E-005  0.000000E+000
-0.214911E-004  0.271609E-005  0.000000E+000
-0.958745E-005  0.857777E-005  0.000000E+000
-0.218308E-004  0.248915E-005  0.000000E+000
-0.902318E-005  0.878709E-005  0.000000E+000
-0.221688E-004  0.227068E-005  0.000000E+000
-0.846127E-005  0.899644E-005  0.000000E+000
-0.225033E-004  0.206131E-005  0.000000E+000
-0.790229E-005  0.920452E-005  0.000000E+000
-0.228325E-004  0.186159E-005  0.000000E+000
-0.734675E-005  0.940991E-005  0.000000E+000
-0.231546E-004  0.167198E-005  0.000000E+000
-0.679506E-005  0.961109E-005  0.000000E+000
-0.234674E-004  0.149282E-005  0.000000E+000
-0.624761E-005  0.980648E-005  0.000000E+000
-0.237690E-004  0.132432E-005  0.000000E+000
-0.570464E-005  0.999444E-005  0.000000E+000
-0.355700E-004  0.391948E-005  0.000000E+000
-0.349284E-004  0.378906E-005  0.000000E+000
-0.342918E-004  0.365827E-005  0.000000E+000
-0.336608E-004  0.352709E-005  0.000000E+000
-0.330356E-004  0.339553E-005  0.000000E+000
-0.324167E-004  0.326358E-005  0.000000E+000
-0.318047E-004  0.313125E-005  0.000000E+000
-0.312002E-004  0.299855E-005  0.000000E+000
-0.306037E-004  0.286550E-005  0.000000E+000
-0.300159E-004  0.273213E-005  0.000000E+000
-0.294377E-004  0.259848E-005  0.000000E+000
-0.288699E-004  0.246464E-005  0.000000E+000
-0.283135E-004  0.233069E-005  0.000000E+000
-0.277696E-004  0.219676E-005  0.000000E+000
-0.272394E-004  0.206304E-005  0.000000E+000
-0.267243E-004  0.192975E-005  0.000000E+000
-0.262259E-004  0.179721E-005  0.000000E+000
-0.257461E-004  0.166583E-005  0.000000E+000
-0.252868E-004  0.153619E-005  0.000000E+000
-0.248503E-004  0.140903E-005  0.000000E+000
-0.244394E-004  0.128536E-005  0.000000E+000
-0.240571E-004  0.116655E-005  0.000000E+000
-0.992824E-005  0.152445E-004  0.000000E+000
-0.968664E-005  0.149691E-004  0.000000E+000
-0.944552E-005  0.146956E-004  0.000000E+000
-0.920497E-005  0.144244E-004  0.000000E+000
-0.896503E-005  0.141555E-004  0.000000E+000
-0.872579E-005  0.138891E-004  0.000000E+000
-0.848733E-005  0.136253E-004  0.000000E+000
-0.824976E-005  0.133644E-004  0.000000E+000
-0.801320E-005  0.131067E-004  0.000000E+000
-0.777779E-005  0.128522E-004  0.000000E+000
-0.754372E-005  0.126013E-004  0.000000E+000
-0.731118E-005  0.123543E-004  0.000000E+000
-0.708042E-005  0.121114E-004  0.000000E+000
-0.685175E-005  0.118730E-004  0.000000E+000
-0.662554E-005  0.116395E-004  0.000000E+000
-0.640223E-005  0.114111E-004  0.000000E+000
-0.618238E-005  0.111884E-004  0.000000E+000
-0.596667E-005  0.109717E-004  0.000000E+000
-0.575596E-005  0.107615E-004  0.000000E+000
-0.555135E-005  0.105581E-004  0.000000E+000
-0.535421E-005  0.103619E-004  0.000000E+000
-0.516634E-005  0.101733E-004  0.000000E+000
-0.167913E-004  0.577827E-005  0.000000E+000
-0.162751E-004  0.592363E-005  0.000000E+000
-0.170852E-004  0.551523E-005  0.000000E+000
-0.157538E-004  0.607558E-005  0.000000E+000
-0.173862E-004  0.525173E-005  0.000000E+000
-0.152274E-004  0.623422E-005  0.000000E+000
-0.176943E-004  0.498846E-005  0.000000E+000
-0.146966E-004  0.639963E-005  0.000000E+000
-0.180091E-004  0.472594E-005  0.000000E+000
-0.141618E-004  0.657162E-005  0.000000E+000
-0.183306E-004  0.446480E-005  0.000000E+000
-0.136233E-004  0.675015E-005  0.000000E+000
-0.186583E-004  0.420573E-005  0.000000E+000
-0.130818E-004  0.693498E-005  0.000000E+000
-0.189919E-004  0.394945E-005  0.000000E+000
-0.125378E-004  0.712581E-005  0.000000E+000
-0.193306E-004  0.369667E-005  0.000000E+000
-0.119919E-004  0.732223E-005  0.000000E+000
-0.196740E-004  0.344816E-005  0.000000E+000
-0.114446E-004  0.752372E-005  0.000000E+000
-0.200211E-004  0.320468E-005  0.000000E+000
-0.108967E-004  0.772966E-005  0.000000E+000
-0.203709E-004  0.296701E-005  0.000000E+000
-0.103487E-004  0.793930E-005  0.000000E+000
-0.207224E-004  0.273592E-005  0.000000E+000
-0.980126E-005  0.815177E-005  0.000000E+000
-0.210743E-004  0.251213E-005  0.000000E+000
-0.925502E-005  0.836609E-005  0.000000E+000
-0.214252E-004  0.229635E-005  0.000000E+000
-0.871056E-005  0.858115E-005  0.000000E+000
-0.217735E-004  0.208923E-005  0.000000E+000
-0.816847E-005  0.879571E-005  0.000000E+000
-0.221176E-004  0.189137E-005  0.000000E+000
-0.762925E-005  0.900845E-005  0.000000E+000
-0.224555E-004  0.170325E-005  0.000000E+000
-0.709337E-005  0.921794E-005  0.000000E+000
-0.227855E-004  0.152527E-005  0.000000E+000
-0.656124E-005  0.942266E-005  0.000000E+000
-0.231054E-004  0.135774E-005  0.000000E+000
-0.603317E-005  0.962105E-005  0.000000E+000
-0.234132E-004  0.120079E-005  0.000000E+000
-0.550940E-005  0.981147E-005  0.000000E+000
-0.237067E-004  0.105446E-005  0.000000E+000
-0.499005E-005  0.999231E-005  0.000000E+000
-0.357280E-004  0.352715E-005  0.000000E+000
-0.350909E-004  0.340808E-005  0.000000E+000
-0.344591E-004  0.328867E-005  0.000000E+000
-0.338327E-004  0.316892E-005  0.000000E+000
-0.332124E-004  0.304882E-005  0.000000E+000
-0.325986E-004  0.292837E-005  0.000000E+000
-0.319917E-004  0.280758E-005  0.000000E+000
-0.313924E-004  0.268646E-005  0.000000E+000
-0.308012E-004  0.256502E-005  0.000000E+000
-0.302189E-004  0.244331E-005  0.000000E+000
-0.296463E-004  0.232138E-005  0.000000E+000
-0.290842E-004  0.219928E-005  0.000000E+000
-0.285335E-004  0.207712E-005  0.000000E+000
-0.279955E-004  0.195502E-005  0.000000E+000
-0.274712E-004  0.183316E-005  0.000000E+000
-0.269621E-004  0.171177E-005  0.000000E+000
-0.264698E-004  0.159114E-005  0.000000E+000
-0.259959E-004  0.147168E-005  0.000000E+000
-0.255426E-004  0.135394E-005  0.000000E+000
-0.251120E-004  0.123861E-005  0.000000E+000
-0.247066E-004  0.112668E-005  0.000000E+000
-0.243295E-004  0.101943E-005  0.000000E+000
-0.239838E-004  0.918615E-006  0.000000E+000
-0.891670E-005  0.153512E-004  0.000000E+000
-0.869909E-005  0.150783E-004  0.000000E+000
-0.848193E-005  0.148076E-004  0.000000E+000
-0.826528E-005  0.145390E-004  0.000000E+000
-0.804919E-005  0.142729E-004  0.000000E+000
-0.783374E-005  0.140093E-004  0.000000E+000
-0.761899E-005  0.137485E-004  0.000000E+000
-0.740506E-005  0.134905E-004  0.000000E+000
-0.719205E-005  0.132358E-004  0.000000E+000
-0.698009E-005  0.129844E-004  0.000000E+000
-0.676935E-005  0.127366E-004  0.000000E+000
-0.656002E-005  0.124928E-004  0.000000E+000
-0.635233E-005  0.122531E-004  0.000000E+000
-0.614655E-005  0.120179E-004  0.000000E+000
-0.594302E-005  0.117876E-004  0.000000E+000
-0.574217E-005  0.115625E-004  0.000000E+000
-0.554450E-005  0.113430E-004  0.000000E+000
-0.535064E-005  0.111294E-004  0.000000E+000
-0.516139E-005  0.109222E-004  0.000000E+000
-0.497774E-005  0.107216E-004  0.000000E+000
-0.480098E-005  0.105279E-004  0.000000E+000
-0.463275E-005  0.103414E-004  0.000000E+000
-0.447518E-005  0.101619E-004  0.000000E+000
-0.162205E-004  0.546541E-005  0.000000E+000
-0.157224E-004  0.561951E-005  0.000000E+000
-0.165309E-004  0.520938E-005  0.000000E+000
-0.152191E-004  0.578040E-005  0.000000E+000
-0.168484E-004  0.495337E-005  0.000000E+000
-0.147109E-004  0.594809E-005  0.000000E+000
-0.171728E-004  0.469778E-005  0.000000E+000
-0.141983E-004  0.612241E-005  0.000000E+000
-0.175039E-004  0.444328E-005  0.000000E+000
-0.136817E-004  0.630341E-005  0.000000E+000
-0.178414E-004  0.419056E-005  0.000000E+000
-0.131616E-004  0.649082E-005  0.000000E+000
-0.181850E-004  0.394027E-005  0.000000E+000
-0.126386E-004  0.668437E-005  0.000000E+000
-0.185339E-004  0.369313E-005  0.000000E+000
-0.121132E-004  0.688370E-005  0.000000E+000
-0.188878E-004  0.344986E-005  0.000000E+000
-0.115860E-004  0.708834E-005  0.000000E+000
-0.192456E-004  0.321124E-005  0.000000E+000
-0.110576E-004  0.729770E-005  0.000000E+000
-0.196067E-004  0.297799E-005  0.000000E+000
-0.105286E-004  0.751111E-005  0.000000E+000
-0.199698E-004  0.275089E-005  0.000000E+000
-0.999968E-005  0.772775E-005  0.000000E+000
-0.203339E-004  0.253064E-005  0.000000E+000
-0.947136E-005  0.794672E-005  0.000000E+000
-0.206976E-004  0.231796E-005  0.000000E+000
-0.894426E-005  0.816697E-005  0.000000E+000
-0.210594E-004  0.211349E-005  0.000000E+000
-0.841894E-005  0.838736E-005  0.000000E+000
-0.214178E-004  0.191785E-005  0.000000E+000
-0.789592E-005  0.860664E-005  0.000000E+000
-0.217710E-004  0.173154E-005  0.000000E+000
-0.737569E-005  0.882347E-005  0.000000E+000
-0.221172E-004  0.155502E-005  0.000000E+000
-0.685867E-005  0.903642E-005  0.000000E+000
-0.224545E-004  0.138861E-005  0.000000E+000
-0.634519E-005  0.924398E-005  0.000000E+000
-0.227808E-004  0.123253E-005  0.000000E+000
-0.583555E-005  0.944462E-005  0.000000E+000
-0.230940E-004  0.108690E-005  0.000000E+000
-0.532993E-005  0.963675E-005  0.000000E+000
-0.233921E-004  0.951665E-006  0.000000E+000
-0.482844E-005  0.981879E-005  0.000000E+000
-0.236730E-004  0.826655E-006  0.000000E+000
-0.433108E-005  0.998917E-005  0.000000E+000
-0.358786E-004  0.314338E-005  0.000000E+000
-0.352458E-004  0.303578E-005  0.000000E+000
-0.346182E-004  0.292789E-005  0.000000E+000
-0.339963E-004  0.281969E-005  0.000000E+000
-0.333805E-004  0.271119E-005  0.000000E+000
-0.327713E-004  0.260237E-005  0.000000E+000
-0.321691E-004  0.249325E-005  0.000000E+000
-0.315746E-004  0.238384E-005  0.000000E+000
-0.309883E-004  0.227417E-005  0.000000E+000
-0.304110E-004  0.216425E-005  0.000000E+000
-0.298435E-004  0.205415E-005  0.000000E+000
-0.292866E-004  0.194393E-005  0.000000E+000
-0.287412E-004  0.183368E-005  0.000000E+000
-0.282085E-004  0.172353E-005  0.000000E+000
-0.276896E-004  0.161365E-005  0.000000E+000
-0.271860E-004  0.150424E-005  0.000000E+000
-0.266991E-004  0.139560E-005  0.000000E+000
-0.262307E-004  0.128811E-005  0.000000E+000
-0.257826E-004  0.118228E-005  0.000000E+000
-0.253572E-004  0.107878E-005  0.000000E+000
-0.249567E-004  0.978522E-006  0.000000E+000
-0.245841E-004  0.882705E-006  0.000000E+000
-0.242422E-004  0.792968E-006  0.000000E+000
-0.239346E-004  0.711545E-006  0.000000E+000
-0.791007E-005  0.154520E-004  0.000000E+000
-0.771649E-005  0.151815E-004  0.000000E+000
-0.752333E-005  0.149131E-004  0.000000E+000
-0.733063E-005  0.146471E-004  0.000000E+000
-0.713843E-005  0.143835E-004  0.000000E+000
-0.694680E-005  0.141225E-004  0.000000E+000
-0.675581E-005  0.138643E-004  0.000000E+000
-0.656556E-005  0.136091E-004  0.000000E+000
-0.637613E-005  0.133570E-004  0.000000E+000
-0.618766E-005  0.131084E-004  0.000000E+000
-0.600028E-005  0.128635E-004  0.000000E+000
-0.581418E-005  0.126225E-004  0.000000E+000
-0.562956E-005  0.123858E-004  0.000000E+000
-0.544668E-005  0.121535E-004  0.000000E+000
-0.526585E-005  0.119261E-004  0.000000E+000
-0.508743E-005  0.117039E-004  0.000000E+000
-0.491190E-005  0.114872E-004  0.000000E+000
-0.473984E-005  0.112763E-004  0.000000E+000
-0.457196E-005  0.110716E-004  0.000000E+000
-0.440917E-005  0.108734E-004  0.000000E+000
-0.425264E-005  0.106819E-004  0.000000E+000
-0.410384E-005  0.104970E-004  0.000000E+000
-0.396471E-005  0.103187E-004  0.000000E+000
-0.383779E-005  0.101464E-004  0.000000E+000
-0.156897E-004  0.516509E-005  0.000000E+000
-0.152086E-004  0.532877E-005  0.000000E+000
-0.160179E-004  0.491614E-005  0.000000E+000
-0.147223E-004  0.549921E-005  0.000000E+000
-0.163529E-004  0.466731E-005  0.000000E+000
-0.142312E-004  0.567634E-005  0.000000E+000
-0.166948E-004  0.441941E-005  0.000000E+000
-0.137358E-004  0.586030E-005  0.000000E+000
-0.170432E-004  0.417305E-005  0.000000E+000
-0.132366E-004  0.605068E-005  0.000000E+000
-0.173976E-004  0.392882E-005  0.000000E+000
-0.127341E-004  0.624729E-005  0.000000E+000
-0.177577E-004  0.368743E-005  0.000000E+000
-0.122287E-004  0.644979E-005  0.000000E+000
-0.181227E-004  0.344962E-005  0.000000E+000
-0.117211E-004  0.665775E-005  0.000000E+000
-0.184921E-004  0.321610E-005  0.000000E+000
-0.112119E-004  0.687062E-005  0.000000E+000
-0.188648E-004  0.298760E-005  0.000000E+000
-0.107016E-004  0.708775E-005  0.000000E+000
-0.192399E-004  0.276484E-005  0.000000E+000
-0.101909E-004  0.730839E-005  0.000000E+000
-0.196163E-004  0.254853E-005  0.000000E+000
-0.968019E-005  0.753168E-005  0.000000E+000
-0.199928E-004  0.233936E-005  0.000000E+000
-0.917019E-005  0.775666E-005  0.000000E+000
-0.203680E-004  0.213798E-005  0.000000E+000
-0.866140E-005  0.798224E-005  0.000000E+000
-0.207403E-004  0.194497E-005  0.000000E+000
-0.815433E-005  0.820727E-005  0.000000E+000
-0.211081E-004  0.176087E-005  0.000000E+000
-0.764947E-005  0.843046E-005  0.000000E+000
-0.214697E-004  0.158612E-005  0.000000E+000
-0.714722E-005  0.865049E-005  0.000000E+000
-0.218233E-004  0.142110E-005  0.000000E+000
-0.664796E-005  0.886593E-005  0.000000E+000
-0.221669E-004  0.126606E-005  0.000000E+000
-0.615198E-005  0.907531E-005  0.000000E+000
-0.224985E-004  0.112115E-005  0.000000E+000
-0.565950E-005  0.927714E-005  0.000000E+000
-0.228161E-004  0.986404E-006  0.000000E+000
-0.517068E-005  0.946990E-005  0.000000E+000
-0.231177E-004  0.861723E-006  0.000000E+000
-0.468558E-005  0.965207E-005  0.000000E+000
-0.234013E-004  0.746880E-006  0.000000E+000
-0.420420E-005  0.982217E-005  0.000000E+000
-0.236649E-004  0.641515E-006  0.000000E+000
-0.372644E-005  0.997877E-005  0.000000E+000
-0.360199E-004  0.276808E-005  0.000000E+000
-0.353909E-004  0.267208E-005  0.000000E+000
-0.347673E-004  0.257583E-005  0.000000E+000
-0.341495E-004  0.247932E-005  0.000000E+000
-0.335378E-004  0.238253E-005  0.000000E+000
-0.329327E-004  0.228547E-005  0.000000E+000
-0.323349E-004  0.218815E-005  0.000000E+000
-0.317447E-004  0.209058E-005  0.000000E+000
-0.311629E-004  0.199278E-005  0.000000E+000
-0.305902E-004  0.189478E-005  0.000000E+000
-0.300273E-004  0.179664E-005  0.000000E+000
-0.294750E-004  0.169841E-005  0.000000E+000
-0.289344E-004  0.160018E-005  0.000000E+000
-0.284065E-004  0.150207E-005  0.000000E+000
-0.278925E-004  0.140424E-005  0.000000E+000
-0.273937E-004  0.130689E-005  0.000000E+000
-0.269117E-004  0.121029E-005  0.000000E+000
-0.264480E-004  0.111480E-005  0.000000E+000
-0.260046E-004  0.102089E-005  0.000000E+000
-0.255837E-004  0.929181E-006  0.000000E+000
-0.251875E-004  0.840503E-006  0.000000E+000
-0.248186E-004  0.755969E-006  0.000000E+000
-0.244800E-004  0.677078E-006  0.000000E+000
-0.241749E-004  0.605867E-006  0.000000E+000
-0.239065E-004  0.545135E-006  0.000000E+000
-0.690830E-005  0.155453E-004  0.000000E+000
-0.673881E-005  0.152770E-004  0.000000E+000
-0.656969E-005  0.150108E-004  0.000000E+000
-0.640097E-005  0.147470E-004  0.000000E+000
-0.623270E-005  0.144857E-004  0.000000E+000
-0.606494E-005  0.142270E-004  0.000000E+000
-0.589775E-005  0.139712E-004  0.000000E+000
-0.573120E-005  0.137184E-004  0.000000E+000
-0.556539E-005  0.134688E-004  0.000000E+000
-0.540043E-005  0.132227E-004  0.000000E+000
-0.523644E-005  0.129803E-004  0.000000E+000
-0.507359E-005  0.127419E-004  0.000000E+000
-0.491206E-005  0.125077E-004  0.000000E+000
-0.475207E-005  0.122780E-004  0.000000E+000
-0.459391E-005  0.120531E-004  0.000000E+000
-0.443791E-005  0.118334E-004  0.000000E+000
-0.428448E-005  0.116192E-004  0.000000E+000
-0.413415E-005  0.114107E-004  0.000000E+000
-0.398755E-005  0.112082E-004  0.000000E+000
-0.384550E-005  0.110120E-004  0.000000E+000
-0.370902E-005  0.108222E-004  0.000000E+000
-0.357944E-005  0.106387E-004  0.000000E+000
-0.345848E-005  0.104612E-004  0.000000E+000
-0.334838E-005  0.102889E-004  0.000000E+000
-0.325213E-005  0.101205E-004  0.000000E+000
-0.152100E-004  0.488284E-005  0.000000E+000
-0.147446E-004  0.505655E-005  0.000000E+000
-0.155571E-004  0.464057E-005  0.000000E+000
-0.142740E-004  0.523711E-005  0.000000E+000
-0.159112E-004  0.439920E-005  0.000000E+000
-0.137990E-004  0.542454E-005  0.000000E+000
-0.162716E-004  0.415912E-005  0.000000E+000
-0.133198E-004  0.561827E-005  0.000000E+000
-0.166382E-004  0.392094E-005  0.000000E+000
-0.128369E-004  0.581832E-005  0.000000E+000
-0.170104E-004  0.368542E-005  0.000000E+000
-0.123509E-004  0.602432E-005  0.000000E+000
-0.173876E-004  0.345323E-005  0.000000E+000
-0.118623E-004  0.623580E-005  0.000000E+000
-0.177692E-004  0.322505E-005  0.000000E+000
-0.113716E-004  0.645226E-005  0.000000E+000
-0.181542E-004  0.300159E-005  0.000000E+000
-0.108794E-004  0.667307E-005  0.000000E+000
-0.185418E-004  0.278354E-005  0.000000E+000
-0.103863E-004  0.689753E-005  0.000000E+000
-0.189308E-004  0.257158E-005  0.000000E+000
-0.989273E-005  0.712481E-005  0.000000E+000
-0.193202E-004  0.236637E-005  0.000000E+000
-0.939935E-005  0.735401E-005  0.000000E+000
-0.197085E-004  0.216852E-005  0.000000E+000
-0.890663E-005  0.758410E-005  0.000000E+000
-0.200943E-004  0.197861E-005  0.000000E+000
-0.841506E-005  0.781399E-005  0.000000E+000
-0.204761E-004  0.179715E-005  0.000000E+000
-0.792508E-005  0.804249E-005  0.000000E+000
-0.208523E-004  0.162459E-005  0.000000E+000
-0.743712E-005  0.826834E-005  0.000000E+000
-0.212210E-004  0.146129E-005  0.000000E+000
-0.695151E-005  0.849020E-005  0.000000E+000
-0.215805E-004  0.130752E-005  0.000000E+000
-0.646855E-005  0.870670E-005  0.000000E+000
-0.219289E-004  0.116346E-005  0.000000E+000
-0.598850E-005  0.891643E-005  0.000000E+000
-0.222643E-004  0.102918E-005  0.000000E+000
-0.551150E-005  0.911795E-005  0.000000E+000
-0.225846E-004  0.904623E-006  0.000000E+000
-0.503768E-005  0.930983E-005  0.000000E+000
-0.228881E-004  0.789641E-006  0.000000E+000
-0.456705E-005  0.949066E-005  0.000000E+000
-0.231727E-004  0.683953E-006  0.000000E+000
-0.409960E-005  0.965906E-005  0.000000E+000
-0.234367E-004  0.587163E-006  0.000000E+000
-0.363521E-005  0.981371E-005  0.000000E+000
-0.236782E-004  0.498762E-006  0.000000E+000
-0.317373E-005  0.995337E-005  0.000000E+000
-0.361501E-004  0.240099E-005  0.000000E+000
-0.355246E-004  0.231672E-005  0.000000E+000
-0.349045E-004  0.223222E-005  0.000000E+000
-0.342903E-004  0.214750E-005  0.000000E+000
-0.336823E-004  0.206255E-005  0.000000E+000
-0.330810E-004  0.197737E-005  0.000000E+000
-0.324870E-004  0.189196E-005  0.000000E+000
-0.319007E-004  0.180634E-005  0.000000E+000
-0.313229E-004  0.172052E-005  0.000000E+000
-0.307542E-004  0.163455E-005  0.000000E+000
-0.301954E-004  0.154846E-005  0.000000E+000
-0.296474E-004  0.146232E-005  0.000000E+000
-0.291110E-004  0.137620E-005  0.000000E+000
-0.285873E-004  0.129022E-005  0.000000E+000
-0.280776E-004  0.120451E-005  0.000000E+000
-0.275831E-004  0.111928E-005  0.000000E+000
-0.271053E-004  0.103475E-005  0.000000E+000
-0.266458E-004  0.951267E-006  0.000000E+000
-0.262065E-004  0.869249E-006  0.000000E+000
-0.257894E-004  0.789263E-006  0.000000E+000
-0.253968E-004  0.712059E-006  0.000000E+000
-0.250311E-004  0.638638E-006  0.000000E+000
-0.246952E-004  0.570345E-006  0.000000E+000
-0.243920E-004  0.509007E-006  0.000000E+000
-0.241245E-004  0.457118E-006  0.000000E+000
-0.238957E-004  0.418130E-006  0.000000E+000
-0.591122E-005  0.156297E-004  0.000000E+000
-0.576586E-005  0.153633E-004  0.000000E+000
-0.562081E-005  0.150991E-004  0.000000E+000
-0.547612E-005  0.148372E-004  0.000000E+000
-0.533182E-005  0.145779E-004  0.000000E+000
-0.518796E-005  0.143213E-004  0.000000E+000
-0.504459E-005  0.140676E-004  0.000000E+000
-0.490179E-005  0.138169E-004  0.000000E+000
-0.475962E-005  0.135695E-004  0.000000E+000
-0.461819E-005  0.133256E-004  0.000000E+000
-0.447761E-005  0.130854E-004  0.000000E+000
-0.433802E-005  0.128491E-004  0.000000E+000
-0.419958E-005  0.126172E-004  0.000000E+000
-0.406248E-005  0.123897E-004  0.000000E+000
-0.392698E-005  0.121671E-004  0.000000E+000
-0.379336E-005  0.119495E-004  0.000000E+000
-0.366199E-005  0.117374E-004  0.000000E+000
-0.353331E-005  0.115309E-004  0.000000E+000
-0.340790E-005  0.113303E-004  0.000000E+000
-0.328645E-005  0.111357E-004  0.000000E+000
-0.316986E-005  0.109473E-004  0.000000E+000
-0.305929E-005  0.107648E-004  0.000000E+000
-0.295622E-005  0.105879E-004  0.000000E+000
-0.286260E-005  0.104155E-004  0.000000E+000
-0.278102E-005  0.102461E-004  0.000000E+000
-0.271493E-005  0.100769E-004  0.000000E+000
-0.147972E-004  0.462645E-005  0.000000E+000
-0.143460E-004  0.481107E-005  0.000000E+000
-0.151650E-004  0.439149E-005  0.000000E+000
-0.138901E-004  0.500236E-005  0.000000E+000
-0.155389E-004  0.415749E-005  0.000000E+000
-0.134296E-004  0.519982E-005  0.000000E+000
-0.159189E-004  0.392536E-005  0.000000E+000
-0.129652E-004  0.540373E-005  0.000000E+000
-0.163045E-004  0.369583E-005  0.000000E+000
-0.124974E-004  0.561348E-005  0.000000E+000
-0.166949E-004  0.346945E-005  0.000000E+000
-0.120267E-004  0.582863E-005  0.000000E+000
-0.170896E-004  0.324687E-005  0.000000E+000
-0.115536E-004  0.604868E-005  0.000000E+000
-0.174876E-004  0.302877E-005  0.000000E+000
-0.110786E-004  0.627303E-005  0.000000E+000
-0.178881E-004  0.281581E-005  0.000000E+000
-0.106022E-004  0.650100E-005  0.000000E+000
-0.182901E-004  0.260863E-005  0.000000E+000
-0.101251E-004  0.673179E-005  0.000000E+000
-0.186923E-004  0.240785E-005  0.000000E+000
-0.964752E-005  0.696454E-005  0.000000E+000
-0.190935E-004  0.221404E-005  0.000000E+000
-0.917011E-005  0.719827E-005  0.000000E+000
-0.194924E-004  0.202774E-005  0.000000E+000
-0.869328E-005  0.743195E-005  0.000000E+000
-0.198874E-004  0.184941E-005  0.000000E+000
-0.821743E-005  0.766445E-005  0.000000E+000
-0.202770E-004  0.167948E-005  0.000000E+000
-0.774295E-005  0.789459E-005  0.000000E+000
-0.206596E-004  0.151828E-005  0.000000E+000
-0.727014E-005  0.812113E-005  0.000000E+000
-0.210334E-004  0.136608E-005  0.000000E+000
-0.679931E-005  0.834280E-005  0.000000E+000
-0.213967E-004  0.122304E-005  0.000000E+000
-0.633066E-005  0.855827E-005  0.000000E+000
-0.217476E-004  0.108924E-005  0.000000E+000
-0.586436E-005  0.876621E-005  0.000000E+000
-0.220844E-004  0.964651E-006  0.000000E+000
-0.540054E-005  0.896530E-005  0.000000E+000
-0.224052E-004  0.849162E-006  0.000000E+000
-0.493925E-005  0.915422E-005  0.000000E+000
-0.227082E-004  0.742545E-006  0.000000E+000
-0.448050E-005  0.933167E-005  0.000000E+000
-0.229917E-004  0.644476E-006  0.000000E+000
-0.402422E-005  0.949643E-005  0.000000E+000
-0.232539E-004  0.554532E-006  0.000000E+000
-0.357033E-005  0.964732E-005  0.000000E+000
-0.234932E-004  0.472198E-006  0.000000E+000
-0.311867E-005  0.978324E-005  0.000000E+000
-0.237082E-004  0.396869E-006  0.000000E+000
-0.266907E-005  0.990320E-005  0.000000E+000
-0.362673E-004  0.204167E-005  0.000000E+000
-0.356449E-004  0.196922E-005  0.000000E+000
-0.350279E-004  0.189659E-005  0.000000E+000
-0.344169E-004  0.182377E-005  0.000000E+000
-0.338121E-004  0.175075E-005  0.000000E+000
-0.332142E-004  0.167754E-005  0.000000E+000
-0.326235E-004  0.160415E-005  0.000000E+000
-0.320407E-004  0.153057E-005  0.000000E+000
-0.314663E-004  0.145685E-005  0.000000E+000
-0.309012E-004  0.138299E-005  0.000000E+000
-0.303460E-004  0.130905E-005  0.000000E+000
-0.298015E-004  0.123507E-005  0.000000E+000
-0.292688E-004  0.116114E-005  0.000000E+000
-0.287489E-004  0.108734E-005  0.000000E+000
-0.282429E-004  0.101382E-005  0.000000E+000
-0.277520E-004  0.940726E-006  0.000000E+000
-0.272779E-004  0.868293E-006  0.000000E+000
-0.268220E-004  0.796806E-006  0.000000E+000
-0.263861E-004  0.726644E-006  0.000000E+000
-0.259723E-004  0.658305E-006  0.000000E+000
-0.255827E-004  0.592451E-006  0.000000E+000
-0.252197E-004  0.529962E-006  0.000000E+000
-0.248859E-004  0.472017E-006  0.000000E+000
-0.245840E-004  0.420212E-006  0.000000E+000
-0.243170E-004  0.376722E-006  0.000000E+000
-0.240874E-004  0.344544E-006  0.000000E+000
-0.238975E-004  0.327860E-006  0.000000E+000
-0.491852E-005  0.157039E-004  0.000000E+000
-0.479732E-005  0.154391E-004  0.000000E+000
-0.467639E-005  0.151765E-004  0.000000E+000
-0.455576E-005  0.149164E-004  0.000000E+000
-0.443546E-005  0.146588E-004  0.000000E+000
-0.431553E-005  0.144039E-004  0.000000E+000
-0.419601E-005  0.141520E-004  0.000000E+000
-0.407697E-005  0.139031E-004  0.000000E+000
-0.395847E-005  0.136576E-004  0.000000E+000
-0.384059E-005  0.134155E-004  0.000000E+000
-0.372343E-005  0.131772E-004  0.000000E+000
-0.360710E-005  0.129429E-004  0.000000E+000
-0.349175E-005  0.127128E-004  0.000000E+000
-0.337753E-005  0.124872E-004  0.000000E+000
-0.326466E-005  0.122664E-004  0.000000E+000
-0.315339E-005  0.120507E-004  0.000000E+000
-0.304402E-005  0.118403E-004  0.000000E+000
-0.293693E-005  0.116354E-004  0.000000E+000
-0.283260E-005  0.114364E-004  0.000000E+000
-0.273163E-005  0.112432E-004  0.000000E+000
-0.263477E-005  0.110558E-004  0.000000E+000
-0.254299E-005  0.108741E-004  0.000000E+000
-0.245755E-005  0.106975E-004  0.000000E+000
-0.238010E-005  0.105249E-004  0.000000E+000
-0.231279E-005  0.103545E-004  0.000000E+000
-0.225854E-005  0.101833E-004  0.000000E+000
-0.222129E-005  0.100063E-004  0.000000E+000
-0.144746E-004  0.440922E-005  0.000000E+000
-0.140359E-004  0.460457E-005  0.000000E+000
-0.148636E-004  0.418121E-005  0.000000E+000
-0.135924E-004  0.480614E-005  0.000000E+000
-0.152587E-004  0.395542E-005  0.000000E+000
-0.131450E-004  0.501424E-005  0.000000E+000
-0.156590E-004  0.373209E-005  0.000000E+000
-0.126940E-004  0.522773E-005  0.000000E+000
-0.160637E-004  0.351175E-005  0.000000E+000
-0.122398E-004  0.544641E-005  0.000000E+000
-0.164723E-004  0.329509E-005  0.000000E+000
-0.117829E-004  0.566978E-005  0.000000E+000
-0.168839E-004  0.308276E-005  0.000000E+000
-0.113238E-004  0.589723E-005  0.000000E+000
-0.172978E-004  0.287538E-005  0.000000E+000
-0.108629E-004  0.612808E-005  0.000000E+000
-0.177127E-004  0.267352E-005  0.000000E+000
-0.104009E-004  0.636153E-005  0.000000E+000
-0.181275E-004  0.247773E-005  0.000000E+000
-0.993796E-005  0.659675E-005  0.000000E+000
-0.185412E-004  0.228853E-005  0.000000E+000
-0.947466E-005  0.683280E-005  0.000000E+000
-0.189522E-004  0.210639E-005  0.000000E+000
-0.901137E-005  0.706869E-005  0.000000E+000
-0.193592E-004  0.193172E-005  0.000000E+000
-0.854843E-005  0.730338E-005  0.000000E+000
-0.197608E-004  0.176489E-005  0.000000E+000
-0.808616E-005  0.753576E-005  0.000000E+000
-0.201554E-004  0.160619E-005  0.000000E+000
-0.762485E-005  0.776468E-005  0.000000E+000
-0.205414E-004  0.145583E-005  0.000000E+000
-0.716473E-005  0.798895E-005  0.000000E+000
-0.209171E-004  0.131396E-005  0.000000E+000
-0.670599E-005  0.820739E-005  0.000000E+000
-0.212808E-004  0.118061E-005  0.000000E+000
-0.624877E-005  0.841877E-005  0.000000E+000
-0.216309E-004  0.105577E-005  0.000000E+000
-0.579319E-005  0.862188E-005  0.000000E+000
-0.219657E-004  0.939326E-006  0.000000E+000
-0.533930E-005  0.881554E-005  0.000000E+000
-0.222835E-004  0.831071E-006  0.000000E+000
-0.488711E-005  0.899858E-005  0.000000E+000
-0.225828E-004  0.730727E-006  0.000000E+000
-0.443661E-005  0.916988E-005  0.000000E+000
-0.228619E-004  0.637935E-006  0.000000E+000
-0.398774E-005  0.932838E-005  0.000000E+000
-0.231193E-004  0.552259E-006  0.000000E+000
-0.354041E-005  0.947308E-005  0.000000E+000
-0.233537E-004  0.473194E-006  0.000000E+000
-0.309451E-005  0.960305E-005  0.000000E+000
-0.235638E-004  0.400172E-006  0.000000E+000
-0.264991E-005  0.971746E-005  0.000000E+000
-0.237483E-004  0.332565E-006  0.000000E+000
-0.220645E-005  0.981557E-005  0.000000E+000
-0.363699E-004  0.168946E-005  0.000000E+000
-0.357501E-004  0.162893E-005  0.000000E+000
-0.351358E-004  0.156825E-005  0.000000E+000
-0.345274E-004  0.150742E-005  0.000000E+000
-0.339255E-004  0.144643E-005  0.000000E+000
-0.333303E-004  0.138529E-005  0.000000E+000
-0.327425E-004  0.132399E-005  0.000000E+000
-0.321627E-004  0.126255E-005  0.000000E+000
-0.315913E-004  0.120099E-005  0.000000E+000
-0.310292E-004  0.113933E-005  0.000000E+000
-0.304770E-004  0.107760E-005  0.000000E+000
-0.299357E-004  0.101586E-005  0.000000E+000
-0.294061E-004  0.954173E-006  0.000000E+000
-0.288892E-004  0.892617E-006  0.000000E+000
-0.283863E-004  0.831306E-006  0.000000E+000
-0.278986E-004  0.770387E-006  0.000000E+000
-0.274275E-004  0.710049E-006  0.000000E+000
-0.269746E-004  0.650539E-006  0.000000E+000
-0.265416E-004  0.592183E-006  0.000000E+000
-0.261305E-004  0.535408E-006  0.000000E+000
-0.257433E-004  0.480777E-006  0.000000E+000
-0.253824E-004  0.429039E-006  0.000000E+000
-0.250503E-004  0.381197E-006  0.000000E+000
-0.247495E-004  0.338600E-006  0.000000E+000
-0.244827E-004  0.303088E-006  0.000000E+000
-0.242522E-004  0.277188E-006  0.000000E+000
-0.240599E-004  0.264410E-006  0.000000E+000
-0.239063E-004  0.269696E-006  0.000000E+000
-0.392972E-005  0.157665E-004  0.000000E+000
-0.383271E-005  0.155030E-004  0.000000E+000
-0.373593E-005  0.152419E-004  0.000000E+000
-0.363939E-005  0.149831E-004  0.000000E+000
-0.354312E-005  0.147270E-004  0.000000E+000
-0.344714E-005  0.144736E-004  0.000000E+000
-0.335151E-005  0.142231E-004  0.000000E+000
-0.325625E-005  0.139757E-004  0.000000E+000
-0.316143E-005  0.137317E-004  0.000000E+000
-0.306712E-005  0.134912E-004  0.000000E+000
-0.297338E-005  0.132544E-004  0.000000E+000
-0.288032E-005  0.130216E-004  0.000000E+000
-0.278805E-005  0.127931E-004  0.000000E+000
-0.269670E-005  0.125690E-004  0.000000E+000
-0.260644E-005  0.123497E-004  0.000000E+000
-0.251748E-005  0.121355E-004  0.000000E+000
-0.243005E-005  0.119265E-004  0.000000E+000
-0.234448E-005  0.117230E-004  0.000000E+000
-0.226115E-005  0.115251E-004  0.000000E+000
-0.218053E-005  0.113329E-004  0.000000E+000
-0.210325E-005  0.111464E-004  0.000000E+000
-0.203008E-005  0.109653E-004  0.000000E+000
-0.196204E-005  0.107888E-004  0.000000E+000
-0.190046E-005  0.106159E-004  0.000000E+000
-0.184707E-005  0.104446E-004  0.000000E+000
-0.180422E-005  0.102716E-004  0.000000E+000
-0.177507E-005  0.100917E-004  0.000000E+000
-0.176397E-005  0.989674E-005  0.000000E+000
-0.142764E-004  0.425091E-005  0.000000E+000
-0.138481E-004  0.445680E-005  0.000000E+000
-0.146880E-004  0.403202E-005  0.000000E+000
-0.134158E-004  0.466874E-005  0.000000E+000
-0.151039E-004  0.381512E-005  0.000000E+000
-0.129794E-004  0.488523E-005  0.000000E+000
-0.155237E-004  0.360128E-005  0.000000E+000
-0.125397E-004  0.510673E-005  0.000000E+000
-0.159469E-004  0.339118E-005  0.000000E+000
-0.120971E-004  0.533253E-005  0.000000E+000
-0.163725E-004  0.318533E-005  0.000000E+000
-0.116520E-004  0.556195E-005  0.000000E+000
-0.167996E-004  0.298427E-005  0.000000E+000
-0.112049E-004  0.579426E-005  0.000000E+000
-0.172269E-004  0.278846E-005  0.000000E+000
-0.107561E-004  0.602868E-005  0.000000E+000
-0.176536E-004  0.259839E-005  0.000000E+000
-0.103060E-004  0.626438E-005  0.000000E+000
-0.180783E-004  0.241449E-005  0.000000E+000
-0.985498E-005  0.650048E-005  0.000000E+000
-0.184998E-004  0.223716E-005  0.000000E+000
-0.940335E-005  0.673604E-005  0.000000E+000
-0.189167E-004  0.206672E-005  0.000000E+000
-0.895138E-005  0.697007E-005  0.000000E+000
-0.193278E-004  0.190345E-005  0.000000E+000
-0.849933E-005  0.720156E-005  0.000000E+000
-0.197315E-004  0.174758E-005  0.000000E+000
-0.804741E-005  0.742946E-005  0.000000E+000
-0.201263E-004  0.159924E-005  0.000000E+000
-0.759579E-005  0.765270E-005  0.000000E+000
-0.205108E-004  0.145850E-005  0.000000E+000
-0.714462E-005  0.787020E-005  0.000000E+000
-0.208834E-004  0.132538E-005  0.000000E+000
-0.669400E-005  0.808089E-005  0.000000E+000
-0.212425E-004  0.119980E-005  0.000000E+000
-0.624400E-005  0.828370E-005  0.000000E+000
-0.215868E-004  0.108163E-005  0.000000E+000
-0.579465E-005  0.847762E-005  0.000000E+000
-0.219146E-004  0.970676E-006  0.000000E+000
-0.534598E-005  0.866162E-005  0.000000E+000
-0.222247E-004  0.866669E-006  0.000000E+000
-0.489798E-005  0.883474E-005  0.000000E+000
-0.225155E-004  0.769289E-006  0.000000E+000
-0.445062E-005  0.899608E-005  0.000000E+000
-0.227858E-004  0.678163E-006  0.000000E+000
-0.400385E-005  0.914477E-005  0.000000E+000
-0.230343E-004  0.592867E-006  0.000000E+000
-0.355763E-005  0.928002E-005  0.000000E+000
-0.232600E-004  0.512933E-006  0.000000E+000
-0.311189E-005  0.940112E-005  0.000000E+000
-0.234617E-004  0.437856E-006  0.000000E+000
-0.266657E-005  0.950741E-005  0.000000E+000
-0.236384E-004  0.367095E-006  0.000000E+000
-0.222161E-005  0.959832E-005  0.000000E+000
-0.237895E-004  0.300084E-006  0.000000E+000
-0.177695E-005  0.967338E-005  0.000000E+000
-0.364562E-004  0.134351E-005  0.000000E+000
-0.358385E-004  0.129499E-005  0.000000E+000
-0.352264E-004  0.124635E-005  0.000000E+000
-0.346203E-004  0.119759E-005  0.000000E+000
-0.340207E-004  0.114870E-005  0.000000E+000
-0.334279E-004  0.109970E-005  0.000000E+000
-0.328424E-004  0.105057E-005  0.000000E+000
-0.322650E-004  0.100134E-005  0.000000E+000
-0.316961E-004  0.952006E-006  0.000000E+000
-0.311364E-004  0.902602E-006  0.000000E+000
-0.305868E-004  0.853155E-006  0.000000E+000
-0.300480E-004  0.803704E-006  0.000000E+000
-0.295209E-004  0.754303E-006  0.000000E+000
-0.290067E-004  0.705021E-006  0.000000E+000
-0.285063E-004  0.655952E-006  0.000000E+000
-0.280211E-004  0.607215E-006  0.000000E+000
-0.275525E-004  0.558965E-006  0.000000E+000
-0.271020E-004  0.511406E-006  0.000000E+000
-0.266714E-004  0.464804E-006  0.000000E+000
-0.262624E-004  0.419507E-006  0.000000E+000
-0.258771E-004  0.375976E-006  0.000000E+000
-0.255179E-004  0.334820E-006  0.000000E+000
-0.251870E-004  0.296853E-006  0.000000E+000
-0.248869E-004  0.263170E-006  0.000000E+000
-0.246201E-004  0.235258E-006  0.000000E+000
-0.243887E-004  0.215158E-006  0.000000E+000
-0.241942E-004  0.205696E-006  0.000000E+000
-0.240369E-004  0.210841E-006  0.000000E+000
-0.239140E-004  0.236231E-006  0.000000E+000
-0.294423E-005  0.158164E-004  0.000000E+000
-0.287145E-005  0.155540E-004  0.000000E+000
-0.279884E-005  0.152939E-004  0.000000E+000
-0.272641E-005  0.150363E-004  0.000000E+000
-0.265419E-005  0.147813E-004  0.000000E+000
-0.258219E-005  0.145290E-004  0.000000E+000
-0.251044E-005  0.142797E-004  0.000000E+000
-0.243899E-005  0.140335E-004  0.000000E+000
-0.236787E-005  0.137907E-004  0.000000E+000
-0.229712E-005  0.135513E-004  0.000000E+000
-0.222682E-005  0.133158E-004  0.000000E+000
-0.215703E-005  0.130842E-004  0.000000E+000
-0.208783E-005  0.128568E-004  0.000000E+000
-0.201933E-005  0.126340E-004  0.000000E+000
-0.195166E-005  0.124159E-004  0.000000E+000
-0.188497E-005  0.122028E-004  0.000000E+000
-0.181945E-005  0.119948E-004  0.000000E+000
-0.175534E-005  0.117923E-004  0.000000E+000
-0.169291E-005  0.115954E-004  0.000000E+000
-0.163255E-005  0.114040E-004  0.000000E+000
-0.157471E-005  0.112181E-004  0.000000E+000
-0.151999E-005  0.110373E-004  0.000000E+000
-0.146915E-005  0.108609E-004  0.000000E+000
-0.142319E-005  0.106877E-004  0.000000E+000
-0.138343E-005  0.105156E-004  0.000000E+000
-0.135162E-005  0.103411E-004  0.000000E+000
-0.133015E-005  0.101589E-004  0.000000E+000
-0.132227E-005  0.996043E-005  0.000000E+000
-0.133251E-005  0.973218E-005  0.000000E+000
-0.142579E-004  0.418789E-005  0.000000E+000
-0.138379E-004  0.440159E-005  0.000000E+000
-0.146900E-004  0.397835E-005  0.000000E+000
-0.134136E-004  0.461909E-005  0.000000E+000
-0.151252E-004  0.377271E-005  0.000000E+000
-0.129859E-004  0.484161E-005  0.000000E+000
-0.155629E-004  0.357067E-005  0.000000E+000
-0.125552E-004  0.506750E-005  0.000000E+000
-0.160015E-004  0.337268E-005  0.000000E+000
-0.121216E-004  0.529610E-005  0.000000E+000
-0.164402E-004  0.317917E-005  0.000000E+000
-0.116857E-004  0.552669E-005  0.000000E+000
-0.168780E-004  0.299056E-005  0.000000E+000
-0.112475E-004  0.575852E-005  0.000000E+000
-0.173138E-004  0.280724E-005  0.000000E+000
-0.108075E-004  0.599081E-005  0.000000E+000
-0.177466E-004  0.262956E-005  0.000000E+000
-0.103660E-004  0.622272E-005  0.000000E+000
-0.181751E-004  0.245779E-005  0.000000E+000
-0.992302E-005  0.645338E-005  0.000000E+000
-0.185980E-004  0.229215E-005  0.000000E+000
-0.947892E-005  0.668187E-005  0.000000E+000
-0.190140E-004  0.213282E-005  0.000000E+000
-0.903382E-005  0.690729E-005  0.000000E+000
-0.194218E-004  0.197988E-005  0.000000E+000
-0.858785E-005  0.712869E-005  0.000000E+000
-0.198201E-004  0.183339E-005  0.000000E+000
-0.814111E-005  0.734516E-005  0.000000E+000
-0.202075E-004  0.169333E-005  0.000000E+000
-0.769369E-005  0.755576E-005  0.000000E+000
-0.205828E-004  0.155962E-005  0.000000E+000
-0.724562E-005  0.775961E-005  0.000000E+000
-0.209445E-004  0.143214E-005  0.000000E+000
-0.679694E-005  0.795583E-005  0.000000E+000
-0.212914E-004  0.131073E-005  0.000000E+000
-0.634766E-005  0.814356E-005  0.000000E+000
-0.216223E-004  0.119516E-005  0.000000E+000
-0.589780E-005  0.832200E-005  0.000000E+000
-0.219359E-004  0.108517E-005  0.000000E+000
-0.544733E-005  0.849038E-005  0.000000E+000
-0.222312E-004  0.980485E-006  0.000000E+000
-0.499627E-005  0.864799E-005  0.000000E+000
-0.225071E-004  0.880764E-006  0.000000E+000
-0.454460E-005  0.879415E-005  0.000000E+000
-0.227625E-004  0.785661E-006  0.000000E+000
-0.409233E-005  0.892825E-005  0.000000E+000
-0.229965E-004  0.694800E-006  0.000000E+000
-0.363946E-005  0.904974E-005  0.000000E+000
-0.232083E-004  0.607790E-006  0.000000E+000
-0.318601E-005  0.915811E-005  0.000000E+000
-0.233970E-004  0.524224E-006  0.000000E+000
-0.273201E-005  0.925292E-005  0.000000E+000
-0.235620E-004  0.443685E-006  0.000000E+000
-0.227752E-005  0.933378E-005  0.000000E+000
-0.237026E-004  0.365749E-006  0.000000E+000
-0.182259E-005  0.940038E-005  0.000000E+000
-0.238184E-004  0.289987E-006  0.000000E+000
-0.136728E-005  0.945246E-005  0.000000E+000
-0.365248E-004  0.100282E-005  0.000000E+000
-0.359088E-004  0.966363E-006  0.000000E+000
-0.352985E-004  0.929825E-006  0.000000E+000
-0.346942E-004  0.893199E-006  0.000000E+000
-0.340963E-004  0.856482E-006  0.000000E+000
-0.335053E-004  0.819674E-006  0.000000E+000
-0.329218E-004  0.782779E-006  0.000000E+000
-0.323462E-004  0.745804E-006  0.000000E+000
-0.317792E-004  0.708761E-006  0.000000E+000
-0.312215E-004  0.671666E-006  0.000000E+000
-0.306738E-004  0.634542E-006  0.000000E+000
-0.301370E-004  0.597420E-006  0.000000E+000
-0.296119E-004  0.560342E-006  0.000000E+000
-0.290996E-004  0.523362E-006  0.000000E+000
-0.286013E-004  0.486550E-006  0.000000E+000
-0.281181E-004  0.449998E-006  0.000000E+000
-0.276514E-004  0.413825E-006  0.000000E+000
-0.272027E-004  0.378188E-006  0.000000E+000
-0.267738E-004  0.343289E-006  0.000000E+000
-0.263665E-004  0.309394E-006  0.000000E+000
-0.259827E-004  0.276853E-006  0.000000E+000
-0.256247E-004  0.246130E-006  0.000000E+000
-0.252947E-004  0.217841E-006  0.000000E+000
-0.249951E-004  0.192817E-006  0.000000E+000
-0.247282E-004  0.172183E-006  0.000000E+000
-0.244960E-004  0.157480E-006  0.000000E+000
-0.242997E-004  0.150838E-006  0.000000E+000
-0.241392E-004  0.155243E-006  0.000000E+000
-0.240116E-004  0.174925E-006  0.000000E+000
-0.239089E-004  0.215966E-006  0.000000E+000
-0.196133E-005  0.158528E-004  0.000000E+000
-0.191279E-005  0.155911E-004  0.000000E+000
-0.186438E-005  0.153318E-004  0.000000E+000
-0.181608E-005  0.150750E-004  0.000000E+000
-0.176792E-005  0.148208E-004  0.000000E+000
-0.171992E-005  0.145693E-004  0.000000E+000
-0.167208E-005  0.143209E-004  0.000000E+000
-0.162444E-005  0.140755E-004  0.000000E+000
-0.157702E-005  0.138335E-004  0.000000E+000
-0.152985E-005  0.135950E-004  0.000000E+000
-0.148298E-005  0.133603E-004  0.000000E+000
-0.143645E-005  0.131296E-004  0.000000E+000
-0.139033E-005  0.129031E-004  0.000000E+000
-0.134467E-005  0.126811E-004  0.000000E+000
-0.129957E-005  0.124638E-004  0.000000E+000
-0.125513E-005  0.122515E-004  0.000000E+000
-0.121147E-005  0.120444E-004  0.000000E+000
-0.116876E-005  0.118426E-004  0.000000E+000
-0.112718E-005  0.116463E-004  0.000000E+000
-0.108699E-005  0.114554E-004  0.000000E+000
-0.104849E-005  0.112699E-004  0.000000E+000
-0.101208E-005  0.110894E-004  0.000000E+000
-0.978281E-006  0.109130E-004  0.000000E+000
-0.947754E-006  0.107396E-004  0.000000E+000
-0.921381E-006  0.105668E-004  0.000000E+000
-0.900339E-006  0.103912E-004  0.000000E+000
-0.886213E-006  0.102072E-004  0.000000E+000
-0.881177E-006  0.100062E-004  0.000000E+000
-0.888250E-006  0.977440E-005  0.000000E+000
-0.911685E-006  0.948980E-005  0.000000E+000
-0.145092E-004  0.427995E-005  0.000000E+000
-0.140947E-004  0.449430E-005  0.000000E+000
-0.149578E-004  0.408647E-005  0.000000E+000
-0.136763E-004  0.471301E-005  0.000000E+000
-0.154065E-004  0.389504E-005  0.000000E+000
-0.132544E-004  0.493279E-005  0.000000E+000
-0.158538E-004  0.370737E-005  0.000000E+000
-0.128291E-004  0.515382E-005  0.000000E+000
-0.162994E-004  0.352373E-005  0.000000E+000
-0.124007E-004  0.537549E-005  0.000000E+000
-0.167423E-004  0.334444E-005  0.000000E+000
-0.119694E-004  0.559712E-005  0.000000E+000
-0.171813E-004  0.316969E-005  0.000000E+000
-0.115354E-004  0.581799E-005  0.000000E+000
-0.176154E-004  0.299967E-005  0.000000E+000
-0.110988E-004  0.603731E-005  0.000000E+000
-0.180433E-004  0.283448E-005  0.000000E+000
-0.106597E-004  0.625429E-005  0.000000E+000
-0.184639E-004  0.267418E-005  0.000000E+000
-0.102183E-004  0.646817E-005  0.000000E+000
-0.188762E-004  0.251877E-005  0.000000E+000
-0.977455E-005  0.667816E-005  0.000000E+000
-0.192788E-004  0.236823E-005  0.000000E+000
-0.932861E-005  0.688351E-005  0.000000E+000
-0.196708E-004  0.222249E-005  0.000000E+000
-0.888048E-005  0.708348E-005  0.000000E+000
-0.200511E-004  0.208144E-005  0.000000E+000
-0.843018E-005  0.727737E-005  0.000000E+000
-0.204185E-004  0.194493E-005  0.000000E+000
-0.797772E-005  0.746449E-005  0.000000E+000
-0.207722E-004  0.181280E-005  0.000000E+000
-0.752312E-005  0.764421E-005  0.000000E+000
-0.211110E-004  0.168484E-005  0.000000E+000
-0.706637E-005  0.781592E-005  0.000000E+000
-0.214340E-004  0.156083E-005  0.000000E+000
-0.660749E-005  0.797904E-005  0.000000E+000
-0.217405E-004  0.144054E-005  0.000000E+000
-0.614649E-005  0.813305E-005  0.000000E+000
-0.220294E-004  0.132371E-005  0.000000E+000
-0.568342E-005  0.827747E-005  0.000000E+000
-0.223001E-004  0.121008E-005  0.000000E+000
-0.521830E-005  0.841185E-005  0.000000E+000
-0.225519E-004  0.109938E-005  0.000000E+000
-0.475121E-005  0.853579E-005  0.000000E+000
-0.227839E-004  0.991332E-006  0.000000E+000
-0.428222E-005  0.864894E-005  0.000000E+000
-0.229957E-004  0.885672E-006  0.000000E+000
-0.381143E-005  0.875097E-005  0.000000E+000
-0.231867E-004  0.782130E-006  0.000000E+000
-0.333898E-005  0.884162E-005  0.000000E+000
-0.233563E-004  0.680442E-006  0.000000E+000
-0.286500E-005  0.892063E-005  0.000000E+000
-0.235042E-004  0.580353E-006  0.000000E+000
-0.238968E-005  0.898782E-005  0.000000E+000
-0.236300E-004  0.481614E-006  0.000000E+000
-0.191319E-005  0.904301E-005  0.000000E+000
-0.237333E-004  0.383984E-006  0.000000E+000
-0.143575E-005  0.908607E-005  0.000000E+000
-0.238139E-004  0.287231E-006  0.000000E+000
-0.957576E-006  0.911690E-005  0.000000E+000
-0.365746E-004  0.666210E-006  0.000000E+000
-0.359599E-004  0.641877E-006  0.000000E+000
-0.353508E-004  0.617491E-006  0.000000E+000
-0.347478E-004  0.593046E-006  0.000000E+000
-0.341512E-004  0.568542E-006  0.000000E+000
-0.335615E-004  0.543978E-006  0.000000E+000
-0.329793E-004  0.519357E-006  0.000000E+000
-0.324051E-004  0.494684E-006  0.000000E+000
-0.318395E-004  0.469967E-006  0.000000E+000
-0.312832E-004  0.445217E-006  0.000000E+000
-0.307369E-004  0.420449E-006  0.000000E+000
-0.302015E-004  0.395686E-006  0.000000E+000
-0.296778E-004  0.370955E-006  0.000000E+000
-0.291670E-004  0.346293E-006  0.000000E+000
-0.286700E-004  0.321748E-006  0.000000E+000
-0.281882E-004  0.297381E-006  0.000000E+000
-0.277229E-004  0.273275E-006  0.000000E+000
-0.272756E-004  0.249534E-006  0.000000E+000
-0.268479E-004  0.226294E-006  0.000000E+000
-0.264417E-004  0.203736E-006  0.000000E+000
-0.260590E-004  0.182095E-006  0.000000E+000
-0.257018E-004  0.161683E-006  0.000000E+000
-0.253724E-004  0.142916E-006  0.000000E+000
-0.250731E-004  0.126350E-006  0.000000E+000
-0.248061E-004  0.112741E-006  0.000000E+000
-0.245732E-004  0.103119E-006  0.000000E+000
-0.243755E-004  0.989123E-007  0.000000E+000
-0.242127E-004  0.102113E-006  0.000000E+000
-0.240815E-004  0.115543E-006  0.000000E+000
-0.239737E-004  0.143251E-006  0.000000E+000
-0.238717E-004  0.191129E-006  0.000000E+000
-0.980209E-006  0.158749E-004  0.000000E+000
-0.955939E-006  0.156137E-004  0.000000E+000
-0.931727E-006  0.153549E-004  0.000000E+000
-0.907577E-006  0.150985E-004  0.000000E+000
-0.883494E-006  0.148448E-004  0.000000E+000
-0.859488E-006  0.145938E-004  0.000000E+000
-0.835568E-006  0.143458E-004  0.000000E+000
-0.811745E-006  0.141010E-004  0.000000E+000
-0.788033E-006  0.138595E-004  0.000000E+000
-0.764450E-006  0.136215E-004  0.000000E+000
-0.741015E-006  0.133874E-004  0.000000E+000
-0.717752E-006  0.131572E-004  0.000000E+000
-0.694690E-006  0.129312E-004  0.000000E+000
-0.671865E-006  0.127097E-004  0.000000E+000
-0.649318E-006  0.124929E-004  0.000000E+000
-0.627102E-006  0.122811E-004  0.000000E+000
-0.605280E-006  0.120744E-004  0.000000E+000
-0.583932E-006  0.118730E-004  0.000000E+000
-0.563156E-006  0.116771E-004  0.000000E+000
-0.543074E-006  0.114865E-004  0.000000E+000
-0.523844E-006  0.113013E-004  0.000000E+000
-0.505664E-006  0.111209E-004  0.000000E+000
-0.488791E-006  0.109445E-004  0.000000E+000
-0.473562E-006  0.107709E-004  0.000000E+000
-0.460417E-006  0.105977E-004  0.000000E+000
-0.449944E-006  0.104214E-004  0.000000E+000
-0.442939E-006  0.102364E-004  0.000000E+000
-0.440487E-006  0.100338E-004  0.000000E+000
-0.444097E-006  0.979982E-005  0.000000E+000
-0.455893E-006  0.951226E-005  0.000000E+000
-0.478912E-006  0.913543E-005  0.000000E+000
-0.151916E-004  0.464773E-005  0.000000E+000
-0.147802E-004  0.484838E-005  0.000000E+000
-0.156414E-004  0.447315E-005  0.000000E+000
-0.143647E-004  0.504596E-005  0.000000E+000
-0.160861E-004  0.430339E-005  0.000000E+000
-0.139443E-004  0.524339E-005  0.000000E+000
-0.165263E-004  0.413612E-005  0.000000E+000
-0.135190E-004  0.543961E-005  0.000000E+000
-0.169605E-004  0.397134E-005  0.000000E+000
-0.130889E-004  0.563402E-005  0.000000E+000
-0.173876E-004  0.380900E-005  0.000000E+000
-0.126542E-004  0.582596E-005  0.000000E+000
-0.178068E-004  0.364907E-005  0.000000E+000
-0.122149E-004  0.601485E-005  0.000000E+000
-0.182172E-004  0.349152E-005  0.000000E+000
-0.117711E-004  0.620012E-005  0.000000E+000
-0.186178E-004  0.333629E-005  0.000000E+000
-0.113228E-004  0.638124E-005  0.000000E+000
-0.190080E-004  0.318331E-005  0.000000E+000
-0.108702E-004  0.655770E-005  0.000000E+000
-0.193869E-004  0.303248E-005  0.000000E+000
-0.104132E-004  0.672904E-005  0.000000E+000
-0.197539E-004  0.288369E-005  0.000000E+000
-0.995195E-005  0.689481E-005  0.000000E+000
-0.201082E-004  0.273683E-005  0.000000E+000
-0.948646E-005  0.705460E-005  0.000000E+000
-0.204492E-004  0.259177E-005  0.000000E+000
-0.901680E-005  0.720803E-005  0.000000E+000
-0.207762E-004  0.244835E-005  0.000000E+000
-0.854303E-005  0.735474E-005  0.000000E+000
-0.210887E-004  0.230643E-005  0.000000E+000
-0.806522E-005  0.749442E-005  0.000000E+000
-0.213861E-004  0.216585E-005  0.000000E+000
-0.758347E-005  0.762678E-005  0.000000E+000
-0.216679E-004  0.202648E-005  0.000000E+000
-0.709787E-005  0.775155E-005  0.000000E+000
-0.219336E-004  0.188816E-005  0.000000E+000
-0.660854E-005  0.786850E-005  0.000000E+000
-0.221827E-004  0.175074E-005  0.000000E+000
-0.611562E-005  0.797743E-005  0.000000E+000
-0.224149E-004  0.161409E-005  0.000000E+000
-0.561927E-005  0.807817E-005  0.000000E+000
-0.226297E-004  0.147808E-005  0.000000E+000
-0.511967E-005  0.817055E-005  0.000000E+000
-0.228270E-004  0.134261E-005  0.000000E+000
-0.461703E-005  0.825444E-005  0.000000E+000
-0.230062E-004  0.120755E-005  0.000000E+000
-0.411156E-005  0.832975E-005  0.000000E+000
-0.231673E-004  0.107283E-005  0.000000E+000
-0.360352E-005  0.839637E-005  0.000000E+000
-0.233099E-004  0.938352E-006  0.000000E+000
-0.309318E-005  0.845424E-005  0.000000E+000
-0.234339E-004  0.804065E-006  0.000000E+000
-0.258082E-005  0.850329E-005  0.000000E+000
-0.235391E-004  0.669911E-006  0.000000E+000
-0.206675E-005  0.854348E-005  0.000000E+000
-0.236254E-004  0.535849E-006  0.000000E+000
-0.155129E-005  0.857477E-005  0.000000E+000
-0.236926E-004  0.401846E-006  0.000000E+000
-0.103479E-005  0.859714E-005  0.000000E+000
-0.237407E-004  0.267881E-006  0.000000E+000
-0.517571E-006  0.861057E-005  0.000000E+000
-0.366049E-004  0.332395E-006  0.000000E+000
-0.359909E-004  0.320220E-006  0.000000E+000
-0.353826E-004  0.308019E-006  0.000000E+000
-0.347803E-004  0.295788E-006  0.000000E+000
-0.341845E-004  0.283528E-006  0.000000E+000
-0.335956E-004  0.271239E-006  0.000000E+000
-0.330142E-004  0.258921E-006  0.000000E+000
-0.324408E-004  0.246578E-006  0.000000E+000
-0.318760E-004  0.234213E-006  0.000000E+000
-0.313205E-004  0.221832E-006  0.000000E+000
-0.307751E-004  0.209443E-006  0.000000E+000
-0.302405E-004  0.197056E-006  0.000000E+000
-0.297177E-004  0.184687E-006  0.000000E+000
-0.292077E-004  0.172354E-006  0.000000E+000
-0.287116E-004  0.160080E-006  0.000000E+000
-0.282306E-004  0.147898E-006  0.000000E+000
-0.277661E-004  0.135847E-006  0.000000E+000
-0.273196E-004  0.123982E-006  0.000000E+000
-0.268927E-004  0.112370E-006  0.000000E+000
-0.264872E-004  0.101103E-006  0.000000E+000
-0.261050E-004  0.902993E-007  0.000000E+000
-0.257483E-004  0.801151E-007  0.000000E+000
-0.254193E-004  0.707594E-007  0.000000E+000
-0.251202E-004  0.625121E-007  0.000000E+000
-0.248531E-004  0.557520E-007  0.000000E+000
-0.246197E-004  0.509964E-007  0.000000E+000
-0.244212E-004  0.489599E-007  0.000000E+000
-0.242570E-004  0.506402E-007  0.000000E+000
-0.241237E-004  0.574486E-007  0.000000E+000
-0.240128E-004  0.714077E-007  0.000000E+000
-0.239064E-004  0.954573E-007  0.000000E+000
-0.237695E-004  0.133936E-006  0.000000E+000
 0.192036E-020  0.158823E-004  0.000000E+000
-0.589754E-016  0.156213E-004  0.000000E+000
-0.555052E-016  0.153626E-004  0.000000E+000
-0.138762E-016  0.151064E-004  0.000000E+000
-0.867127E-017  0.148528E-004  0.000000E+000
 0.156177E-016  0.146020E-004  0.000000E+000
 0.745996E-016  0.143542E-004  0.000000E+000
-0.114479E-015  0.141095E-004  0.000000E+000
 0.744078E-020  0.138682E-004  0.000000E+000
 0.208250E-016  0.136304E-004  0.000000E+000
 0.174442E-017  0.133964E-004  0.000000E+000
-0.242799E-016  0.131664E-004  0.000000E+000
-0.277471E-016  0.129406E-004  0.000000E+000
-0.607075E-016  0.127193E-004  0.000000E+000
-0.693173E-017  0.125027E-004  0.000000E+000
-0.277466E-016  0.122910E-004  0.000000E+000
-0.173393E-016  0.120844E-004  0.000000E+000
-0.156079E-016  0.118832E-004  0.000000E+000
 0.711217E-016  0.116874E-004  0.000000E+000
 0.520259E-017  0.114970E-004  0.000000E+000
-0.416379E-016  0.113118E-004  0.000000E+000
-0.694919E-017  0.111314E-004  0.000000E+000
-0.243068E-016  0.109551E-004  0.000000E+000
 0.242648E-016  0.107814E-004  0.000000E+000
 0.344614E-017  0.106080E-004  0.000000E+000
 0.691297E-017  0.104315E-004  0.000000E+000
 0.344268E-017  0.102461E-004  0.000000E+000
-0.293243E-019  0.100430E-004  0.000000E+000
-0.243213E-016  0.980831E-005  0.000000E+000
-0.312621E-016  0.951976E-005  0.000000E+000
 0.103617E-016  0.914161E-005  0.000000E+000
 0.207748E-016  0.861505E-005  0.000000E+000
-0.166243E-004  0.553496E-005  0.000000E+000
-0.162190E-004  0.566753E-005  0.000000E+000
-0.170306E-004  0.540677E-005  0.000000E+000
-0.158007E-004  0.580020E-005  0.000000E+000
-0.174277E-004  0.526997E-005  0.000000E+000
-0.153714E-004  0.592917E-005  0.000000E+000
-0.178135E-004  0.512860E-005  0.000000E+000
-0.149319E-004  0.605451E-005  0.000000E+000
-0.181881E-004  0.498327E-005  0.000000E+000
-0.144830E-004  0.617605E-005  0.000000E+000
-0.185513E-004  0.483439E-005  0.000000E+000
-0.140248E-004  0.629370E-005  0.000000E+000
-0.189029E-004  0.468222E-005  0.000000E+000
-0.135579E-004  0.640741E-005  0.000000E+000
-0.192429E-004  0.452695E-005  0.000000E+000
-0.130826E-004  0.651712E-005  0.000000E+000
-0.195710E-004  0.436874E-005  0.000000E+000
-0.125992E-004  0.662277E-005  0.000000E+000
-0.198872E-004  0.420773E-005  0.000000E+000
-0.121081E-004  0.672432E-005  0.000000E+000
-0.201911E-004  0.404406E-005  0.000000E+000
-0.116094E-004  0.682171E-005  0.000000E+000
-0.204828E-004  0.387783E-005  0.000000E+000
-0.111037E-004  0.691490E-005  0.000000E+000
-0.207620E-004  0.370918E-005  0.000000E+000
-0.105912E-004  0.700384E-005  0.000000E+000
-0.210286E-004  0.353821E-005  0.000000E+000
-0.100721E-004  0.708849E-005  0.000000E+000
-0.212824E-004  0.336503E-005  0.000000E+000
-0.954697E-005  0.716881E-005  0.000000E+000
-0.215232E-004  0.318976E-005  0.000000E+000
-0.901595E-005  0.724474E-005  0.000000E+000
-0.217511E-004  0.301251E-005  0.000000E+000
-0.847942E-005  0.731627E-005  0.000000E+000
-0.219658E-004  0.283339E-005  0.000000E+000
-0.793772E-005  0.738335E-005  0.000000E+000
-0.221672E-004  0.265252E-005  0.000000E+000
-0.739117E-005  0.744594E-005  0.000000E+000
-0.223552E-004  0.246999E-005  0.000000E+000
-0.684011E-005  0.750403E-005  0.000000E+000
-0.225297E-004  0.228594E-005  0.000000E+000
-0.628487E-005  0.755757E-005  0.000000E+000
-0.226906E-004  0.210046E-005  0.000000E+000
-0.572580E-005  0.760654E-005  0.000000E+000
-0.228378E-004  0.191369E-005  0.000000E+000
-0.516323E-005  0.765092E-005  0.000000E+000
-0.229712E-004  0.172572E-005  0.000000E+000
-0.459750E-005  0.769068E-005  0.000000E+000
-0.230908E-004  0.153669E-005  0.000000E+000
-0.402897E-005  0.772582E-005  0.000000E+000
-0.231965E-004  0.134670E-005  0.000000E+000
-0.345799E-005  0.775630E-005  0.000000E+000
-0.232882E-004  0.115587E-005  0.000000E+000
-0.288489E-005  0.778211E-005  0.000000E+000
-0.233659E-004  0.964326E-006  0.000000E+000
-0.231003E-005  0.780325E-005  0.000000E+000
-0.234295E-004  0.772181E-006  0.000000E+000
-0.173376E-005  0.781970E-005  0.000000E+000
-0.234791E-004  0.579557E-006  0.000000E+000
-0.115643E-005  0.783146E-005  0.000000E+000
-0.235144E-004  0.386572E-006  0.000000E+000
-0.578389E-006  0.783852E-005  0.000000E+000
-0.235357E-004  0.193346E-006  0.000000E+000
 0.138431E-016  0.784087E-005  0.000000E+000
-0.366150E-004 -0.130168E-020  0.000000E+000
-0.360013E-004  0.411028E-017  0.000000E+000
-0.353932E-004  0.186949E-015  0.000000E+000
-0.347912E-004  0.561498E-017  0.000000E+000
-0.341956E-004  0.119390E-015  0.000000E+000
-0.336070E-004  0.470211E-016  0.000000E+000
-0.330259E-004  0.150443E-016  0.000000E+000
-0.324528E-004 -0.487046E-016  0.000000E+000
-0.318882E-004  0.171110E-015  0.000000E+000
-0.313330E-004 -0.160049E-015  0.000000E+000
-0.307879E-004  0.799981E-016  0.000000E+000
-0.302536E-004  0.424929E-018  0.000000E+000
-0.297311E-004 -0.524851E-016  0.000000E+000
-0.292214E-004  0.250001E-015  0.000000E+000
-0.287256E-004 -0.809987E-016  0.000000E+000
-0.282448E-004 -0.579031E-016  0.000000E+000
-0.277806E-004  0.133897E-015  0.000000E+000
-0.273343E-004 -0.803430E-016  0.000000E+000
-0.269077E-004  0.368685E-016  0.000000E+000
-0.265024E-004 -0.864055E-016  0.000000E+000
-0.261204E-004  0.156674E-015  0.000000E+000
-0.257639E-004  0.617007E-016  0.000000E+000
-0.254350E-004 -0.174660E-015  0.000000E+000
-0.251359E-004  0.353836E-016  0.000000E+000
-0.248688E-004  0.880413E-016  0.000000E+000
-0.246353E-004  0.111058E-017  0.000000E+000
-0.244365E-004 -0.194584E-016  0.000000E+000
-0.242718E-004 -0.106191E-015  0.000000E+000
-0.241377E-004  0.134076E-015  0.000000E+000
-0.240258E-004  0.347692E-016  0.000000E+000
-0.239179E-004 -0.510872E-016  0.000000E+000
-0.237792E-004 -0.687277E-017  0.000000E+000
-0.235428E-004  0.504012E-016  0.000000E+000
 0.980209E-006  0.158749E-004  0.000000E+000
 0.955939E-006  0.156137E-004  0.000000E+000
 0.931727E-006  0.153549E-004  0.000000E+000
 0.907577E-006  0.150985E-004  0.000000E+000
 0.883494E-006  0.148448E-004  0.000000E+000
 0.859488E-006  0.145938E-004  0.000000E+000
 0.835568E-006  0.143458E-004  0.000000E+000
 0.811745E-006  0.141010E-004  0.000000E+000
 0.788033E-006  0.138595E-004  0.000000E+000
 0.764450E-006  0.136215E-004  0.000000E+000
 0.741015E-006  0.133874E-004  0.000000E+000
 0.717752E-006  0.131572E-004  0.000000E+000
 0.694690E-006  0.129312E-004  0.000000E+000
 0.671865E-006  0.127097E-004  0.000000E+000
 0.649318E-006  0.124929E-004  0.000000E+000
 0.627102E-006  0.122811E-004  0.000000E+000
 0.605280E-006  0.120744E-004  0.000000E+000
 0.583932E-006  0.118730E-004  0.000000E+000
 0.563156E-006  0.116771E-004  0.000000E+000
 0.543074E-006  0.114865E-004  0.000000E+000
 0.523844E-006  0.113013E-004  0.000000E+000
 0.505664E-006  0.111209E-004  0.000000E+000
 0.488791E-006  0.109445E-004  0.000000E+000
 0.473562E-006  0.107709E-004  0.000000E+000
 0.460417E-006  0.105977E-004  0.000000E+000
 0.449944E-006  0.104214E-004  0.000000E+000
 0.442939E-006  0.102364E-004  0.000000E+000
 0.440487E-006  0.100338E-004  0.000000E+000
 0.444097E-006  0.979982E-005  0.000000E+000
 0.455893E-006  0.951226E-005  0.000000E+000
 0.478912E-006  0.913543E-005  0.000000E+000
 0.517571E-006  0.861057E-005  0.000000E+000
 0.578389E-006  0.783852E-005  0.000000E+000
-0.366049E-004 -0.332395E-006  0.000000E+000
-0.359909E-004 -0.320220E-006  0.000000E+000
-0.353826E-004 -0.308019E-006  0.000000E+000
-0.347803E-004 -0.295788E-006  0.000000E+000
-0.341845E-004 -0.283528E-006  0.000000E+000
-0.335956E-004 -0.271239E-006  0.000000E+000
-0.330142E-004 -0.258921E-006  0.000000E+000
-0.324408E-004 -0.246578E-006  0.000000E+000
-0.318760E-004 -0.234213E-006  0.000000E+000
-0.313205E-004 -0.221832E-006  0.000000E+000
-0.307751E-004 -0.209443E-006  0.000000E+000
-0.302405E-004 -0.197056E-006  0.000000E+000
-0.297177E-004 -0.184687E-006  0.000000E+000
-0.292077E-004 -0.172354E-006  0.000000E+000
-0.287116E-004 -0.160080E-006  0.000000E+000
-0.282306E-004 -0.147898E-006  0.000000E+000
-0.277661E-004 -0.135847E-006  0.000000E+000
-0.273196E-004 -0.123982E-006  0.000000E+000
-0.268927E-004 -0.112370E-006  0.000000E+000
-0.264872E-004 -0.101103E-006  0.000000E+000
-0.261050E-004 -0.902993E-007  0.000000E+000
-0.257483E-004 -0.801151E-007  0.000000E+000
-0.254193E-004 -0.707594E-007  0.000000E+000
-0.251202E-004 -0.625121E-007  0.000000E+000
-0.248531E-004 -0.557520E-007  0.000000E+000
-0.246197E-004 -0.509964E-007  0.000000E+000
-0.244212E-004 -0.489599E-007  0.000000E+000
-0.242570E-004 -0.506402E-007  0.000000E+000
-0.241237E-004 -0.574486E-007  0.000000E+000
-0.240128E-004 -0.714077E-007  0.000000E+000
-0.239064E-004 -0.954573E-007  0.000000E+000
-0.237695E-004 -0.133936E-006  0.000000E+000
-0.235357E-004 -0.193346E-006  0.000000E+000
 0.196133E-005  0.158528E-004  0.000000E+000
 0.191279E-005  0.155911E-004  0.000000E+000
 0.186438E-005  0.153318E-004  0.000000E+000
 0.181608E-005  0.150750E-004  0.000000E+000
 0.176792E-005  0.148208E-004  0.000000E+000
 0.171992E-005  0.145693E-004  0.000000E+000
 0.167208E-005  0.143209E-004  0.000000E+000
 0.162444E-005  0.140755E-004  0.000000E+000
 0.157702E-005  0.138335E-004  0.000000E+000
 0.152985E-005  0.135950E-004  0.000000E+000
 0.148298E-005  0.133603E-004  0.000000E+000
 0.143645E-005  0.131296E-004  0.000000E+000
 0.139033E-005  0.129031E-004  0.000000E+000
 0.134467E-005  0.126811E-004  0.000000E+000
 0.129957E-005  0.124638E-004  0.000000E+000
 0.125513E-005  0.122515E-004  0.000000E+000
 0.121147E-005  0.120444E-004  0.000000E+000
 0.116876E-005  0.118426E-004  0.000000E+000
 0.112718E-005  0.116463E-004  0.000000E+000
 0.108699E-005  0.114554E-004  0.000000E+000
 0.104849E-005  0.112699E-004  0.000000E+000
 0.101208E-005  0.110894E-004  0.000000E+000
 0.978281E-006  0.109130E-004  0.000000E+000
 0.947754E-006  0.107396E-004  0.000000E+000
 0.921381E-006  0.105668E-004  0.000000E+000
 0.900339E-006  0.103912E-004  0.000000E+000
 0.886213E-006  0.102072E-004  0.000000E+000
 0.881177E-006  0.100062E-004  0.000000E+000
 0.888250E-006  0.977440E-005  0.000000E+000
 0.911685E-006  0.948980E-005  0.000000E+000
 0.957576E-006  0.911690E-005  0.000000E+000
 0.103479E-005  0.859714E-005  0.000000E+000
 0.115643E-005  0.783146E-005  0.000000E+000
-0.365746E-004 -0.666210E-006  0.000000E+000
-0.359599E-004 -0.641877E-006  0.000000E+000
-0.353508E-004 -0.617491E-006  0.000000E+000
-0.347478E-004 -0.593046E-006  0.000000E+000
-0.341512E-004 -0.568542E-006  0.000000E+000
-0.335615E-004 -0.543978E-006  0.000000E+000
-0.329793E-004 -0.519357E-006  0.000000E+000
-0.324051E-004 -0.494684E-006  0.000000E+000
-0.318395E-004 -0.469967E-006  0.000000E+000
-0.312832E-004 -0.445217E-006  0.000000E+000
-0.307369E-004 -0.420449E-006  0.000000E+000
-0.302015E-004 -0.395686E-006  0.000000E+000
-0.296778E-004 -0.370955E-006  0.000000E+000
-0.291670E-004 -0.346293E-006  0.000000E+000
-0.286700E-004 -0.321748E-006  0.000000E+000
-0.281882E-004 -0.297381E-006  0.000000E+000
-0.277229E-004 -0.273275E-006  0.000000E+000
-0.272756E-004 -0.249534E-006  0.000000E+000
-0.268479E-004 -0.226294E-006  0.000000E+000
-0.264417E-004 -0.203736E-006  0.000000E+000
-0.260590E-004 -0.182095E-006  0.000000E+000
-0.257018E-004 -0.161683E-006  0.000000E+000
-0.253724E-004 -0.142916E-006  0.000000E+000
-0.250731E-004 -0.126350E-006  0.000000E+000
-0.248061E-004 -0.112741E-006  0.000000E+000
-0.245732E-004 -0.103119E-006  0.000000E+000
-0.243755E-004 -0.989123E-007  0.000000E+000
-0.242127E-004 -0.102113E-006  0.000000E+000
-0.240815E-004 -0.115543E-006  0.000000E+000
-0.239737E-004 -0.143251E-006  0.000000E+000
-0.238717E-004 -0.191129E-006  0.000000E+000
-0.237407E-004 -0.267881E-006  0.000000E+000
-0.235144E-004 -0.386572E-006  0.000000E+000
 0.294423E-005  0.158164E-004  0.000000E+000
 0.287145E-005  0.155540E-004  0.000000E+000
 0.279884E-005  0.152939E-004  0.000000E+000
 0.272641E-005  0.150363E-004  0.000000E+000
 0.265419E-005  0.147813E-004  0.000000E+000
 0.258219E-005  0.145290E-004  0.000000E+000
 0.251044E-005  0.142797E-004  0.000000E+000
 0.243899E-005  0.140335E-004  0.000000E+000
 0.236787E-005  0.137907E-004  0.000000E+000
 0.229712E-005  0.135513E-004  0.000000E+000
 0.222682E-005  0.133158E-004  0.000000E+000
 0.215703E-005  0.130842E-004  0.000000E+000
 0.208783E-005  0.128568E-004  0.000000E+000
 0.201933E-005  0.126340E-004  0.000000E+000
 0.195166E-005  0.124159E-004  0.000000E+000
 0.188497E-005  0.122028E-004  0.000000E+000
 0.181945E-005  0.119948E-004  0.000000E+000
 0.175534E-005  0.117923E-004  0.000000E+000
 0.169291E-005  0.115954E-004  0.000000E+000
 0.163255E-005  0.114040E-004  0.000000E+000
 0.157471E-005  0.112181E-004  0.000000E+000
 0.151999E-005  0.110373E-004  0.000000E+000
 0.146915E-005  0.108609E-004  0.000000E+000
 0.142319E-005  0.106877E-004  0.000000E+000
 0.138343E-005  0.105156E-004  0.000000E+000
 0.135162E-005  0.103411E-004  0.000000E+000
 0.133015E-005  0.101589E-004  0.000000E+000
 0.132227E-005  0.996043E-005  0.000000E+000
 0.133251E-005  0.973218E-005  0.000000E+000
 0.136728E-005  0.945246E-005  0.000000E+000
 0.143575E-005  0.908607E-005  0.000000E+000
 0.155129E-005  0.857477E-005  0.000000E+000
 0.173376E-005  0.781970E-005  0.000000E+000
-0.365248E-004 -0.100282E-005  0.000000E+000
-0.359088E-004 -0.966363E-006  0.000000E+000
-0.352985E-004 -0.929825E-006  0.000000E+000
-0.346942E-004 -0.893199E-006  0.000000E+000
-0.340963E-004 -0.856482E-006  0.000000E+000
-0.335053E-004 -0.819674E-006  0.000000E+000
-0.329218E-004 -0.782779E-006  0.000000E+000
-0.323462E-004 -0.745804E-006  0.000000E+000
-0.317792E-004 -0.708761E-006  0.000000E+000
-0.312215E-004 -0.671666E-006  0.000000E+000
-0.306738E-004 -0.634542E-006  0.000000E+000
-0.301370E-004 -0.597420E-006  0.000000E+000
-0.296119E-004 -0.560342E-006  0.000000E+000
-0.290996E-004 -0.523362E-006  0.000000E+000
-0.286013E-004 -0.486550E-006  0.000000E+000
-0.281181E-004 -0.449998E-006  0.000000E+000
-0.276514E-004 -0.413825E-006  0.000000E+000
-0.272027E-004 -0.378188E-006  0.000000E+000
-0.267738E-004 -0.343289E-006  0.000000E+000
-0.263665E-004 -0.309394E-006  0.000000E+000
-0.259827E-004 -0.276853E-006  0.000000E+000
-0.256247E-004 -0.246130E-006  0.000000E+000
-0.252947E-004 -0.217841E-006  0.000000E+000
-0.249951E-004 -0.192817E-006  0.000000E+000
-0.247282E-004 -0.172183E-006  0.000000E+000
-0.244960E-004 -0.157480E-006  0.000000E+000
-0.242997E-004 -0.150838E-006  0.000000E+000
-0.241392E-004 -0.155243E-006  0.000000E+000
-0.240116E-004 -0.174925E-006  0.000000E+000
-0.239089E-004 -0.215966E-006  0.000000E+000
-0.238139E-004 -0.287231E-006  0.000000E+000
-0.236926E-004 -0.401846E-006  0.000000E+000
-0.234791E-004 -0.579557E-006  0.000000E+000
 0.392972E-005  0.157665E-004  0.000000E+000
 0.383271E-005  0.155030E-004  0.000000E+000
 0.373593E-005  0.152419E-004  0.000000E+000
 0.363939E-005  0.149831E-004  0.000000E+000
 0.354312E-005  0.147270E-004  0.000000E+000
 0.344714E-005  0.144736E-004  0.000000E+000
 0.335151E-005  0.142231E-004  0.000000E+000
 0.325625E-005  0.139757E-004  0.000000E+000
 0.316143E-005  0.137317E-004  0.000000E+000
 0.306712E-005  0.134912E-004  0.000000E+000
 0.297338E-005  0.132544E-004  0.000000E+000
 0.288032E-005  0.130216E-004  0.000000E+000
 0.278805E-005  0.127931E-004  0.000000E+000
 0.269670E-005  0.125690E-004  0.000000E+000
 0.260644E-005  0.123497E-004  0.000000E+000
 0.251748E-005  0.121355E-004  0.000000E+000
 0.243005E-005  0.119265E-004  0.000000E+000
 0.234448E-005  0.117230E-004  0.000000E+000
 0.226115E-005  0.115251E-004  0.000000E+000
 0.218053E-005  0.113329E-004  0.000000E+000
 0.210325E-005  0.111464E-004  0.000000E+000
 0.203008E-005  0.109653E-004  0.000000E+000
 0.196204E-005  0.107888E-004  0.000000E+000
 0.190046E-005  0.106159E-004  0.000000E+000
 0.184707E-005  0.104446E-004  0.000000E+000
 0.180422E-005  0.102716E-004  0.000000E+000
 0.177507E-005  0.100917E-004  0.000000E+000
 0.176397E-005  0.989674E-005  0.000000E+000
 0.177695E-005  0.967338E-005  0.000000E+000
 0.182259E-005  0.940038E-005  0.000000E+000
 0.191319E-005  0.904301E-005  0.000000E+000
 0.206675E-005  0.854348E-005  0.000000E+000
 0.231003E-005  0.780325E-005  0.000000E+000
-0.364562E-004 -0.134351E-005  0.000000E+000
-0.358385E-004 -0.129499E-005  0.000000E+000
-0.352264E-004 -0.124635E-005  0.000000E+000
-0.346203E-004 -0.119759E-005  0.000000E+000
-0.340207E-004 -0.114870E-005  0.000000E+000
-0.334279E-004 -0.109970E-005  0.000000E+000
-0.328424E-004 -0.105057E-005  0.000000E+000
-0.322650E-004 -0.100134E-005  0.000000E+000
-0.316961E-004 -0.952006E-006  0.000000E+000
-0.311364E-004 -0.902602E-006  0.000000E+000
-0.305868E-004 -0.853155E-006  0.000000E+000
-0.300480E-004 -0.803704E-006  0.000000E+000
-0.295209E-004 -0.754303E-006  0.000000E+000
-0.290067E-004 -0.705021E-006  0.000000E+000
-0.285063E-004 -0.655952E-006  0.000000E+000
-0.280211E-004 -0.607215E-006  0.000000E+000
-0.275525E-004 -0.558965E-006  0.000000E+000
-0.271020E-004 -0.511406E-006  0.000000E+000
-0.266714E-004 -0.464804E-006  0.000000E+000
-0.262624E-004 -0.419507E-006  0.000000E+000
-0.258771E-004 -0.375976E-006  0.000000E+000
-0.255179E-004 -0.334820E-006  0.000000E+000
-0.251870E-004 -0.296853E-006  0.000000E+000
-0.248869E-004 -0.263170E-006  0.000000E+000
-0.246201E-004 -0.235258E-006  0.000000E+000
-0.243887E-004 -0.215158E-006  0.000000E+000
-0.241942E-004 -0.205696E-006  0.000000E+000
-0.240369E-004 -0.210841E-006  0.000000E+000
-0.239140E-004 -0.236231E-006  0.000000E+000
-0.238184E-004 -0.289987E-006  0.000000E+000
-0.237333E-004 -0.383984E-006  0.000000E+000
-0.236254E-004 -0.535849E-006  0.000000E+000
-0.234295E-004 -0.772181E-006  0.000000E+000
 0.491852E-005  0.157039E-004  0.000000E+000
 0.479732E-005  0.154391E-004  0.000000E+000
 0.467639E-005  0.151765E-004  0.000000E+000
 0.455576E-005  0.149164E-004  0.000000E+000
 0.443546E-005  0.146588E-004  0.000000E+000
 0.431553E-005  0.144039E-004  0.000000E+000
 0.419601E-005  0.141520E-004  0.000000E+000
 0.407697E-005  0.139031E-004  0.000000E+000
 0.395847E-005  0.136576E-004  0.000000E+000
 0.384059E-005  0.134155E-004  0.000000E+000
 0.372343E-005  0.131772E-004  0.000000E+000
 0.360710E-005  0.129429E-004  0.000000E+000
 0.349175E-005  0.127128E-004  0.000000E+000
 0.337753E-005  0.124872E-004  0.000000E+000
 0.326466E-005  0.122664E-004  0.000000E+000
 0.315339E-005  0.120507E-004  0.000000E+000
 0.304402E-005  0.118403E-004  0.000000E+000
 0.293693E-005  0.116354E-004  0.000000E+000
 0.283260E-005  0.114364E-004  0.000000E+000
 0.273163E-005  0.112432E-004  0.000000E+000
 0.263477E-005  0.110558E-004  0.000000E+000
 0.254299E-005  0.108741E-004  0.000000E+000
 0.245755E-005  0.106975E-004  0.000000E+000
 0.238010E-005  0.105249E-004  0.000000E+000
 0.231279E-005  0.103545E-004  0.000000E+000
 0.225854E-005  0.101833E-004  0.000000E+000
 0.222129E-005  0.100063E-004  0.000000E+000
 0.220645E-005  0.981557E-005  0.000000E+000
 0.222161E-005  0.959832E-005  0.000000E+000
 0.227752E-005  0.933378E-005  0.000000E+000
 0.238968E-005  0.898782E-005  0.000000E+000
 0.258082E-005  0.850329E-005  0.000000E+000
 0.288489E-005  0.778211E-005  0.000000E+000
-0.363699E-004 -0.168946E-005  0.000000E+000
-0.357501E-004 -0.162893E-005  0.000000E+000
-0.351358E-004 -0.156825E-005  0.000000E+000
-0.345274E-004 -0.150742E-005  0.000000E+000
-0.339255E-004 -0.144643E-005  0.000000E+000
-0.333303E-004 -0.138529E-005  0.000000E+000
-0.327425E-004 -0.132399E-005  0.000000E+000
-0.321627E-004 -0.126255E-005  0.000000E+000
-0.315913E-004 -0.120099E-005  0.000000E+000
-0.310292E-004 -0.113933E-005  0.000000E+000
-0.304770E-004 -0.107760E-005  0.000000E+000
-0.299357E-004 -0.101586E-005  0.000000E+000
-0.294061E-004 -0.954173E-006  0.000000E+000
-0.288892E-004 -0.892617E-006  0.000000E+000
-0.283863E-004 -0.831306E-006  0.000000E+000
-0.278986E-004 -0.770387E-006  0.000000E+000
-0.274275E-004 -0.710049E-006  0.000000E+000
-0.269746E-004 -0.650539E-006  0.000000E+000
-0.265416E-004 -0.592183E-006  0.000000E+000
-0.261305E-004 -0.535408E-006  0.000000E+000
-0.257433E-004 -0.480777E-006  0.000000E+000
-0.253824E-004 -0.429039E-006  0.000000E+000
-0.250503E-004 -0.381197E-006  0.000000E+000
-0.247495E-004 -0.338600E-006  0.000000E+000
-0.244827E-004 -0.303088E-006  0.000000E+000
-0.242522E-004 -0.277188E-006  0.000000E+000
-0.240599E-004 -0.264410E-006  0.000000E+000
-0.239063E-004 -0.269696E-006  0.000000E+000
-0.237895E-004 -0.300084E-006  0.000000E+000
-0.237026E-004 -0.365749E-006  0.000000E+000
-0.236300E-004 -0.481614E-006  0.000000E+000
-0.235391E-004 -0.669911E-006  0.000000E+000
-0.233659E-004 -0.964326E-006  0.000000E+000
 0.591122E-005  0.156297E-004  0.000000E+000
 0.576586E-005  0.153633E-004  0.000000E+000
 0.562081E-005  0.150991E-004  0.000000E+000
 0.547612E-005  0.148372E-004  0.000000E+000
 0.533182E-005  0.145779E-004  0.000000E+000
 0.518796E-005  0.143213E-004  0.000000E+000
 0.504459E-005  0.140676E-004  0.000000E+000
 0.490179E-005  0.138169E-004  0.000000E+000
 0.475962E-005  0.135695E-004  0.000000E+000
 0.461819E-005  0.133256E-004  0.000000E+000
 0.447761E-005  0.130854E-004  0.000000E+000
 0.433802E-005  0.128491E-004  0.000000E+000
 0.419958E-005  0.126172E-004  0.000000E+000
 0.406248E-005  0.123897E-004  0.000000E+000
 0.392698E-005  0.121671E-004  0.000000E+000
 0.379336E-005  0.119495E-004  0.000000E+000
 0.366199E-005  0.117374E-004  0.000000E+000
 0.353331E-005  0.115309E-004  0.000000E+000
 0.340790E-005  0.113303E-004  0.000000E+000
 0.328645E-005  0.111357E-004  0.000000E+000
 0.316986E-005  0.109473E-004  0.000000E+000
 0.305929E-005  0.107648E-004  0.000000E+000
 0.295622E-005  0.105879E-004  0.000000E+000
 0.286260E-005  0.104155E-004  0.000000E+000
 0.278102E-005  0.102461E-004  0.000000E+000
 0.271493E-005  0.100769E-004  0.000000E+000
 0.266907E-005  0.990320E-005  0.000000E+000
 0.264991E-005  0.971746E-005  0.000000E+000
 0.266657E-005  0.950741E-005  0.000000E+000
 0.273201E-005  0.925292E-005  0.000000E+000
 0.286500E-005  0.892063E-005  0.000000E+000
 0.309318E-005  0.845424E-005  0.000000E+000
 0.345799E-005  0.775630E-005  0.000000E+000
-0.362673E-004 -0.204167E-005  0.000000E+000
-0.356449E-004 -0.196922E-005  0.000000E+000
-0.350279E-004 -0.189659E-005  0.000000E+000
-0.344169E-004 -0.182377E-005  0.000000E+000
-0.338121E-004 -0.175075E-005  0.000000E+000
-0.332142E-004 -0.167754E-005  0.000000E+000
-0.326235E-004 -0.160415E-005  0.000000E+000
-0.320407E-004 -0.153057E-005  0.000000E+000
-0.314663E-004 -0.145685E-005  0.000000E+000
-0.309012E-004 -0.138299E-005  0.000000E+000
-0.303460E-004 -0.130905E-005  0.000000E+000
-0.298015E-004 -0.123507E-005  0.000000E+000
-0.292688E-004 -0.116114E-005  0.000000E+000
-0.287489E-004 -0.108734E-005  0.000000E+000
-0.282429E-004 -0.101382E-005  0.000000E+000
-0.277520E-004 -0.940726E-006  0.000000E+000
-0.272779E-004 -0.868293E-006  0.000000E+000
-0.268220E-004 -0.796806E-006  0.000000E+000
-0.263861E-004 -0.726644E-006  0.000000E+000
-0.259723E-004 -0.658305E-006  0.000000E+000
-0.255827E-004 -0.592451E-006  0.000000E+000
-0.252197E-004 -0.529962E-006  0.000000E+000
-0.248859E-004 -0.472017E-006  0.000000E+000
-0.245840E-004 -0.420212E-006  0.000000E+000
-0.243170E-004 -0.376722E-006  0.000000E+000
-0.240874E-004 -0.344544E-006  0.000000E+000
-0.238975E-004 -0.327860E-006  0.000000E+000
-0.237483E-004 -0.332565E-006  0.000000E+000
-0.236384E-004 -0.367095E-006  0.000000E+000
-0.235620E-004 -0.443685E-006  0.000000E+000
-0.235042E-004 -0.580353E-006  0.000000E+000
-0.234339E-004 -0.804065E-006  0.000000E+000
-0.232882E-004 -0.115587E-005  0.000000E+000
 0.690830E-005  0.155453E-004  0.000000E+000
 0.673881E-005  0.152770E-004  0.000000E+000
 0.656969E-005  0.150108E-004  0.000000E+000
 0.640097E-005  0.147470E-004  0.000000E+000
 0.623270E-005  0.144857E-004  0.000000E+000
 0.606494E-005  0.142270E-004  0.000000E+000
 0.589775E-005  0.139712E-004  0.000000E+000
 0.573120E-005  0.137184E-004  0.000000E+000
 0.556539E-005  0.134688E-004  0.000000E+000
 0.540043E-005  0.132227E-004  0.000000E+000
 0.523644E-005  0.129803E-004  0.000000E+000
 0.507359E-005  0.127419E-004  0.000000E+000
 0.491206E-005  0.125077E-004  0.000000E+000
 0.475207E-005  0.122780E-004  0.000000E+000
 0.459391E-005  0.120531E-004  0.000000E+000
 0.443791E-005  0.118334E-004  0.000000E+000
 0.428448E-005  0.116192E-004  0.000000E+000
 0.413415E-005  0.114107E-004  0.000000E+000
 0.398755E-005  0.112082E-004  0.000000E+000
 0.384550E-005  0.110120E-004  0.000000E+000
 0.370902E-005  0.108222E-004  0.000000E+000
 0.357944E-005  0.106387E-004  0.000000E+000
 0.345848E-005  0.104612E-004  0.000000E+000
 0.334838E-005  0.102889E-004  0.000000E+000
 0.325213E-005  0.101205E-004  0.000000E+000
 0.317373E-005  0.995337E-005  0.000000E+000
 0.311867E-005  0.978324E-005  0.000000E+000
 0.309451E-005  0.960305E-005  0.000000E+000
 0.311189E-005  0.940112E-005  0.000000E+000
 0.318601E-005  0.915811E-005  0.000000E+000
 0.333898E-005  0.884162E-005  0.000000E+000
 0.360352E-005  0.839637E-005  0.000000E+000
 0.402897E-005  0.772582E-005  0.000000E+000
-0.361501E-004 -0.240099E-005  0.000000E+000
-0.355246E-004 -0.231672E-005  0.000000E+000
-0.349045E-004 -0.223222E-005  0.000000E+000
-0.342903E-004 -0.214750E-005  0.000000E+000
-0.336823E-004 -0.206255E-005  0.000000E+000
-0.330810E-004 -0.197737E-005  0.000000E+000
-0.324870E-004 -0.189196E-005  0.000000E+000
-0.319007E-004 -0.180634E-005  0.000000E+000
-0.313229E-004 -0.172052E-005  0.000000E+000
-0.307542E-004 -0.163455E-005  0.000000E+000
-0.301954E-004 -0.154846E-005  0.000000E+000
-0.296474E-004 -0.146232E-005  0.000000E+000
-0.291110E-004 -0.137620E-005  0.000000E+000
-0.285873E-004 -0.129022E-005  0.000000E+000
-0.280776E-004 -0.120451E-005  0.000000E+000
-0.275831E-004 -0.111928E-005  0.000000E+000
-0.271053E-004 -0.103475E-005  0.000000E+000
-0.266458E-004 -0.951267E-006  0.000000E+000
-0.262065E-004 -0.869249E-006  0.000000E+000
-0.257894E-004 -0.789263E-006  0.000000E+000
-0.253968E-004 -0.712059E-006  0.000000E+000
-0.250311E-004 -0.638638E-006  0.000000E+000
-0.246952E-004 -0.570345E-006  0.000000E+000
-0.243920E-004 -0.509007E-006  0.000000E+000
-0.241245E-004 -0.457118E-006  0.000000E+000
-0.238957E-004 -0.418130E-006  0.000000E+000
-0.237082E-004 -0.396869E-006  0.000000E+000
-0.235638E-004 -0.400172E-006  0.000000E+000
-0.234617E-004 -0.437856E-006  0.000000E+000
-0.233970E-004 -0.524224E-006  0.000000E+000
-0.233563E-004 -0.680442E-006  0.000000E+000
-0.233099E-004 -0.938352E-006  0.000000E+000
-0.231965E-004 -0.134670E-005  0.000000E+000
 0.791007E-005  0.154520E-004  0.000000E+000
 0.771649E-005  0.151815E-004  0.000000E+000
 0.752333E-005  0.149131E-004  0.000000E+000
 0.733063E-005  0.146471E-004  0.000000E+000
 0.713843E-005  0.143835E-004  0.000000E+000
 0.694680E-005  0.141225E-004  0.000000E+000
 0.675581E-005  0.138643E-004  0.000000E+000
 0.656556E-005  0.136091E-004  0.000000E+000
 0.637613E-005  0.133570E-004  0.000000E+000
 0.618766E-005  0.131084E-004  0.000000E+000
 0.600028E-005  0.128635E-004  0.000000E+000
 0.581418E-005  0.126225E-004  0.000000E+000
 0.562956E-005  0.123858E-004  0.000000E+000
 0.544668E-005  0.121535E-004  0.000000E+000
 0.526585E-005  0.119261E-004  0.000000E+000
 0.508743E-005  0.117039E-004  0.000000E+000
 0.491190E-005  0.114872E-004  0.000000E+000
 0.473984E-005  0.112763E-004  0.000000E+000
 0.457196E-005  0.110716E-004  0.000000E+000
 0.440917E-005  0.108734E-004  0.000000E+000
 0.425264E-005  0.106819E-004  0.000000E+000
 0.410384E-005  0.104970E-004  0.000000E+000
 0.396471E-005  0.103187E-004  0.000000E+000
 0.383779E-005  0.101464E-004  0.000000E+000
 0.372644E-005  0.997877E-005  0.000000E+000
 0.363521E-005  0.981371E-005  0.000000E+000
 0.357033E-005  0.964732E-005  0.000000E+000
 0.354041E-005  0.947308E-005  0.000000E+000
 0.355763E-005  0.928002E-005  0.000000E+000
 0.363946E-005  0.904974E-005  0.000000E+000
 0.381143E-005  0.875097E-005  0.000000E+000
 0.411156E-005  0.832975E-005  0.000000E+000
 0.459750E-005  0.769068E-005  0.000000E+000
-0.360199E-004 -0.276808E-005  0.000000E+000
-0.353909E-004 -0.267208E-005  0.000000E+000
-0.347673E-004 -0.257583E-005  0.000000E+000
-0.341495E-004 -0.247932E-005  0.000000E+000
-0.335378E-004 -0.238253E-005  0.000000E+000
-0.329327E-004 -0.228547E-005  0.000000E+000
-0.323349E-004 -0.218815E-005  0.000000E+000
-0.317447E-004 -0.209058E-005  0.000000E+000
-0.311629E-004 -0.199278E-005  0.000000E+000
-0.305902E-004 -0.189478E-005  0.000000E+000
-0.300273E-004 -0.179664E-005  0.000000E+000
-0.294750E-004 -0.169841E-005  0.000000E+000
-0.289344E-004 -0.160018E-005  0.000000E+000
-0.284065E-004 -0.150207E-005  0.000000E+000
-0.278925E-004 -0.140424E-005  0.000000E+000
-0.273937E-004 -0.130689E-005  0.000000E+000
-0.269117E-004 -0.121029E-005  0.000000E+000
-0.264480E-004 -0.111480E-005  0.000000E+000
-0.260046E-004 -0.102089E-005  0.000000E+000
-0.255837E-004 -0.929181E-006  0.000000E+000
-0.251875E-004 -0.840503E-006  0.000000E+000
-0.248186E-004 -0.755969E-006  0.000000E+000
-0.244800E-004 -0.677078E-006  0.000000E+000
-0.241749E-004 -0.605867E-006  0.000000E+000
-0.239065E-004 -0.545135E-006  0.000000E+000
-0.236782E-004 -0.498762E-006  0.000000E+000
-0.234932E-004 -0.472198E-006  0.000000E+000
-0.233537E-004 -0.473194E-006  0.000000E+000
-0.232600E-004 -0.512933E-006  0.000000E+000
-0.232083E-004 -0.607790E-006  0.000000E+000
-0.231867E-004 -0.782130E-006  0.000000E+000
-0.231673E-004 -0.107283E-005  0.000000E+000
-0.230908E-004 -0.153669E-005  0.000000E+000
 0.891670E-005  0.153512E-004  0.000000E+000
 0.869909E-005  0.150783E-004  0.000000E+000
 0.848193E-005  0.148076E-004  0.000000E+000
 0.826528E-005  0.145390E-004  0.000000E+000
 0.804919E-005  0.142729E-004  0.000000E+000
 0.783374E-005  0.140093E-004  0.000000E+000
 0.761899E-005  0.137485E-004  0.000000E+000
 0.740506E-005  0.134905E-004  0.000000E+000
 0.719205E-005  0.132358E-004  0.000000E+000
 0.698009E-005  0.129844E-004  0.000000E+000
 0.676935E-005  0.127366E-004  0.000000E+000
 0.656002E-005  0.124928E-004  0.000000E+000
 0.635233E-005  0.122531E-004  0.000000E+000
 0.614655E-005  0.120179E-004  0.000000E+000
 0.594302E-005  0.117876E-004  0.000000E+000
 0.574217E-005  0.115625E-004  0.000000E+000
 0.554450E-005  0.113430E-004  0.000000E+000
 0.535064E-005  0.111294E-004  0.000000E+000
 0.516139E-005  0.109222E-004  0.000000E+000
 0.497774E-005  0.107216E-004  0.000000E+000
 0.480098E-005  0.105279E-004  0.000000E+000
 0.463275E-005  0.103414E-004  0.000000E+000
 0.447518E-005  0.101619E-004  0.000000E+000
 0.433108E-005  0.998917E-005  0.000000E+000
 0.420420E-005  0.982217E-005  0.000000E+000
 0.409960E-005  0.965906E-005  0.000000E+000
 0.402422E-005  0.949643E-005  0.000000E+000
 0.398774E-005  0.932838E-005  0.000000E+000
 0.400385E-005  0.914477E-005  0.000000E+000
 0.409233E-005  0.892825E-005  0.000000E+000
 0.428222E-005  0.864894E-005  0.000000E+000
 0.461703E-005  0.825444E-005  0.000000E+000
 0.516323E-005  0.765092E-005  0.000000E+000
-0.358786E-004 -0.314338E-005  0.000000E+000
-0.352458E-004 -0.303578E-005  0.000000E+000
-0.346182E-004 -0.292789E-005  0.000000E+000
-0.339963E-004 -0.281969E-005  0.000000E+000
-0.333805E-004 -0.271119E-005  0.000000E+000
-0.327713E-004 -0.260237E-005  0.000000E+000
-0.321691E-004 -0.249325E-005  0.000000E+000
-0.315746E-004 -0.238384E-005  0.000000E+000
-0.309883E-004 -0.227417E-005  0.000000E+000
-0.304110E-004 -0.216425E-005  0.000000E+000
-0.298435E-004 -0.205415E-005  0.000000E+000
-0.292866E-004 -0.194393E-005  0.000000E+000
-0.287412E-004 -0.183368E-005  0.000000E+000
-0.282085E-004 -0.172353E-005  0.000000E+000
-0.276896E-004 -0.161365E-005  0.000000E+000
-0.271860E-004 -0.150424E-005  0.000000E+000
-0.266991E-004 -0.139560E-005  0.000000E+000
-0.262307E-004 -0.128811E-005  0.000000E+000
-0.257826E-004 -0.118228E-005  0.000000E+000
-0.253572E-004 -0.107878E-005  0.000000E+000
-0.249567E-004 -0.978522E-006  0.000000E+000
-0.245841E-004 -0.882705E-006  0.000000E+000
-0.242422E-004 -0.792968E-006  0.000000E+000
-0.239346E-004 -0.711545E-006  0.000000E+000
-0.236649E-004 -0.641515E-006  0.000000E+000
-0.234367E-004 -0.587163E-006  0.000000E+000
-0.232539E-004 -0.554532E-006  0.000000E+000
-0.231193E-004 -0.552259E-006  0.000000E+000
-0.230343E-004 -0.592867E-006  0.000000E+000
-0.229965E-004 -0.694800E-006  0.000000E+000
-0.229957E-004 -0.885672E-006  0.000000E+000
-0.230062E-004 -0.120755E-005  0.000000E+000
-0.229712E-004 -0.172572E-005  0.000000E+000
 0.992824E-005  0.152445E-004  0.000000E+000
 0.968664E-005  0.149691E-004  0.000000E+000
 0.944552E-005  0.146956E-004  0.000000E+000
 0.920497E-005  0.144244E-004  0.000000E+000
 0.896503E-005  0.141555E-004  0.000000E+000
 0.872579E-005  0.138891E-004  0.000000E+000
 0.848733E-005  0.136253E-004  0.000000E+000
 0.824976E-005  0.133644E-004  0.000000E+000
 0.801320E-005  0.131067E-004  0.000000E+000
 0.777779E-005  0.128522E-004  0.000000E+000
 0.754372E-005  0.126013E-004  0.000000E+000
 0.731118E-005  0.123543E-004  0.000000E+000
 0.708042E-005  0.121114E-004  0.000000E+000
 0.685175E-005  0.118730E-004  0.000000E+000
 0.662554E-005  0.116395E-004  0.000000E+000
 0.640223E-005  0.114111E-004  0.000000E+000
 0.618238E-005  0.111884E-004  0.000000E+000
 0.596667E-005  0.109717E-004  0.000000E+000
 0.575596E-005  0.107615E-004  0.000000E+000
 0.555135E-005  0.105581E-004  0.000000E+000
 0.535421E-005  0.103619E-004  0.000000E+000
 0.516634E-005  0.101733E-004  0.000000E+000
 0.499005E-005  0.999231E-005  0.000000E+000
 0.482844E-005  0.981879E-005  0.000000E+000
 0.468558E-005  0.965207E-005  0.000000E+000
 0.456705E-005  0.949066E-005  0.000000E+000
 0.448050E-005  0.933167E-005  0.000000E+000
 0.443661E-005  0.916988E-005  0.000000E+000
 0.445062E-005  0.899608E-005  0.000000E+000
 0.454460E-005  0.879415E-005  0.000000E+000
 0.475121E-005  0.853579E-005  0.000000E+000
 0.511967E-005  0.817055E-005  0.000000E+000
 0.572580E-005  0.760654E-005  0.000000E+000
-0.357280E-004 -0.352715E-005  0.000000E+000
-0.350909E-004 -0.340808E-005  0.000000E+000
-0.344591E-004 -0.328867E-005  0.000000E+000
-0.338327E-004 -0.316892E-005  0.000000E+000
-0.332124E-004 -0.304882E-005  0.000000E+000
-0.325986E-004 -0.292837E-005  0.000000E+000
-0.319917E-004 -0.280758E-005  0.000000E+000
-0.313924E-004 -0.268646E-005  0.000000E+000
-0.308012E-004 -0.256502E-005  0.000000E+000
-0.302189E-004 -0.244331E-005  0.000000E+000
-0.296463E-004 -0.232138E-005  0.000000E+000
-0.290842E-004 -0.219928E-005  0.000000E+000
-0.285335E-004 -0.207712E-005  0.000000E+000
-0.279955E-004 -0.195502E-005  0.000000E+000
-0.274712E-004 -0.183316E-005  0.000000E+000
-0.269621E-004 -0.171177E-005  0.000000E+000
-0.264698E-004 -0.159114E-005  0.000000E+000
-0.259959E-004 -0.147168E-005  0.000000E+000
-0.255426E-004 -0.135394E-005  0.000000E+000
-0.251120E-004 -0.123861E-005  0.000000E+000
-0.247066E-004 -0.112668E-005  0.000000E+000
-0.243295E-004 -0.101943E-005  0.000000E+000
-0.239838E-004 -0.918615E-006  0.000000E+000
-0.236730E-004 -0.826655E-006  0.000000E+000
-0.234013E-004 -0.746880E-006  0.000000E+000
-0.231727E-004 -0.683953E-006  0.000000E+000
-0.229917E-004 -0.644476E-006  0.000000E+000
-0.228619E-004 -0.637935E-006  0.000000E+000
-0.227858E-004 -0.678163E-006  0.000000E+000
-0.227625E-004 -0.785661E-006  0.000000E+000
-0.227839E-004 -0.991332E-006  0.000000E+000
-0.228270E-004 -0.134261E-005  0.000000E+000
-0.228378E-004 -0.191369E-005  0.000000E+000
 0.109446E-004  0.151334E-004  0.000000E+000
 0.106790E-004  0.148551E-004  0.000000E+000
 0.104140E-004  0.145789E-004  0.000000E+000
 0.101496E-004  0.143047E-004  0.000000E+000
 0.988585E-005  0.140328E-004  0.000000E+000
 0.962287E-005  0.137633E-004  0.000000E+000
 0.936074E-005  0.134965E-004  0.000000E+000
 0.909957E-005  0.132324E-004  0.000000E+000
 0.883949E-005  0.129713E-004  0.000000E+000
 0.858068E-005  0.127135E-004  0.000000E+000
 0.832329E-005  0.124592E-004  0.000000E+000
 0.806758E-005  0.122087E-004  0.000000E+000
 0.781379E-005  0.119624E-004  0.000000E+000
 0.756225E-005  0.117204E-004  0.000000E+000
 0.731335E-005  0.114833E-004  0.000000E+000
 0.706758E-005  0.112514E-004  0.000000E+000
 0.682552E-005  0.110251E-004  0.000000E+000
 0.658792E-005  0.108049E-004  0.000000E+000
 0.635569E-005  0.105913E-004  0.000000E+000
 0.613000E-005  0.103847E-004  0.000000E+000
 0.591235E-005  0.101856E-004  0.000000E+000
 0.570464E-005  0.999444E-005  0.000000E+000
 0.550940E-005  0.981147E-005  0.000000E+000
 0.532993E-005  0.963675E-005  0.000000E+000
 0.517068E-005  0.946990E-005  0.000000E+000
 0.503768E-005  0.930983E-005  0.000000E+000
 0.493925E-005  0.915422E-005  0.000000E+000
 0.488711E-005  0.899858E-005  0.000000E+000
 0.489798E-005  0.883474E-005  0.000000E+000
 0.499627E-005  0.864799E-005  0.000000E+000
 0.521830E-005  0.841185E-005  0.000000E+000
 0.561927E-005  0.807817E-005  0.000000E+000
 0.628487E-005  0.755757E-005  0.000000E+000
-0.355700E-004 -0.391948E-005  0.000000E+000
-0.349284E-004 -0.378906E-005  0.000000E+000
-0.342918E-004 -0.365827E-005  0.000000E+000
-0.336608E-004 -0.352709E-005  0.000000E+000
-0.330356E-004 -0.339553E-005  0.000000E+000
-0.324167E-004 -0.326358E-005  0.000000E+000
-0.318047E-004 -0.313125E-005  0.000000E+000
-0.312002E-004 -0.299855E-005  0.000000E+000
-0.306037E-004 -0.286550E-005  0.000000E+000
-0.300159E-004 -0.273213E-005  0.000000E+000
-0.294377E-004 -0.259848E-005  0.000000E+000
-0.288699E-004 -0.246464E-005  0.000000E+000
-0.283135E-004 -0.233069E-005  0.000000E+000
-0.277696E-004 -0.219676E-005  0.000000E+000
-0.272394E-004 -0.206304E-005  0.000000E+000
-0.267243E-004 -0.192975E-005  0.000000E+000
-0.262259E-004 -0.179721E-005  0.000000E+000
-0.257461E-004 -0.166583E-005  0.000000E+000
-0.252868E-004 -0.153619E-005  0.000000E+000
-0.248503E-004 -0.140903E-005  0.000000E+000
-0.244394E-004 -0.128536E-005  0.000000E+000
-0.240571E-004 -0.116655E-005  0.000000E+000
-0.237067E-004 -0.105446E-005  0.000000E+000
-0.233921E-004 -0.951665E-006  0.000000E+000
-0.231177E-004 -0.861723E-006  0.000000E+000
-0.228881E-004 -0.789641E-006  0.000000E+000
-0.227082E-004 -0.742545E-006  0.000000E+000
-0.225828E-004 -0.730727E-006  0.000000E+000
-0.225155E-004 -0.769289E-006  0.000000E+000
-0.225071E-004 -0.880764E-006  0.000000E+000
-0.225519E-004 -0.109938E-005  0.000000E+000
-0.226297E-004 -0.147808E-005  0.000000E+000
-0.226906E-004 -0.210046E-005  0.000000E+000
 0.119655E-004  0.150192E-004  0.000000E+000
 0.116760E-004  0.147380E-004  0.000000E+000
 0.113872E-004  0.144587E-004  0.000000E+000
 0.110989E-004  0.141815E-004  0.000000E+000
 0.108114E-004  0.139064E-004  0.000000E+000
 0.105247E-004  0.136337E-004  0.000000E+000
 0.102390E-004  0.133635E-004  0.000000E+000
 0.995426E-005  0.130960E-004  0.000000E+000
 0.967072E-005  0.128314E-004  0.000000E+000
 0.938853E-005  0.125700E-004  0.000000E+000
 0.910788E-005  0.123121E-004  0.000000E+000
 0.882902E-005  0.120578E-004  0.000000E+000
 0.855222E-005  0.118077E-004  0.000000E+000
 0.827783E-005  0.115619E-004  0.000000E+000
 0.800627E-005  0.113208E-004  0.000000E+000
 0.773804E-005  0.110850E-004  0.000000E+000
 0.747377E-005  0.108548E-004  0.000000E+000
 0.721425E-005  0.106307E-004  0.000000E+000
 0.696045E-005  0.104133E-004  0.000000E+000
 0.671361E-005  0.102031E-004  0.000000E+000
 0.647531E-005  0.100007E-004  0.000000E+000
 0.624761E-005  0.980648E-005  0.000000E+000
 0.603317E-005  0.962105E-005  0.000000E+000
 0.583555E-005  0.944462E-005  0.000000E+000
 0.565950E-005  0.927714E-005  0.000000E+000
 0.551150E-005  0.911795E-005  0.000000E+000
 0.540054E-005  0.896530E-005  0.000000E+000
 0.533930E-005  0.881554E-005  0.000000E+000
 0.534598E-005  0.866162E-005  0.000000E+000
 0.544733E-005  0.849038E-005  0.000000E+000
 0.568342E-005  0.827747E-005  0.000000E+000
 0.611562E-005  0.797743E-005  0.000000E+000
 0.684011E-005  0.750403E-005  0.000000E+000
-0.354065E-004 -0.432026E-005  0.000000E+000
-0.347600E-004 -0.417863E-005  0.000000E+000
-0.341185E-004 -0.403659E-005  0.000000E+000
-0.334823E-004 -0.389413E-005  0.000000E+000
-0.328518E-004 -0.375125E-005  0.000000E+000
-0.322276E-004 -0.360794E-005  0.000000E+000
-0.316102E-004 -0.346421E-005  0.000000E+000
-0.310000E-004 -0.332008E-005  0.000000E+000
-0.303978E-004 -0.317555E-005  0.000000E+000
-0.298042E-004 -0.303066E-005  0.000000E+000
-0.292200E-004 -0.288545E-005  0.000000E+000
-0.286460E-004 -0.274000E-005  0.000000E+000
-0.280834E-004 -0.259440E-005  0.000000E+000
-0.275331E-004 -0.244878E-005  0.000000E+000
-0.269964E-004 -0.230331E-005  0.000000E+000
-0.264748E-004 -0.215824E-005  0.000000E+000
-0.259698E-004 -0.201389E-005  0.000000E+000
-0.254833E-004 -0.187068E-005  0.000000E+000
-0.250174E-004 -0.172919E-005  0.000000E+000
-0.245745E-004 -0.159021E-005  0.000000E+000
-0.241573E-004 -0.145477E-005  0.000000E+000
-0.237690E-004 -0.132432E-005  0.000000E+000
-0.234132E-004 -0.120079E-005  0.000000E+000
-0.230940E-004 -0.108690E-005  0.000000E+000
-0.228161E-004 -0.986404E-006  0.000000E+000
-0.225846E-004 -0.904623E-006  0.000000E+000
-0.224052E-004 -0.849162E-006  0.000000E+000
-0.222835E-004 -0.831071E-006  0.000000E+000
-0.222247E-004 -0.866669E-006  0.000000E+000
-0.222312E-004 -0.980485E-006  0.000000E+000
-0.223001E-004 -0.121008E-005  0.000000E+000
-0.224149E-004 -0.161409E-005  0.000000E+000
-0.225297E-004 -0.228594E-005  0.000000E+000
 0.129907E-004  0.149033E-004  0.000000E+000
 0.126774E-004  0.146191E-004  0.000000E+000
 0.123647E-004  0.143366E-004  0.000000E+000
 0.120526E-004  0.140561E-004  0.000000E+000
 0.117414E-004  0.137777E-004  0.000000E+000
 0.114311E-004  0.135015E-004  0.000000E+000
 0.111217E-004  0.132278E-004  0.000000E+000
 0.108135E-004  0.129567E-004  0.000000E+000
 0.105065E-004  0.126884E-004  0.000000E+000
 0.102010E-004  0.124232E-004  0.000000E+000
 0.989715E-005  0.121614E-004  0.000000E+000
 0.959518E-005  0.119032E-004  0.000000E+000
 0.929541E-005  0.116489E-004  0.000000E+000
 0.899821E-005  0.113990E-004  0.000000E+000
 0.870400E-005  0.111538E-004  0.000000E+000
 0.841333E-005  0.109137E-004  0.000000E+000
 0.812685E-005  0.106792E-004  0.000000E+000
 0.784539E-005  0.104509E-004  0.000000E+000
 0.756999E-005  0.102293E-004  0.000000E+000
 0.730193E-005  0.100151E-004  0.000000E+000
 0.704291E-005  0.980876E-005  0.000000E+000
 0.679506E-005  0.961109E-005  0.000000E+000
 0.656124E-005  0.942266E-005  0.000000E+000
 0.634519E-005  0.924398E-005  0.000000E+000
 0.615198E-005  0.907531E-005  0.000000E+000
 0.598850E-005  0.891643E-005  0.000000E+000
 0.586436E-005  0.876621E-005  0.000000E+000
 0.579319E-005  0.862188E-005  0.000000E+000
 0.579465E-005  0.847762E-005  0.000000E+000
 0.589780E-005  0.832200E-005  0.000000E+000
 0.614649E-005  0.813305E-005  0.000000E+000
 0.660854E-005  0.786850E-005  0.000000E+000
 0.739117E-005  0.744594E-005  0.000000E+000
-0.352392E-004 -0.472926E-005  0.000000E+000
-0.345875E-004 -0.457655E-005  0.000000E+000
-0.339407E-004 -0.442339E-005  0.000000E+000
-0.332991E-004 -0.426978E-005  0.000000E+000
-0.326631E-004 -0.411573E-005  0.000000E+000
-0.320332E-004 -0.396121E-005  0.000000E+000
-0.314100E-004 -0.380624E-005  0.000000E+000
-0.307938E-004 -0.365082E-005  0.000000E+000
-0.301855E-004 -0.349496E-005  0.000000E+000
-0.295856E-004 -0.333871E-005  0.000000E+000
-0.289950E-004 -0.318210E-005  0.000000E+000
-0.284146E-004 -0.302520E-005  0.000000E+000
-0.278452E-004 -0.286810E-005  0.000000E+000
-0.272881E-004 -0.271093E-005  0.000000E+000
-0.267444E-004 -0.255386E-005  0.000000E+000
-0.262157E-004 -0.239715E-005  0.000000E+000
-0.257036E-004 -0.224110E-005  0.000000E+000
-0.252099E-004 -0.208616E-005  0.000000E+000
-0.247367E-004 -0.193291E-005  0.000000E+000
-0.242866E-004 -0.178215E-005  0.000000E+000
-0.238625E-004 -0.163496E-005  0.000000E+000
-0.234674E-004 -0.149282E-005  0.000000E+000
-0.231054E-004 -0.135774E-005  0.000000E+000
-0.227808E-004 -0.123253E-005  0.000000E+000
-0.224985E-004 -0.112115E-005  0.000000E+000
-0.222643E-004 -0.102918E-005  0.000000E+000
-0.220844E-004 -0.964651E-006  0.000000E+000
-0.219657E-004 -0.939326E-006  0.000000E+000
-0.219146E-004 -0.970676E-006  0.000000E+000
-0.219359E-004 -0.108517E-005  0.000000E+000
-0.220294E-004 -0.132371E-005  0.000000E+000
-0.221827E-004 -0.175074E-005  0.000000E+000
-0.223552E-004 -0.246999E-005  0.000000E+000
 0.140198E-004  0.147871E-004  0.000000E+000
 0.136826E-004  0.144996E-004  0.000000E+000
 0.133461E-004  0.142139E-004  0.000000E+000
 0.130103E-004  0.139300E-004  0.000000E+000
 0.126754E-004  0.136480E-004  0.000000E+000
 0.123415E-004  0.133683E-004  0.000000E+000
 0.120086E-004  0.130909E-004  0.000000E+000
 0.116769E-004  0.128160E-004  0.000000E+000
 0.113465E-004  0.125438E-004  0.000000E+000
 0.110177E-004  0.122746E-004  0.000000E+000
 0.106907E-004  0.120087E-004  0.000000E+000
 0.103656E-004  0.117463E-004  0.000000E+000
 0.100429E-004  0.114877E-004  0.000000E+000
 0.972295E-005  0.112334E-004  0.000000E+000
 0.940613E-005  0.109837E-004  0.000000E+000
 0.909305E-005  0.107391E-004  0.000000E+000
 0.878438E-005  0.105000E-004  0.000000E+000
 0.848099E-005  0.102671E-004  0.000000E+000
 0.818397E-005  0.100409E-004  0.000000E+000
 0.789466E-005  0.982217E-005  0.000000E+000
 0.761483E-005  0.961158E-005  0.000000E+000
 0.734675E-005  0.940991E-005  0.000000E+000
 0.709337E-005  0.921794E-005  0.000000E+000
 0.685867E-005  0.903642E-005  0.000000E+000
 0.664796E-005  0.886593E-005  0.000000E+000
 0.646855E-005  0.870670E-005  0.000000E+000
 0.633066E-005  0.855827E-005  0.000000E+000
 0.624877E-005  0.841877E-005  0.000000E+000
 0.624400E-005  0.828370E-005  0.000000E+000
 0.634766E-005  0.814356E-005  0.000000E+000
 0.660749E-005  0.797904E-005  0.000000E+000
 0.709787E-005  0.775155E-005  0.000000E+000
 0.793772E-005  0.738335E-005  0.000000E+000
-0.350697E-004 -0.514610E-005  0.000000E+000
-0.344126E-004 -0.498243E-005  0.000000E+000
-0.337603E-004 -0.481830E-005  0.000000E+000
-0.331130E-004 -0.465369E-005  0.000000E+000
-0.324712E-004 -0.448860E-005  0.000000E+000
-0.318353E-004 -0.432302E-005  0.000000E+000
-0.312059E-004 -0.415695E-005  0.000000E+000
-0.305835E-004 -0.399040E-005  0.000000E+000
-0.299688E-004 -0.382339E-005  0.000000E+000
-0.293623E-004 -0.365593E-005  0.000000E+000
-0.287649E-004 -0.348808E-005  0.000000E+000
-0.281775E-004 -0.331989E-005  0.000000E+000
-0.276010E-004 -0.315145E-005  0.000000E+000
-0.270366E-004 -0.298290E-005  0.000000E+000
-0.264855E-004 -0.281440E-005  0.000000E+000
-0.259493E-004 -0.264619E-005  0.000000E+000
-0.254294E-004 -0.247860E-005  0.000000E+000
-0.249279E-004 -0.231206E-005  0.000000E+000
-0.244469E-004 -0.214716E-005  0.000000E+000
-0.239890E-004 -0.198471E-005  0.000000E+000
-0.235571E-004 -0.182582E-005  0.000000E+000
-0.231546E-004 -0.167198E-005  0.000000E+000
-0.227855E-004 -0.152527E-005  0.000000E+000
-0.224545E-004 -0.138861E-005  0.000000E+000
-0.221669E-004 -0.126606E-005  0.000000E+000
-0.219289E-004 -0.116346E-005  0.000000E+000
-0.217476E-004 -0.108924E-005  0.000000E+000
-0.216309E-004 -0.105577E-005  0.000000E+000
-0.215868E-004 -0.108163E-005  0.000000E+000
-0.216223E-004 -0.119516E-005  0.000000E+000
-0.217405E-004 -0.144054E-005  0.000000E+000
-0.219336E-004 -0.188816E-005  0.000000E+000
-0.221672E-004 -0.265252E-005  0.000000E+000
 0.150522E-004  0.146716E-004  0.000000E+000
 0.146912E-004  0.143808E-004  0.000000E+000
 0.143309E-004  0.140916E-004  0.000000E+000
 0.139715E-004  0.138042E-004  0.000000E+000
 0.136129E-004  0.135187E-004  0.000000E+000
 0.132554E-004  0.132352E-004  0.000000E+000
 0.128990E-004  0.129540E-004  0.000000E+000
 0.125438E-004  0.126751E-004  0.000000E+000
 0.121902E-004  0.123989E-004  0.000000E+000
 0.118381E-004  0.121256E-004  0.000000E+000
 0.114879E-004  0.118554E-004  0.000000E+000
 0.111399E-004  0.115886E-004  0.000000E+000
 0.107943E-004  0.113255E-004  0.000000E+000
 0.104516E-004  0.110665E-004  0.000000E+000
 0.101122E-004  0.108121E-004  0.000000E+000
 0.977671E-005  0.105626E-004  0.000000E+000
 0.944588E-005  0.103187E-004  0.000000E+000
 0.912059E-005  0.100808E-004  0.000000E+000
 0.880194E-005  0.984970E-005  0.000000E+000
 0.849137E-005  0.962606E-005  0.000000E+000
 0.819070E-005  0.941070E-005  0.000000E+000
 0.790229E-005  0.920452E-005  0.000000E+000
 0.762925E-005  0.900845E-005  0.000000E+000
 0.737569E-005  0.882347E-005  0.000000E+000
 0.714722E-005  0.865049E-005  0.000000E+000
 0.695151E-005  0.849020E-005  0.000000E+000
 0.679931E-005  0.834280E-005  0.000000E+000
 0.670599E-005  0.820739E-005  0.000000E+000
 0.669400E-005  0.808089E-005  0.000000E+000
 0.679694E-005  0.795583E-005  0.000000E+000
 0.706637E-005  0.781592E-005  0.000000E+000
 0.758347E-005  0.762678E-005  0.000000E+000
 0.847942E-005  0.731627E-005  0.000000E+000
-0.348996E-004 -0.557029E-005  0.000000E+000
-0.342369E-004 -0.539581E-005  0.000000E+000
-0.335787E-004 -0.522084E-005  0.000000E+000
-0.329255E-004 -0.504536E-005  0.000000E+000
-0.322776E-004 -0.486938E-005  0.000000E+000
-0.316356E-004 -0.469288E-005  0.000000E+000
-0.309998E-004 -0.451587E-005  0.000000E+000
-0.303708E-004 -0.433835E-005  0.000000E+000
-0.297493E-004 -0.416033E-005  0.000000E+000
-0.291359E-004 -0.398184E-005  0.000000E+000
-0.285314E-004 -0.380291E-005  0.000000E+000
-0.279367E-004 -0.362361E-005  0.000000E+000
-0.273527E-004 -0.344402E-005  0.000000E+000
-0.267806E-004 -0.326425E-005  0.000000E+000
-0.262217E-004 -0.308449E-005  0.000000E+000
-0.256774E-004 -0.290497E-005  0.000000E+000
-0.251493E-004 -0.272599E-005  0.000000E+000
-0.246394E-004 -0.254801E-005  0.000000E+000
-0.241500E-004 -0.237160E-005  0.000000E+000
-0.236836E-004 -0.219759E-005  0.000000E+000
-0.232433E-004 -0.202708E-005  0.000000E+000
-0.228325E-004 -0.186159E-005  0.000000E+000
-0.224555E-004 -0.170325E-005  0.000000E+000
-0.221172E-004 -0.155502E-005  0.000000E+000
-0.218233E-004 -0.142110E-005  0.000000E+000
-0.215805E-004 -0.130752E-005  0.000000E+000
-0.213967E-004 -0.122304E-005  0.000000E+000
-0.212808E-004 -0.118061E-005  0.000000E+000
-0.212425E-004 -0.119980E-005  0.000000E+000
-0.212914E-004 -0.131073E-005  0.000000E+000
-0.214340E-004 -0.156083E-005  0.000000E+000
-0.216679E-004 -0.202648E-005  0.000000E+000
-0.219658E-004 -0.283339E-005  0.000000E+000
 0.160875E-004  0.145578E-004  0.000000E+000
 0.157027E-004  0.142636E-004  0.000000E+000
 0.153187E-004  0.139709E-004  0.000000E+000
 0.149356E-004  0.136799E-004  0.000000E+000
 0.145534E-004  0.133907E-004  0.000000E+000
 0.141723E-004  0.131034E-004  0.000000E+000
 0.137924E-004  0.128182E-004  0.000000E+000
 0.134139E-004  0.125354E-004  0.000000E+000
 0.130369E-004  0.122550E-004  0.000000E+000
 0.126616E-004  0.119773E-004  0.000000E+000
 0.122883E-004  0.117027E-004  0.000000E+000
 0.119173E-004  0.114313E-004  0.000000E+000
 0.115489E-004  0.111635E-004  0.000000E+000
 0.111835E-004  0.108997E-004  0.000000E+000
 0.108216E-004  0.106403E-004  0.000000E+000
 0.104638E-004  0.103858E-004  0.000000E+000
 0.101108E-004  0.101367E-004  0.000000E+000
 0.976364E-005  0.989355E-005  0.000000E+000
 0.942340E-005  0.965713E-005  0.000000E+000
 0.909157E-005  0.942819E-005  0.000000E+000
 0.877005E-005  0.920763E-005  0.000000E+000
 0.846127E-005  0.899644E-005  0.000000E+000
 0.816847E-005  0.879571E-005  0.000000E+000
 0.789592E-005  0.860664E-005  0.000000E+000
 0.764947E-005  0.843046E-005  0.000000E+000
 0.743712E-005  0.826834E-005  0.000000E+000
 0.727014E-005  0.812113E-005  0.000000E+000
 0.716473E-005  0.798895E-005  0.000000E+000
 0.714462E-005  0.787020E-005  0.000000E+000
 0.724562E-005  0.775961E-005  0.000000E+000
 0.752312E-005  0.764421E-005  0.000000E+000
 0.806522E-005  0.749442E-005  0.000000E+000
 0.901595E-005  0.724474E-005  0.000000E+000
-0.347302E-004 -0.600129E-005  0.000000E+000
-0.340616E-004 -0.581611E-005  0.000000E+000
-0.333975E-004 -0.563043E-005  0.000000E+000
-0.327381E-004 -0.544422E-005  0.000000E+000
-0.320840E-004 -0.525749E-005  0.000000E+000
-0.314354E-004 -0.507022E-005  0.000000E+000
-0.307930E-004 -0.488242E-005  0.000000E+000
-0.301572E-004 -0.469409E-005  0.000000E+000
-0.295287E-004 -0.450523E-005  0.000000E+000
-0.289081E-004 -0.431587E-005  0.000000E+000
-0.282962E-004 -0.412604E-005  0.000000E+000
-0.276939E-004 -0.393580E-005  0.000000E+000
-0.271021E-004 -0.374522E-005  0.000000E+000
-0.265219E-004 -0.355444E-005  0.000000E+000
-0.259547E-004 -0.336360E-005  0.000000E+000
-0.254019E-004 -0.317294E-005  0.000000E+000
-0.248651E-004 -0.298277E-005  0.000000E+000
-0.243464E-004 -0.279352E-005  0.000000E+000
-0.238480E-004 -0.260578E-005  0.000000E+000
-0.233725E-004 -0.242035E-005  0.000000E+000
-0.229230E-004 -0.223835E-005  0.000000E+000
-0.225033E-004 -0.206131E-005  0.000000E+000
-0.221176E-004 -0.189137E-005  0.000000E+000
-0.217710E-004 -0.173154E-005  0.000000E+000
-0.214697E-004 -0.158612E-005  0.000000E+000
-0.212210E-004 -0.146129E-005  0.000000E+000
-0.210334E-004 -0.136608E-005  0.000000E+000
-0.209171E-004 -0.131396E-005  0.000000E+000
-0.208834E-004 -0.132538E-005  0.000000E+000
-0.209445E-004 -0.143214E-005  0.000000E+000
-0.211110E-004 -0.168484E-005  0.000000E+000
-0.213861E-004 -0.216585E-005  0.000000E+000
-0.217511E-004 -0.301251E-005  0.000000E+000
 0.171251E-004  0.144466E-004  0.000000E+000
 0.167166E-004  0.141489E-004  0.000000E+000
 0.163088E-004  0.138527E-004  0.000000E+000
 0.159020E-004  0.135580E-004  0.000000E+000
 0.154962E-004  0.132650E-004  0.000000E+000
 0.150916E-004  0.129738E-004  0.000000E+000
 0.146883E-004  0.126847E-004  0.000000E+000
 0.142864E-004  0.123976E-004  0.000000E+000
 0.138861E-004  0.121130E-004  0.000000E+000
 0.134877E-004  0.118309E-004  0.000000E+000
 0.130913E-004  0.115517E-004  0.000000E+000
 0.126974E-004  0.112756E-004  0.000000E+000
 0.123062E-004  0.110030E-004  0.000000E+000
 0.119181E-004  0.107342E-004  0.000000E+000
 0.115337E-004  0.104696E-004  0.000000E+000
 0.111536E-004  0.102098E-004  0.000000E+000
 0.107786E-004  0.995525E-005  0.000000E+000
 0.104096E-004  0.970659E-005  0.000000E+000
 0.100478E-004  0.946455E-005  0.000000E+000
 0.969470E-005  0.922996E-005  0.000000E+000
 0.935233E-005  0.900377E-005  0.000000E+000
 0.902318E-005  0.878709E-005  0.000000E+000
 0.871056E-005  0.858115E-005  0.000000E+000
 0.841894E-005  0.838736E-005  0.000000E+000
 0.815433E-005  0.820727E-005  0.000000E+000
 0.792508E-005  0.804249E-005  0.000000E+000
 0.774295E-005  0.789459E-005  0.000000E+000
 0.762485E-005  0.776468E-005  0.000000E+000
 0.759579E-005  0.765270E-005  0.000000E+000
 0.769369E-005  0.755576E-005  0.000000E+000
 0.797772E-005  0.746449E-005  0.000000E+000
 0.854303E-005  0.735474E-005  0.000000E+000
 0.954697E-005  0.716881E-005  0.000000E+000
-0.345626E-004 -0.643848E-005  0.000000E+000
-0.338881E-004 -0.624272E-005  0.000000E+000
-0.332178E-004 -0.604644E-005  0.000000E+000
-0.325521E-004 -0.584963E-005  0.000000E+000
-0.318915E-004 -0.565229E-005  0.000000E+000
-0.312363E-004 -0.545439E-005  0.000000E+000
-0.305870E-004 -0.525595E-005  0.000000E+000
-0.299442E-004 -0.505695E-005  0.000000E+000
-0.293084E-004 -0.485741E-005  0.000000E+000
-0.286804E-004 -0.465735E-005  0.000000E+000
-0.280608E-004 -0.445679E-005  0.000000E+000
-0.274506E-004 -0.425579E-005  0.000000E+000
-0.268506E-004 -0.405442E-005  0.000000E+000
-0.262621E-004 -0.385280E-005  0.000000E+000
-0.256863E-004 -0.365109E-005  0.000000E+000
-0.251246E-004 -0.344949E-005  0.000000E+000
-0.245787E-004 -0.324833E-005  0.000000E+000
-0.240507E-004 -0.304802E-005  0.000000E+000
-0.235427E-004 -0.284913E-005  0.000000E+000
-0.230575E-004 -0.265247E-005  0.000000E+000
-0.225983E-004 -0.245914E-005  0.000000E+000
-0.221688E-004 -0.227068E-005  0.000000E+000
-0.217735E-004 -0.208923E-005  0.000000E+000
-0.214178E-004 -0.191785E-005  0.000000E+000
-0.211081E-004 -0.176087E-005  0.000000E+000
-0.208523E-004 -0.162459E-005  0.000000E+000
-0.206596E-004 -0.151828E-005  0.000000E+000
-0.205414E-004 -0.145583E-005  0.000000E+000
-0.205108E-004 -0.145850E-005  0.000000E+000
-0.205828E-004 -0.155962E-005  0.000000E+000
-0.207722E-004 -0.181280E-005  0.000000E+000
-0.210887E-004 -0.230643E-005  0.000000E+000
-0.215232E-004 -0.318976E-005  0.000000E+000
 0.181646E-004  0.143387E-004  0.000000E+000
 0.177322E-004  0.140375E-004  0.000000E+000
 0.173007E-004  0.137377E-004  0.000000E+000
 0.168702E-004  0.134393E-004  0.000000E+000
 0.164409E-004  0.131425E-004  0.000000E+000
 0.160127E-004  0.128474E-004  0.000000E+000
 0.155859E-004  0.125541E-004  0.000000E+000
 0.151607E-004  0.122629E-004  0.000000E+000
 0.147372E-004  0.119739E-004  0.000000E+000
 0.143156E-004  0.116873E-004  0.000000E+000
 0.138963E-004  0.114034E-004  0.000000E+000
 0.134794E-004  0.111225E-004  0.000000E+000
 0.130654E-004  0.108449E-004  0.000000E+000
 0.126547E-004  0.105710E-004  0.000000E+000
 0.122479E-004  0.103011E-004  0.000000E+000
 0.118456E-004  0.100358E-004  0.000000E+000
 0.114485E-004  0.977558E-005  0.000000E+000
 0.110577E-004  0.952113E-005  0.000000E+000
 0.106744E-004  0.927319E-005  0.000000E+000
 0.103002E-004  0.903260E-005  0.000000E+000
 0.993697E-005  0.880041E-005  0.000000E+000
 0.958745E-005  0.857777E-005  0.000000E+000
 0.925502E-005  0.836609E-005  0.000000E+000
 0.894426E-005  0.816697E-005  0.000000E+000
 0.866140E-005  0.798224E-005  0.000000E+000
 0.841506E-005  0.781399E-005  0.000000E+000
 0.821743E-005  0.766445E-005  0.000000E+000
 0.808616E-005  0.753576E-005  0.000000E+000
 0.804741E-005  0.742946E-005  0.000000E+000
 0.814111E-005  0.734516E-005  0.000000E+000
 0.843018E-005  0.727737E-005  0.000000E+000
 0.901680E-005  0.720803E-005  0.000000E+000
 0.100721E-004  0.708849E-005  0.000000E+000
-0.343980E-004 -0.688119E-005  0.000000E+000
-0.337173E-004 -0.667496E-005  0.000000E+000
-0.330407E-004 -0.646821E-005  0.000000E+000
-0.323686E-004 -0.626092E-005  0.000000E+000
-0.317013E-004 -0.605309E-005  0.000000E+000
-0.310393E-004 -0.584470E-005  0.000000E+000
-0.303830E-004 -0.563575E-005  0.000000E+000
-0.297329E-004 -0.542624E-005  0.000000E+000
-0.290897E-004 -0.521618E-005  0.000000E+000
-0.284540E-004 -0.500557E-005  0.000000E+000
-0.278266E-004 -0.479445E-005  0.000000E+000
-0.272082E-004 -0.458287E-005  0.000000E+000
-0.265998E-004 -0.437090E-005  0.000000E+000
-0.260027E-004 -0.415864E-005  0.000000E+000
-0.254179E-004 -0.394624E-005  0.000000E+000
-0.248470E-004 -0.373392E-005  0.000000E+000
-0.242916E-004 -0.352198E-005  0.000000E+000
-0.237538E-004 -0.331081E-005  0.000000E+000
-0.232358E-004 -0.310099E-005  0.000000E+000
-0.227404E-004 -0.289331E-005  0.000000E+000
-0.222708E-004 -0.268885E-005  0.000000E+000
-0.218308E-004 -0.248915E-005  0.000000E+000
-0.214252E-004 -0.229635E-005  0.000000E+000
-0.210594E-004 -0.211349E-005  0.000000E+000
-0.207403E-004 -0.194497E-005  0.000000E+000
-0.204761E-004 -0.179715E-005  0.000000E+000
-0.202770E-004 -0.167948E-005  0.000000E+000
-0.201554E-004 -0.160619E-005  0.000000E+000
-0.201263E-004 -0.159924E-005  0.000000E+000
-0.202075E-004 -0.169333E-005  0.000000E+000
-0.204185E-004 -0.194493E-005  0.000000E+000
-0.207762E-004 -0.244835E-005  0.000000E+000
-0.212824E-004 -0.336503E-005  0.000000E+000
 0.192053E-004  0.142348E-004  0.000000E+000
 0.187491E-004  0.139301E-004  0.000000E+000
 0.182939E-004  0.136266E-004  0.000000E+000
 0.178397E-004  0.133245E-004  0.000000E+000
 0.173867E-004  0.130238E-004  0.000000E+000
 0.169351E-004  0.127247E-004  0.000000E+000
 0.164849E-004  0.124273E-004  0.000000E+000
 0.160363E-004  0.121318E-004  0.000000E+000
 0.155895E-004  0.118384E-004  0.000000E+000
 0.151448E-004  0.115472E-004  0.000000E+000
 0.147024E-004  0.112587E-004  0.000000E+000
 0.142627E-004  0.109729E-004  0.000000E+000
 0.138260E-004  0.106902E-004  0.000000E+000
 0.133928E-004  0.104110E-004  0.000000E+000
 0.129635E-004  0.101357E-004  0.000000E+000
 0.125390E-004  0.986471E-005  0.000000E+000
 0.121200E-004  0.959868E-005  0.000000E+000
 0.117074E-004  0.933824E-005  0.000000E+000
 0.113027E-004  0.908413E-005  0.000000E+000
 0.109073E-004  0.883726E-005  0.000000E+000
 0.105233E-004  0.859869E-005  0.000000E+000
 0.101535E-004  0.836970E-005  0.000000E+000
 0.980126E-005  0.815177E-005  0.000000E+000
 0.947136E-005  0.794672E-005  0.000000E+000
 0.917019E-005  0.775666E-005  0.000000E+000
 0.890663E-005  0.758410E-005  0.000000E+000
 0.869328E-005  0.743195E-005  0.000000E+000
 0.854843E-005  0.730338E-005  0.000000E+000
 0.849933E-005  0.720156E-005  0.000000E+000
 0.858785E-005  0.712869E-005  0.000000E+000
 0.888048E-005  0.708348E-005  0.000000E+000
 0.948646E-005  0.705460E-005  0.000000E+000
 0.105912E-004  0.700384E-005  0.000000E+000
-0.342373E-004 -0.732878E-005  0.000000E+000
-0.335503E-004 -0.711218E-005  0.000000E+000
-0.328672E-004 -0.689505E-005  0.000000E+000
-0.321885E-004 -0.667739E-005  0.000000E+000
-0.315144E-004 -0.645919E-005  0.000000E+000
-0.308455E-004 -0.624043E-005  0.000000E+000
-0.301820E-004 -0.602111E-005  0.000000E+000
-0.295246E-004 -0.580123E-005  0.000000E+000
-0.288738E-004 -0.558078E-005  0.000000E+000
-0.282302E-004 -0.535979E-005  0.000000E+000
-0.275947E-004 -0.513828E-005  0.000000E+000
-0.269679E-004 -0.491629E-005  0.000000E+000
-0.263510E-004 -0.469390E-005  0.000000E+000
-0.257449E-004 -0.447119E-005  0.000000E+000
-0.251509E-004 -0.424832E-005  0.000000E+000
-0.245704E-004 -0.402548E-005  0.000000E+000
-0.240052E-004 -0.380296E-005  0.000000E+000
-0.234572E-004 -0.358117E-005  0.000000E+000
-0.229288E-004 -0.336065E-005  0.000000E+000
-0.224227E-004 -0.314217E-005  0.000000E+000
-0.219421E-004 -0.292682E-005  0.000000E+000
-0.214911E-004 -0.271609E-005  0.000000E+000
-0.210743E-004 -0.251213E-005  0.000000E+000
-0.206976E-004 -0.231796E-005  0.000000E+000
-0.203680E-004 -0.213798E-005  0.000000E+000
-0.200943E-004 -0.197861E-005  0.000000E+000
-0.198874E-004 -0.184941E-005  0.000000E+000
-0.197608E-004 -0.176489E-005  0.000000E+000
-0.197315E-004 -0.174758E-005  0.000000E+000
-0.198201E-004 -0.183339E-005  0.000000E+000
-0.200511E-004 -0.208144E-005  0.000000E+000
-0.204492E-004 -0.259177E-005  0.000000E+000
-0.210286E-004 -0.353821E-005  0.000000E+000
 0.202467E-004  0.141353E-004  0.000000E+000
 0.197667E-004  0.138270E-004  0.000000E+000
 0.192877E-004  0.135199E-004  0.000000E+000
 0.188098E-004  0.132140E-004  0.000000E+000
 0.183332E-004  0.129095E-004  0.000000E+000
 0.178580E-004  0.126064E-004  0.000000E+000
 0.173844E-004  0.123048E-004  0.000000E+000
 0.169125E-004  0.120050E-004  0.000000E+000
 0.164425E-004  0.117072E-004  0.000000E+000
 0.159747E-004  0.114115E-004  0.000000E+000
 0.155093E-004  0.111181E-004  0.000000E+000
 0.150467E-004  0.108273E-004  0.000000E+000
 0.145873E-004  0.105395E-004  0.000000E+000
 0.141315E-004  0.102550E-004  0.000000E+000
 0.136799E-004  0.997411E-005  0.000000E+000
 0.132332E-004  0.969741E-005  0.000000E+000
 0.127923E-004  0.942543E-005  0.000000E+000
 0.123580E-004  0.915880E-005  0.000000E+000
 0.119319E-004  0.889832E-005  0.000000E+000
 0.115154E-004  0.864491E-005  0.000000E+000
 0.111108E-004  0.839967E-005  0.000000E+000
 0.107207E-004  0.816392E-005  0.000000E+000
 0.103487E-004  0.793930E-005  0.000000E+000
 0.999968E-005  0.772775E-005  0.000000E+000
 0.968019E-005  0.753168E-005  0.000000E+000
 0.939935E-005  0.735401E-005  0.000000E+000
 0.917011E-005  0.719827E-005  0.000000E+000
 0.901137E-005  0.706869E-005  0.000000E+000
 0.895138E-005  0.697007E-005  0.000000E+000
 0.903382E-005  0.690729E-005  0.000000E+000
 0.932861E-005  0.688351E-005  0.000000E+000
 0.995195E-005  0.689481E-005  0.000000E+000
 0.111037E-004  0.691490E-005  0.000000E+000
-0.340810E-004 -0.778056E-005  0.000000E+000
-0.333876E-004 -0.755367E-005  0.000000E+000
-0.326981E-004 -0.732627E-005  0.000000E+000
-0.320126E-004 -0.709834E-005  0.000000E+000
-0.313317E-004 -0.686988E-005  0.000000E+000
-0.306556E-004 -0.664086E-005  0.000000E+000
-0.299849E-004 -0.641129E-005  0.000000E+000
-0.293200E-004 -0.618117E-005  0.000000E+000
-0.286614E-004 -0.595048E-005  0.000000E+000
-0.280099E-004 -0.571926E-005  0.000000E+000
-0.273661E-004 -0.548751E-005  0.000000E+000
-0.267309E-004 -0.525528E-005  0.000000E+000
-0.261051E-004 -0.502264E-005  0.000000E+000
-0.254898E-004 -0.478967E-005  0.000000E+000
-0.248864E-004 -0.455652E-005  0.000000E+000
-0.242962E-004 -0.432337E-005  0.000000E+000
-0.237208E-004 -0.409051E-005  0.000000E+000
-0.231624E-004 -0.385832E-005  0.000000E+000
-0.226231E-004 -0.362734E-005  0.000000E+000
-0.221058E-004 -0.339832E-005  0.000000E+000
-0.216138E-004 -0.317232E-005  0.000000E+000
-0.211510E-004 -0.295081E-005  0.000000E+000
-0.207224E-004 -0.273592E-005  0.000000E+000
-0.203339E-004 -0.253064E-005  0.000000E+000
-0.199928E-004 -0.233936E-005  0.000000E+000
-0.197085E-004 -0.216852E-005  0.000000E+000
-0.194924E-004 -0.202774E-005  0.000000E+000
-0.193592E-004 -0.193172E-005  0.000000E+000
-0.193278E-004 -0.190345E-005  0.000000E+000
-0.194218E-004 -0.197988E-005  0.000000E+000
-0.196708E-004 -0.222249E-005  0.000000E+000
-0.201082E-004 -0.273683E-005  0.000000E+000
-0.207620E-004 -0.370918E-005  0.000000E+000
 0.212883E-004  0.140405E-004  0.000000E+000
 0.207844E-004  0.137288E-004  0.000000E+000
 0.202816E-004  0.134180E-004  0.000000E+000
 0.197801E-004  0.131084E-004  0.000000E+000
 0.192798E-004  0.127999E-004  0.000000E+000
 0.187811E-004  0.124928E-004  0.000000E+000
 0.182840E-004  0.121871E-004  0.000000E+000
 0.177887E-004  0.118831E-004  0.000000E+000
 0.172955E-004  0.115808E-004  0.000000E+000
 0.168045E-004  0.112804E-004  0.000000E+000
 0.163162E-004  0.109823E-004  0.000000E+000
 0.158307E-004  0.106865E-004  0.000000E+000
 0.153486E-004  0.103935E-004  0.000000E+000
 0.148703E-004  0.101036E-004  0.000000E+000
 0.143964E-004  0.981713E-005  0.000000E+000
 0.139276E-004  0.953460E-005  0.000000E+000
 0.134647E-004  0.925654E-005  0.000000E+000
 0.130089E-004  0.898361E-005  0.000000E+000
 0.125614E-004  0.871659E-005  0.000000E+000
 0.121239E-004  0.845641E-005  0.000000E+000
 0.116986E-004  0.820422E-005  0.000000E+000
 0.112883E-004  0.796140E-005  0.000000E+000
 0.108967E-004  0.772966E-005  0.000000E+000
 0.105286E-004  0.751111E-005  0.000000E+000
 0.101909E-004  0.730839E-005  0.000000E+000
 0.989273E-005  0.712481E-005  0.000000E+000
 0.964752E-005  0.696454E-005  0.000000E+000
 0.947466E-005  0.683280E-005  0.000000E+000
 0.940335E-005  0.673604E-005  0.000000E+000
 0.947892E-005  0.668187E-005  0.000000E+000
 0.977455E-005  0.667816E-005  0.000000E+000
 0.104132E-004  0.672904E-005  0.000000E+000
 0.116094E-004  0.682171E-005  0.000000E+000
-0.339299E-004 -0.823590E-005  0.000000E+000
-0.332300E-004 -0.799880E-005  0.000000E+000
-0.325339E-004 -0.776120E-005  0.000000E+000
-0.318417E-004 -0.752309E-005  0.000000E+000
-0.311538E-004 -0.728445E-005  0.000000E+000
-0.304705E-004 -0.704529E-005  0.000000E+000
-0.297924E-004 -0.680558E-005  0.000000E+000
-0.291199E-004 -0.656533E-005  0.000000E+000
-0.284535E-004 -0.632453E-005  0.000000E+000
-0.277939E-004 -0.608320E-005  0.000000E+000
-0.271417E-004 -0.584137E-005  0.000000E+000
-0.264978E-004 -0.559906E-005  0.000000E+000
-0.258631E-004 -0.535633E-005  0.000000E+000
-0.252385E-004 -0.511329E-005  0.000000E+000
-0.246255E-004 -0.487005E-005  0.000000E+000
-0.240252E-004 -0.462680E-005  0.000000E+000
-0.234395E-004 -0.438382E-005  0.000000E+000
-0.228703E-004 -0.414147E-005  0.000000E+000
-0.223199E-004 -0.390028E-005  0.000000E+000
-0.217910E-004 -0.366097E-005  0.000000E+000
-0.212870E-004 -0.342459E-005  0.000000E+000
-0.208120E-004 -0.319258E-005  0.000000E+000
-0.203709E-004 -0.296701E-005  0.000000E+000
-0.199698E-004 -0.275089E-005  0.000000E+000
-0.196163E-004 -0.254853E-005  0.000000E+000
-0.193202E-004 -0.236637E-005  0.000000E+000
-0.190935E-004 -0.221404E-005  0.000000E+000
-0.189522E-004 -0.210639E-005  0.000000E+000
-0.189167E-004 -0.206672E-005  0.000000E+000
-0.190140E-004 -0.213282E-005  0.000000E+000
-0.192788E-004 -0.236823E-005  0.000000E+000
-0.197539E-004 -0.288369E-005  0.000000E+000
-0.204828E-004 -0.387783E-005  0.000000E+000
 0.223297E-004  0.139507E-004  0.000000E+000
 0.218019E-004  0.136355E-004  0.000000E+000
 0.212753E-004  0.133211E-004  0.000000E+000
 0.207500E-004  0.130078E-004  0.000000E+000
 0.202260E-004  0.126955E-004  0.000000E+000
 0.197037E-004  0.123844E-004  0.000000E+000
 0.191831E-004  0.120746E-004  0.000000E+000
 0.186644E-004  0.117662E-004  0.000000E+000
 0.181479E-004  0.114595E-004  0.000000E+000
 0.176339E-004  0.111545E-004  0.000000E+000
 0.171225E-004  0.108516E-004  0.000000E+000
 0.166142E-004  0.105509E-004  0.000000E+000
 0.161094E-004  0.102527E-004  0.000000E+000
 0.156086E-004  0.995735E-005  0.000000E+000
 0.151123E-004  0.966524E-005  0.000000E+000
 0.146214E-004  0.937681E-005  0.000000E+000
 0.141367E-004  0.909261E-005  0.000000E+000
 0.136593E-004  0.881328E-005  0.000000E+000
 0.131905E-004  0.853959E-005  0.000000E+000
 0.127321E-004  0.827248E-005  0.000000E+000
 0.122863E-004  0.801312E-005  0.000000E+000
 0.118559E-004  0.776294E-005  0.000000E+000
 0.114446E-004  0.752372E-005  0.000000E+000
 0.110576E-004  0.729770E-005  0.000000E+000
 0.107016E-004  0.708775E-005  0.000000E+000
 0.103863E-004  0.689753E-005  0.000000E+000
 0.101251E-004  0.673179E-005  0.000000E+000
 0.993796E-005  0.659675E-005  0.000000E+000
 0.985498E-005  0.650048E-005  0.000000E+000
 0.992302E-005  0.645338E-005  0.000000E+000
 0.102183E-004  0.646817E-005  0.000000E+000
 0.108702E-004  0.655770E-005  0.000000E+000
 0.121081E-004  0.672432E-005  0.000000E+000
-0.337843E-004 -0.869416E-005  0.000000E+000
-0.330780E-004 -0.844691E-005  0.000000E+000
-0.323751E-004 -0.819918E-005  0.000000E+000
-0.316761E-004 -0.795096E-005  0.000000E+000
-0.309811E-004 -0.770224E-005  0.000000E+000
-0.302907E-004 -0.745302E-005  0.000000E+000
-0.296051E-004 -0.720327E-005  0.000000E+000
-0.289249E-004 -0.695300E-005  0.000000E+000
-0.282506E-004 -0.670220E-005  0.000000E+000
-0.275828E-004 -0.645090E-005  0.000000E+000
-0.269222E-004 -0.619911E-005  0.000000E+000
-0.262695E-004 -0.594686E-005  0.000000E+000
-0.256257E-004 -0.569422E-005  0.000000E+000
-0.249918E-004 -0.544126E-005  0.000000E+000
-0.243689E-004 -0.518812E-005  0.000000E+000
-0.237585E-004 -0.493498E-005  0.000000E+000
-0.231622E-004 -0.468209E-005  0.000000E+000
-0.225820E-004 -0.442981E-005  0.000000E+000
-0.220201E-004 -0.417865E-005  0.000000E+000
-0.214793E-004 -0.392932E-005  0.000000E+000
-0.209630E-004 -0.368283E-005  0.000000E+000
-0.204753E-004 -0.344061E-005  0.000000E+000
-0.200211E-004 -0.320468E-005  0.000000E+000
-0.196067E-004 -0.297799E-005  0.000000E+000
-0.192399E-004 -0.276484E-005  0.000000E+000
-0.189308E-004 -0.257158E-005  0.000000E+000
-0.186923E-004 -0.240785E-005  0.000000E+000
-0.185412E-004 -0.228853E-005  0.000000E+000
-0.184998E-004 -0.223716E-005  0.000000E+000
-0.185980E-004 -0.229215E-005  0.000000E+000
-0.188762E-004 -0.251877E-005  0.000000E+000
-0.193869E-004 -0.303248E-005  0.000000E+000
-0.201911E-004 -0.404406E-005  0.000000E+000
 0.233705E-004  0.138662E-004  0.000000E+000
 0.228187E-004  0.135474E-004  0.000000E+000
 0.222682E-004  0.132295E-004  0.000000E+000
 0.217190E-004  0.129124E-004  0.000000E+000
 0.211714E-004  0.125963E-004  0.000000E+000
 0.206254E-004  0.122812E-004  0.000000E+000
 0.200813E-004  0.119673E-004  0.000000E+000
 0.195392E-004  0.116547E-004  0.000000E+000
 0.189994E-004  0.113436E-004  0.000000E+000
 0.184621E-004  0.110341E-004  0.000000E+000
 0.179277E-004  0.107264E-004  0.000000E+000
 0.173965E-004  0.104207E-004  0.000000E+000
 0.168690E-004  0.101173E-004  0.000000E+000
 0.163457E-004  0.981659E-005  0.000000E+000
 0.158271E-004  0.951884E-005  0.000000E+000
 0.153141E-004  0.922451E-005  0.000000E+000
 0.148076E-004  0.893412E-005  0.000000E+000
 0.143086E-004  0.864832E-005  0.000000E+000
 0.138186E-004  0.836787E-005  0.000000E+000
 0.133393E-004  0.809372E-005  0.000000E+000
 0.128730E-004  0.782702E-005  0.000000E+000
 0.124226E-004  0.756924E-005  0.000000E+000
 0.119919E-004  0.732223E-005  0.000000E+000
 0.115860E-004  0.708834E-005  0.000000E+000
 0.112119E-004  0.687062E-005  0.000000E+000
 0.108794E-004  0.667307E-005  0.000000E+000
 0.106022E-004  0.650100E-005  0.000000E+000
 0.104009E-004  0.636153E-005  0.000000E+000
 0.103060E-004  0.626438E-005  0.000000E+000
 0.103660E-004  0.622272E-005  0.000000E+000
 0.106597E-004  0.625429E-005  0.000000E+000
 0.113228E-004  0.638124E-005  0.000000E+000
 0.125992E-004  0.662277E-005  0.000000E+000
-0.336446E-004 -0.915475E-005  0.000000E+000
-0.329317E-004 -0.889740E-005  0.000000E+000
-0.322221E-004 -0.863960E-005  0.000000E+000
-0.315162E-004 -0.838134E-005  0.000000E+000
-0.308142E-004 -0.812261E-005  0.000000E+000
-0.301165E-004 -0.786339E-005  0.000000E+000
-0.294234E-004 -0.760369E-005  0.000000E+000
-0.287355E-004 -0.734349E-005  0.000000E+000
-0.280533E-004 -0.708280E-005  0.000000E+000
-0.273772E-004 -0.682163E-005  0.000000E+000
-0.267081E-004 -0.656001E-005  0.000000E+000
-0.260466E-004 -0.629796E-005  0.000000E+000
-0.253936E-004 -0.603554E-005  0.000000E+000
-0.247501E-004 -0.577283E-005  0.000000E+000
-0.241174E-004 -0.550996E-005  0.000000E+000
-0.234967E-004 -0.524711E-005  0.000000E+000
-0.228896E-004 -0.498452E-005  0.000000E+000
-0.222982E-004 -0.472253E-005  0.000000E+000
-0.217246E-004 -0.446165E-005  0.000000E+000
-0.211717E-004 -0.420257E-005  0.000000E+000
-0.206427E-004 -0.394627E-005  0.000000E+000
-0.201418E-004 -0.369413E-005  0.000000E+000
-0.196740E-004 -0.344816E-005  0.000000E+000
-0.192456E-004 -0.321124E-005  0.000000E+000
-0.188648E-004 -0.298760E-005  0.000000E+000
-0.185418E-004 -0.278354E-005  0.000000E+000
-0.182901E-004 -0.260863E-005  0.000000E+000
-0.181275E-004 -0.247773E-005  0.000000E+000
-0.180783E-004 -0.241449E-005  0.000000E+000
-0.181751E-004 -0.245779E-005  0.000000E+000
-0.184639E-004 -0.267418E-005  0.000000E+000
-0.190080E-004 -0.318331E-005  0.000000E+000
-0.198872E-004 -0.420773E-005  0.000000E+000
 0.244102E-004  0.137868E-004  0.000000E+000
 0.238344E-004  0.134646E-004  0.000000E+000
 0.232599E-004  0.131431E-004  0.000000E+000
 0.226869E-004  0.128224E-004  0.000000E+000
 0.221154E-004  0.125025E-004  0.000000E+000
 0.215457E-004  0.121835E-004  0.000000E+000
 0.209780E-004  0.118656E-004  0.000000E+000
 0.204124E-004  0.115488E-004  0.000000E+000
 0.198493E-004  0.112333E-004  0.000000E+000
 0.192888E-004  0.109192E-004  0.000000E+000
 0.187313E-004  0.106068E-004  0.000000E+000
 0.181772E-004  0.102962E-004  0.000000E+000
 0.176270E-004  0.998771E-005  0.000000E+000
 0.170811E-004  0.968159E-005  0.000000E+000
 0.165402E-004  0.937821E-005  0.000000E+000
 0.160052E-004  0.907799E-005  0.000000E+000
 0.154768E-004  0.878142E-005  0.000000E+000
 0.149563E-004  0.848913E-005  0.000000E+000
 0.144451E-004  0.820187E-005  0.000000E+000
 0.139450E-004  0.792058E-005  0.000000E+000
 0.134583E-004  0.764642E-005  0.000000E+000
 0.129879E-004  0.738086E-005  0.000000E+000
 0.125378E-004  0.712581E-005  0.000000E+000
 0.121132E-004  0.688370E-005  0.000000E+000
 0.117211E-004  0.665775E-005  0.000000E+000
 0.113716E-004  0.645226E-005  0.000000E+000
 0.110786E-004  0.627303E-005  0.000000E+000
 0.108629E-004  0.612808E-005  0.000000E+000
 0.107561E-004  0.602868E-005  0.000000E+000
 0.108075E-004  0.599081E-005  0.000000E+000
 0.110988E-004  0.603731E-005  0.000000E+000
 0.117711E-004  0.620012E-005  0.000000E+000
 0.130826E-004  0.651712E-005  0.000000E+000
-0.335110E-004 -0.961713E-005  0.000000E+000
-0.327915E-004 -0.934972E-005  0.000000E+000
-0.320752E-004 -0.908190E-005  0.000000E+000
-0.313624E-004 -0.881364E-005  0.000000E+000
-0.306532E-004 -0.854495E-005  0.000000E+000
-0.299482E-004 -0.827581E-005  0.000000E+000
-0.292477E-004 -0.800622E-005  0.000000E+000
-0.285520E-004 -0.773617E-005  0.000000E+000
-0.278617E-004 -0.746567E-005  0.000000E+000
-0.271774E-004 -0.719473E-005  0.000000E+000
-0.264997E-004 -0.692338E-005  0.000000E+000
-0.258294E-004 -0.665164E-005  0.000000E+000
-0.251672E-004 -0.637958E-005  0.000000E+000
-0.245141E-004 -0.610727E-005  0.000000E+000
-0.238714E-004 -0.583483E-005  0.000000E+000
-0.232403E-004 -0.556244E-005  0.000000E+000
-0.226224E-004 -0.529034E-005  0.000000E+000
-0.220197E-004 -0.501887E-005  0.000000E+000
-0.214342E-004 -0.474851E-005  0.000000E+000
-0.208689E-004 -0.447993E-005  0.000000E+000
-0.203270E-004 -0.421409E-005  0.000000E+000
-0.198125E-004 -0.395236E-005  0.000000E+000
-0.193306E-004 -0.369667E-005  0.000000E+000
-0.188878E-004 -0.344986E-005  0.000000E+000
-0.184921E-004 -0.321610E-005  0.000000E+000
-0.181542E-004 -0.300159E-005  0.000000E+000
-0.178881E-004 -0.281581E-005  0.000000E+000
-0.177127E-004 -0.267352E-005  0.000000E+000
-0.176536E-004 -0.259839E-005  0.000000E+000
-0.177466E-004 -0.262956E-005  0.000000E+000
-0.180433E-004 -0.283448E-005  0.000000E+000
-0.186178E-004 -0.333629E-005  0.000000E+000
-0.195710E-004 -0.436874E-005  0.000000E+000
 0.254487E-004  0.137127E-004  0.000000E+000
 0.248487E-004  0.133871E-004  0.000000E+000
 0.242501E-004  0.130621E-004  0.000000E+000
 0.236531E-004  0.127377E-004  0.000000E+000
 0.230578E-004  0.124141E-004  0.000000E+000
 0.224643E-004  0.120913E-004  0.000000E+000
 0.218729E-004  0.117694E-004  0.000000E+000
 0.212838E-004  0.114484E-004  0.000000E+000
 0.206972E-004  0.111286E-004  0.000000E+000
 0.201135E-004  0.108101E-004  0.000000E+000
 0.195329E-004  0.104930E-004  0.000000E+000
 0.189558E-004  0.101775E-004  0.000000E+000
 0.183828E-004  0.986396E-005  0.000000E+000
 0.178143E-004  0.955252E-005  0.000000E+000
 0.172511E-004  0.924356E-005  0.000000E+000
 0.166939E-004  0.893747E-005  0.000000E+000
 0.161438E-004  0.863475E-005  0.000000E+000
 0.156017E-004  0.833598E-005  0.000000E+000
 0.150694E-004  0.804190E-005  0.000000E+000
 0.145485E-004  0.775343E-005  0.000000E+000
 0.140414E-004  0.747173E-005  0.000000E+000
 0.135512E-004  0.719827E-005  0.000000E+000
 0.130818E-004  0.693498E-005  0.000000E+000
 0.126386E-004  0.668437E-005  0.000000E+000
 0.122287E-004  0.644979E-005  0.000000E+000
 0.118623E-004  0.623580E-005  0.000000E+000
 0.115536E-004  0.604868E-005  0.000000E+000
 0.113238E-004  0.589723E-005  0.000000E+000
 0.112049E-004  0.579426E-005  0.000000E+000
 0.112475E-004  0.575852E-005  0.000000E+000
 0.115354E-004  0.581799E-005  0.000000E+000
 0.122149E-004  0.601485E-005  0.000000E+000
 0.135579E-004  0.640741E-005  0.000000E+000
-0.333835E-004 -0.100808E-004  0.000000E+000
-0.326575E-004 -0.980335E-005  0.000000E+000
-0.319344E-004 -0.952553E-005  0.000000E+000
-0.312147E-004 -0.924732E-005  0.000000E+000
-0.304984E-004 -0.896871E-005  0.000000E+000
-0.297861E-004 -0.868969E-005  0.000000E+000
-0.290780E-004 -0.841027E-005  0.000000E+000
-0.283746E-004 -0.813043E-005  0.000000E+000
-0.276763E-004 -0.785020E-005  0.000000E+000
-0.269838E-004 -0.756957E-005  0.000000E+000
-0.262975E-004 -0.728858E-005  0.000000E+000
-0.256182E-004 -0.700725E-005  0.000000E+000
-0.249468E-004 -0.672566E-005  0.000000E+000
-0.242842E-004 -0.644387E-005  0.000000E+000
-0.236314E-004 -0.616201E-005  0.000000E+000
-0.229899E-004 -0.588025E-005  0.000000E+000
-0.223611E-004 -0.559882E-005  0.000000E+000
-0.217469E-004 -0.531807E-005  0.000000E+000
-0.211495E-004 -0.503845E-005  0.000000E+000
-0.205716E-004 -0.476063E-005  0.000000E+000
-0.200164E-004 -0.448554E-005  0.000000E+000
-0.194882E-004 -0.421451E-005  0.000000E+000
-0.189919E-004 -0.394945E-005  0.000000E+000
-0.185339E-004 -0.369313E-005  0.000000E+000
-0.181227E-004 -0.344962E-005  0.000000E+000
-0.177692E-004 -0.322505E-005  0.000000E+000
-0.174876E-004 -0.302877E-005  0.000000E+000
-0.172978E-004 -0.287538E-005  0.000000E+000
-0.172269E-004 -0.278846E-005  0.000000E+000
-0.173138E-004 -0.280724E-005  0.000000E+000
-0.176154E-004 -0.299967E-005  0.000000E+000
-0.182172E-004 -0.349152E-005  0.000000E+000
-0.192429E-004 -0.452695E-005  0.000000E+000
 0.264855E-004  0.136437E-004  0.000000E+000
 0.258613E-004  0.133148E-004  0.000000E+000
 0.252385E-004  0.129863E-004  0.000000E+000
 0.246175E-004  0.126584E-004  0.000000E+000
 0.239982E-004  0.123311E-004  0.000000E+000
 0.233809E-004  0.120045E-004  0.000000E+000
 0.227657E-004  0.116786E-004  0.000000E+000
 0.221530E-004  0.113536E-004  0.000000E+000
 0.215429E-004  0.110296E-004  0.000000E+000
 0.209357E-004  0.107067E-004  0.000000E+000
 0.203319E-004  0.103850E-004  0.000000E+000
 0.197319E-004  0.100647E-004  0.000000E+000
 0.191360E-004  0.974613E-005  0.000000E+000
 0.185449E-004  0.942944E-005  0.000000E+000
 0.179593E-004  0.911497E-005  0.000000E+000
 0.173800E-004  0.880308E-005  0.000000E+000
 0.168080E-004  0.849426E-005  0.000000E+000
 0.162444E-004  0.818905E-005  0.000000E+000
 0.156909E-004  0.788818E-005  0.000000E+000
 0.151492E-004  0.759253E-005  0.000000E+000
 0.146219E-004  0.730326E-005  0.000000E+000
 0.141119E-004  0.702182E-005  0.000000E+000
 0.136233E-004  0.675015E-005  0.000000E+000
 0.131616E-004  0.649082E-005  0.000000E+000
 0.127341E-004  0.624729E-005  0.000000E+000
 0.123509E-004  0.602432E-005  0.000000E+000
 0.120267E-004  0.582863E-005  0.000000E+000
 0.117829E-004  0.566978E-005  0.000000E+000
 0.116520E-004  0.556195E-005  0.000000E+000
 0.116857E-004  0.552669E-005  0.000000E+000
 0.119694E-004  0.559712E-005  0.000000E+000
 0.126542E-004  0.582596E-005  0.000000E+000
 0.140248E-004  0.629370E-005  0.000000E+000
-0.332624E-004 -0.105453E-004  0.000000E+000
-0.325297E-004 -0.102578E-004  0.000000E+000
-0.317999E-004 -0.997002E-005  0.000000E+000
-0.310732E-004 -0.968188E-005  0.000000E+000
-0.303499E-004 -0.939338E-005  0.000000E+000
-0.296302E-004 -0.910452E-005  0.000000E+000
-0.289146E-004 -0.881530E-005  0.000000E+000
-0.282035E-004 -0.852573E-005  0.000000E+000
-0.274972E-004 -0.823581E-005  0.000000E+000
-0.267964E-004 -0.794556E-005  0.000000E+000
-0.261015E-004 -0.765501E-005  0.000000E+000
-0.254134E-004 -0.736419E-005  0.000000E+000
-0.247327E-004 -0.707316E-005  0.000000E+000
-0.240605E-004 -0.678200E-005  0.000000E+000
-0.233977E-004 -0.649085E-005  0.000000E+000
-0.227457E-004 -0.619986E-005  0.000000E+000
-0.221059E-004 -0.590927E-005  0.000000E+000
-0.214802E-004 -0.561941E-005  0.000000E+000
-0.208708E-004 -0.533075E-005  0.000000E+000
-0.202802E-004 -0.504392E-005  0.000000E+000
-0.197117E-004 -0.475985E-005  0.000000E+000
-0.191694E-004 -0.447984E-005  0.000000E+000
-0.186583E-004 -0.420573E-005  0.000000E+000
-0.181850E-004 -0.394027E-005  0.000000E+000
-0.177577E-004 -0.368743E-005  0.000000E+000
-0.173876E-004 -0.345323E-005  0.000000E+000
-0.170896E-004 -0.324687E-005  0.000000E+000
-0.168839E-004 -0.308276E-005  0.000000E+000
-0.167996E-004 -0.298427E-005  0.000000E+000
-0.168780E-004 -0.299056E-005  0.000000E+000
-0.171813E-004 -0.316969E-005  0.000000E+000
-0.178068E-004 -0.364907E-005  0.000000E+000
-0.189029E-004 -0.468222E-005  0.000000E+000
 0.275204E-004  0.135798E-004  0.000000E+000
 0.268719E-004  0.132476E-004  0.000000E+000
 0.262249E-004  0.129158E-004  0.000000E+000
 0.255797E-004  0.125843E-004  0.000000E+000
 0.249363E-004  0.122534E-004  0.000000E+000
 0.242950E-004  0.119231E-004  0.000000E+000
 0.236560E-004  0.115934E-004  0.000000E+000
 0.230195E-004  0.112643E-004  0.000000E+000
 0.223858E-004  0.109362E-004  0.000000E+000
 0.217553E-004  0.106089E-004  0.000000E+000
 0.211282E-004  0.102827E-004  0.000000E+000
 0.205050E-004  0.995774E-005  0.000000E+000
 0.198862E-004  0.963422E-005  0.000000E+000
 0.192725E-004  0.931236E-005  0.000000E+000
 0.186644E-004  0.899246E-005  0.000000E+000
 0.180629E-004  0.867486E-005  0.000000E+000
 0.174690E-004  0.836001E-005  0.000000E+000
 0.168839E-004  0.804844E-005  0.000000E+000
 0.163092E-004  0.774082E-005  0.000000E+000
 0.157468E-004  0.743804E-005  0.000000E+000
 0.151991E-004  0.714118E-005  0.000000E+000
 0.146694E-004  0.685175E-005  0.000000E+000
 0.141618E-004  0.657162E-005  0.000000E+000
 0.136817E-004  0.630341E-005  0.000000E+000
 0.132366E-004  0.605068E-005  0.000000E+000
 0.128369E-004  0.581832E-005  0.000000E+000
 0.124974E-004  0.561348E-005  0.000000E+000
 0.122398E-004  0.544641E-005  0.000000E+000
 0.120971E-004  0.533253E-005  0.000000E+000
 0.121216E-004  0.529610E-005  0.000000E+000
 0.124007E-004  0.537549E-005  0.000000E+000
 0.130889E-004  0.563402E-005  0.000000E+000
 0.144830E-004  0.617605E-005  0.000000E+000
-0.331475E-004 -0.110102E-004  0.000000E+000
-0.324082E-004 -0.107127E-004  0.000000E+000
-0.316716E-004 -0.104149E-004  0.000000E+000
-0.309380E-004 -0.101169E-004  0.000000E+000
-0.302076E-004 -0.981850E-005  0.000000E+000
-0.294806E-004 -0.951982E-005  0.000000E+000
-0.287575E-004 -0.922084E-005  0.000000E+000
-0.280386E-004 -0.892157E-005  0.000000E+000
-0.273244E-004 -0.862201E-005  0.000000E+000
-0.266153E-004 -0.832218E-005  0.000000E+000
-0.259119E-004 -0.802212E-005  0.000000E+000
-0.252149E-004 -0.772187E-005  0.000000E+000
-0.245250E-004 -0.742149E-005  0.000000E+000
-0.238432E-004 -0.712106E-005  0.000000E+000
-0.231704E-004 -0.682072E-005  0.000000E+000
-0.225080E-004 -0.652063E-005  0.000000E+000
-0.218573E-004 -0.622102E-005  0.000000E+000
-0.212201E-004 -0.592224E-005  0.000000E+000
-0.205985E-004 -0.562472E-005  0.000000E+000
-0.199951E-004 -0.532912E-005  0.000000E+000
-0.194132E-004 -0.503632E-005  0.000000E+000
-0.188567E-004 -0.474761E-005  0.000000E+000
-0.183306E-004 -0.446480E-005  0.000000E+000
-0.178414E-004 -0.419056E-005  0.000000E+000
-0.173976E-004 -0.392882E-005  0.000000E+000
-0.170104E-004 -0.368542E-005  0.000000E+000
-0.166949E-004 -0.346945E-005  0.000000E+000
-0.164723E-004 -0.329509E-005  0.000000E+000
-0.163725E-004 -0.318533E-005  0.000000E+000
-0.164402E-004 -0.317917E-005  0.000000E+000
-0.167423E-004 -0.334444E-005  0.000000E+000
-0.173876E-004 -0.380900E-005  0.000000E+000
-0.185513E-004 -0.483439E-005  0.000000E+000
 0.285533E-004  0.135209E-004  0.000000E+000
 0.278803E-004  0.131854E-004  0.000000E+000
 0.272090E-004  0.128502E-004  0.000000E+000
 0.265394E-004  0.125153E-004  0.000000E+000
 0.258719E-004  0.121809E-004  0.000000E+000
 0.252065E-004  0.118469E-004  0.000000E+000
 0.245436E-004  0.115134E-004  0.000000E+000
 0.238833E-004  0.111804E-004  0.000000E+000
 0.232259E-004  0.108482E-004  0.000000E+000
 0.225717E-004  0.105167E-004  0.000000E+000
 0.219213E-004  0.101861E-004  0.000000E+000
 0.212749E-004  0.985649E-005  0.000000E+000
 0.206331E-004  0.952813E-005  0.000000E+000
 0.199966E-004  0.920121E-005  0.000000E+000
 0.193660E-004  0.887598E-005  0.000000E+000
 0.187422E-004  0.855277E-005  0.000000E+000
 0.181264E-004  0.823199E-005  0.000000E+000
 0.175197E-004  0.791414E-005  0.000000E+000
 0.169238E-004  0.759988E-005  0.000000E+000
 0.163406E-004  0.729001E-005  0.000000E+000
 0.157727E-004  0.698567E-005  0.000000E+000
 0.152233E-004  0.668820E-005  0.000000E+000
 0.146966E-004  0.639963E-005  0.000000E+000
 0.141983E-004  0.612241E-005  0.000000E+000
 0.137358E-004  0.586030E-005  0.000000E+000
 0.133198E-004  0.561827E-005  0.000000E+000
 0.129652E-004  0.540373E-005  0.000000E+000
 0.126940E-004  0.522773E-005  0.000000E+000
 0.125397E-004  0.510673E-005  0.000000E+000
 0.125552E-004  0.506750E-005  0.000000E+000
 0.128291E-004  0.515382E-005  0.000000E+000
 0.135190E-004  0.543961E-005  0.000000E+000
 0.149319E-004  0.605451E-005  0.000000E+000
-0.330387E-004 -0.114752E-004  0.000000E+000
-0.322928E-004 -0.111677E-004  0.000000E+000
-0.315495E-004 -0.108599E-004  0.000000E+000
-0.308090E-004 -0.105519E-004  0.000000E+000
-0.300714E-004 -0.102437E-004  0.000000E+000
-0.293372E-004 -0.993519E-005  0.000000E+000
-0.286066E-004 -0.962646E-005  0.000000E+000
-0.278800E-004 -0.931749E-005  0.000000E+000
-0.271578E-004 -0.900832E-005  0.000000E+000
-0.264405E-004 -0.869895E-005  0.000000E+000
-0.257287E-004 -0.838943E-005  0.000000E+000
-0.250228E-004 -0.807980E-005  0.000000E+000
-0.243238E-004 -0.777012E-005  0.000000E+000
-0.236324E-004 -0.746051E-005  0.000000E+000
-0.229497E-004 -0.715106E-005  0.000000E+000
-0.222768E-004 -0.684198E-005  0.000000E+000
-0.216152E-004 -0.653348E-005  0.000000E+000
-0.209665E-004 -0.622592E-005  0.000000E+000
-0.203328E-004 -0.591972E-005  0.000000E+000
-0.197167E-004 -0.561554E-005  0.000000E+000
-0.191212E-004 -0.531426E-005  0.000000E+000
-0.185504E-004 -0.501711E-005  0.000000E+000
-0.180091E-004 -0.472594E-005  0.000000E+000
-0.175039E-004 -0.444328E-005  0.000000E+000
-0.170432E-004 -0.417305E-005  0.000000E+000
-0.166382E-004 -0.392094E-005  0.000000E+000
-0.163045E-004 -0.369583E-005  0.000000E+000
-0.160637E-004 -0.351175E-005  0.000000E+000
-0.159469E-004 -0.339118E-005  0.000000E+000
-0.160015E-004 -0.337268E-005  0.000000E+000
-0.162994E-004 -0.352373E-005  0.000000E+000
-0.169605E-004 -0.397134E-005  0.000000E+000
-0.181881E-004 -0.498327E-005  0.000000E+000
 0.295840E-004  0.134666E-004  0.000000E+000
 0.288864E-004  0.131279E-004  0.000000E+000
 0.281906E-004  0.127895E-004  0.000000E+000
 0.274967E-004  0.124512E-004  0.000000E+000
 0.268048E-004  0.121133E-004  0.000000E+000
 0.261153E-004  0.117757E-004  0.000000E+000
 0.254282E-004  0.114385E-004  0.000000E+000
 0.247439E-004  0.111017E-004  0.000000E+000
 0.240627E-004  0.107655E-004  0.000000E+000
 0.233849E-004  0.104298E-004  0.000000E+000
 0.227110E-004  0.100949E-004  0.000000E+000
 0.220413E-004  0.976083E-005  0.000000E+000
 0.213764E-004  0.942776E-005  0.000000E+000
 0.207170E-004  0.909588E-005  0.000000E+000
 0.200638E-004  0.876544E-005  0.000000E+000
 0.194177E-004  0.843673E-005  0.000000E+000
 0.187798E-004  0.811014E-005  0.000000E+000
 0.181514E-004  0.778613E-005  0.000000E+000
 0.175342E-004  0.746531E-005  0.000000E+000
 0.169303E-004  0.714849E-005  0.000000E+000
 0.163421E-004  0.683669E-005  0.000000E+000
 0.157731E-004  0.653133E-005  0.000000E+000
 0.152274E-004  0.623422E-005  0.000000E+000
 0.147109E-004  0.594809E-005  0.000000E+000
 0.142312E-004  0.567634E-005  0.000000E+000
 0.137990E-004  0.542454E-005  0.000000E+000
 0.134296E-004  0.519982E-005  0.000000E+000
 0.131450E-004  0.501424E-005  0.000000E+000
 0.129794E-004  0.488523E-005  0.000000E+000
 0.129859E-004  0.484161E-005  0.000000E+000
 0.132544E-004  0.493279E-005  0.000000E+000
 0.139443E-004  0.524339E-005  0.000000E+000
 0.153714E-004  0.592917E-005  0.000000E+000
-0.329360E-004 -0.119399E-004  0.000000E+000
-0.321835E-004 -0.116223E-004  0.000000E+000
-0.314334E-004 -0.113046E-004  0.000000E+000
-0.306860E-004 -0.109867E-004  0.000000E+000
-0.299414E-004 -0.106685E-004  0.000000E+000
-0.291999E-004 -0.103502E-004  0.000000E+000
-0.284619E-004 -0.100318E-004  0.000000E+000
-0.277276E-004 -0.971311E-005  0.000000E+000
-0.269975E-004 -0.939433E-005  0.000000E+000
-0.262721E-004 -0.907544E-005  0.000000E+000
-0.255517E-004 -0.875648E-005  0.000000E+000
-0.248372E-004 -0.843751E-005  0.000000E+000
-0.241290E-004 -0.811859E-005  0.000000E+000
-0.234282E-004 -0.779983E-005  0.000000E+000
-0.227355E-004 -0.748137E-005  0.000000E+000
-0.220523E-004 -0.716337E-005  0.000000E+000
-0.213798E-004 -0.684610E-005  0.000000E+000
-0.207196E-004 -0.652987E-005  0.000000E+000
-0.200739E-004 -0.621516E-005  0.000000E+000
-0.194450E-004 -0.590258E-005  0.000000E+000
-0.188360E-004 -0.559303E-005  0.000000E+000
-0.182508E-004 -0.528773E-005  0.000000E+000
-0.176943E-004 -0.498846E-005  0.000000E+000
-0.171728E-004 -0.469778E-005  0.000000E+000
-0.166948E-004 -0.441941E-005  0.000000E+000
-0.162716E-004 -0.415912E-005  0.000000E+000
-0.159189E-004 -0.392536E-005  0.000000E+000
-0.156590E-004 -0.373209E-005  0.000000E+000
-0.155237E-004 -0.360128E-005  0.000000E+000
-0.155629E-004 -0.357067E-005  0.000000E+000
-0.158538E-004 -0.370737E-005  0.000000E+000
-0.165263E-004 -0.413612E-005  0.000000E+000
-0.178135E-004 -0.512860E-005  0.000000E+000
 0.306124E-004  0.134169E-004  0.000000E+000
 0.298901E-004  0.130751E-004  0.000000E+000
 0.291696E-004  0.127334E-004  0.000000E+000
 0.284512E-004  0.123919E-004  0.000000E+000
 0.277349E-004  0.120505E-004  0.000000E+000
 0.270210E-004  0.117094E-004  0.000000E+000
 0.263097E-004  0.113686E-004  0.000000E+000
 0.256014E-004  0.110281E-004  0.000000E+000
 0.248962E-004  0.106879E-004  0.000000E+000
 0.241946E-004  0.103482E-004  0.000000E+000
 0.234970E-004  0.100091E-004  0.000000E+000
 0.228039E-004  0.967059E-005  0.000000E+000
 0.221158E-004  0.933291E-005  0.000000E+000
 0.214334E-004  0.899620E-005  0.000000E+000
 0.207574E-004  0.866067E-005  0.000000E+000
 0.200889E-004  0.832659E-005  0.000000E+000
 0.194289E-004  0.799432E-005  0.000000E+000
 0.187788E-004  0.766428E-005  0.000000E+000
 0.181403E-004  0.733705E-005  0.000000E+000
 0.175155E-004  0.701339E-005  0.000000E+000
 0.169071E-004  0.669427E-005  0.000000E+000
 0.163183E-004  0.638106E-005  0.000000E+000
 0.157538E-004  0.607558E-005  0.000000E+000
 0.152191E-004  0.578040E-005  0.000000E+000
 0.147223E-004  0.549921E-005  0.000000E+000
 0.142740E-004  0.523711E-005  0.000000E+000
 0.138901E-004  0.500236E-005  0.000000E+000
 0.135924E-004  0.480614E-005  0.000000E+000
 0.134158E-004  0.466874E-005  0.000000E+000
 0.134136E-004  0.461909E-005  0.000000E+000
 0.136763E-004  0.471301E-005  0.000000E+000
 0.143647E-004  0.504596E-005  0.000000E+000
 0.158007E-004  0.580020E-005  0.000000E+000
-0.328390E-004 -0.124041E-004  0.000000E+000
-0.320800E-004 -0.120765E-004  0.000000E+000
-0.313232E-004 -0.117487E-004  0.000000E+000
-0.305689E-004 -0.114208E-004  0.000000E+000
-0.298173E-004 -0.110928E-004  0.000000E+000
-0.290686E-004 -0.107646E-004  0.000000E+000
-0.283232E-004 -0.104364E-004  0.000000E+000
-0.275813E-004 -0.101081E-004  0.000000E+000
-0.268433E-004 -0.977969E-005  0.000000E+000
-0.261098E-004 -0.945128E-005  0.000000E+000
-0.253810E-004 -0.912290E-005  0.000000E+000
-0.246578E-004 -0.879460E-005  0.000000E+000
-0.239406E-004 -0.846647E-005  0.000000E+000
-0.232303E-004 -0.813861E-005  0.000000E+000
-0.225279E-004 -0.781117E-005  0.000000E+000
-0.218343E-004 -0.748434E-005  0.000000E+000
-0.211510E-004 -0.715836E-005  0.000000E+000
-0.204795E-004 -0.683359E-005  0.000000E+000
-0.198218E-004 -0.651048E-005  0.000000E+000
-0.191802E-004 -0.618968E-005  0.000000E+000
-0.185577E-004 -0.587203E-005  0.000000E+000
-0.179581E-004 -0.555883E-005  0.000000E+000
-0.173862E-004 -0.525173E-005  0.000000E+000
-0.168484E-004 -0.495337E-005  0.000000E+000
-0.163529E-004 -0.466731E-005  0.000000E+000
-0.159112E-004 -0.439920E-005  0.000000E+000
-0.155389E-004 -0.415749E-005  0.000000E+000
-0.152587E-004 -0.395542E-005  0.000000E+000
-0.151039E-004 -0.381512E-005  0.000000E+000
-0.151252E-004 -0.377271E-005  0.000000E+000
-0.154065E-004 -0.389504E-005  0.000000E+000
-0.160861E-004 -0.430339E-005  0.000000E+000
-0.174277E-004 -0.526997E-005  0.000000E+000
 0.316384E-004  0.133714E-004  0.000000E+000
 0.308913E-004  0.130266E-004  0.000000E+000
 0.301460E-004  0.126817E-004  0.000000E+000
 0.294029E-004  0.123370E-004  0.000000E+000
 0.286620E-004  0.119923E-004  0.000000E+000
 0.279236E-004  0.116478E-004  0.000000E+000
 0.271880E-004  0.113034E-004  0.000000E+000
 0.264554E-004  0.109592E-004  0.000000E+000
 0.257262E-004  0.106152E-004  0.000000E+000
 0.250007E-004  0.102716E-004  0.000000E+000
 0.242793E-004  0.992834E-005  0.000000E+000
 0.235626E-004  0.958557E-005  0.000000E+000
 0.228511E-004  0.924339E-005  0.000000E+000
 0.221456E-004  0.890197E-005  0.000000E+000
 0.214468E-004  0.856148E-005  0.000000E+000
 0.207557E-004  0.822218E-005  0.000000E+000
 0.200734E-004  0.788437E-005  0.000000E+000
 0.194015E-004  0.754845E-005  0.000000E+000
 0.187416E-004  0.721496E-005  0.000000E+000
 0.180959E-004  0.688459E-005  0.000000E+000
 0.174671E-004  0.655831E-005  0.000000E+000
 0.168587E-004  0.623737E-005  0.000000E+000
 0.162751E-004  0.592363E-005  0.000000E+000
 0.157224E-004  0.561951E-005  0.000000E+000
 0.152086E-004  0.532877E-005  0.000000E+000
 0.147446E-004  0.505655E-005  0.000000E+000
 0.143460E-004  0.481107E-005  0.000000E+000
 0.140359E-004  0.460457E-005  0.000000E+000
 0.138481E-004  0.445680E-005  0.000000E+000
 0.138379E-004  0.440159E-005  0.000000E+000
 0.140947E-004  0.449430E-005  0.000000E+000
 0.147802E-004  0.484838E-005  0.000000E+000
 0.162190E-004  0.566753E-005  0.000000E+000
-0.327478E-004 -0.128676E-004  0.000000E+000
-0.319822E-004 -0.125298E-004  0.000000E+000
-0.312187E-004 -0.121920E-004  0.000000E+000
-0.304575E-004 -0.118541E-004  0.000000E+000
-0.296989E-004 -0.115162E-004  0.000000E+000
-0.289431E-004 -0.111782E-004  0.000000E+000
-0.281903E-004 -0.108401E-004  0.000000E+000
-0.274408E-004 -0.105021E-004  0.000000E+000
-0.266951E-004 -0.101641E-004  0.000000E+000
-0.259534E-004 -0.982614E-005  0.000000E+000
-0.252164E-004 -0.948833E-005  0.000000E+000
-0.244845E-004 -0.915071E-005  0.000000E+000
-0.237584E-004 -0.881337E-005  0.000000E+000
-0.230388E-004 -0.847644E-005  0.000000E+000
-0.223266E-004 -0.814006E-005  0.000000E+000
-0.216229E-004 -0.780443E-005  0.000000E+000
-0.209289E-004 -0.746983E-005  0.000000E+000
-0.202461E-004 -0.713659E-005  0.000000E+000
-0.195765E-004 -0.680520E-005  0.000000E+000
-0.189223E-004 -0.647628E-005  0.000000E+000
-0.182864E-004 -0.615076E-005  0.000000E+000
-0.176724E-004 -0.582980E-005  0.000000E+000
-0.170852E-004 -0.551523E-005  0.000000E+000
-0.165309E-004 -0.520938E-005  0.000000E+000
-0.160179E-004 -0.491614E-005  0.000000E+000
-0.155571E-004 -0.464057E-005  0.000000E+000
-0.151650E-004 -0.439149E-005  0.000000E+000
-0.148636E-004 -0.418121E-005  0.000000E+000
-0.146880E-004 -0.403202E-005  0.000000E+000
-0.146900E-004 -0.397835E-005  0.000000E+000
-0.149578E-004 -0.408647E-005  0.000000E+000
-0.156414E-004 -0.447315E-005  0.000000E+000
-0.170306E-004 -0.540677E-005  0.000000E+000
 0.326620E-004  0.133301E-004  0.000000E+000
 0.318898E-004  0.129822E-004  0.000000E+000
 0.311196E-004  0.126343E-004  0.000000E+000
 0.303517E-004  0.122863E-004  0.000000E+000
 0.295861E-004  0.119384E-004  0.000000E+000
 0.288231E-004  0.115905E-004  0.000000E+000
 0.280630E-004  0.112426E-004  0.000000E+000
 0.273060E-004  0.108949E-004  0.000000E+000
 0.265525E-004  0.105472E-004  0.000000E+000
 0.258029E-004  0.101997E-004  0.000000E+000
 0.250576E-004  0.985247E-005  0.000000E+000
 0.243172E-004  0.950552E-005  0.000000E+000
 0.235822E-004  0.915898E-005  0.000000E+000
 0.228534E-004  0.881297E-005  0.000000E+000
 0.221316E-004  0.846767E-005  0.000000E+000
 0.214178E-004  0.812328E-005  0.000000E+000
 0.207132E-004  0.778009E-005  0.000000E+000
 0.200193E-004  0.743845E-005  0.000000E+000
 0.193379E-004  0.709886E-005  0.000000E+000
 0.186711E-004  0.676197E-005  0.000000E+000
 0.180219E-004  0.642866E-005  0.000000E+000
 0.173938E-004  0.610020E-005  0.000000E+000
 0.167913E-004  0.577827E-005  0.000000E+000
 0.162205E-004  0.546541E-005  0.000000E+000
 0.156897E-004  0.516509E-005  0.000000E+000
 0.152100E-004  0.488284E-005  0.000000E+000
 0.147972E-004  0.462645E-005  0.000000E+000
 0.144746E-004  0.440922E-005  0.000000E+000
 0.142764E-004  0.425091E-005  0.000000E+000
 0.142579E-004  0.418789E-005  0.000000E+000
 0.145092E-004  0.427995E-005  0.000000E+000
 0.151916E-004  0.464773E-005  0.000000E+000
 0.166243E-004  0.553496E-005  0.000000E+000
-0.326620E-004 -0.133301E-004  0.000000E+000
-0.318898E-004 -0.129822E-004  0.000000E+000
-0.311196E-004 -0.126343E-004  0.000000E+000
-0.303517E-004 -0.122863E-004  0.000000E+000
-0.295861E-004 -0.119384E-004  0.000000E+000
-0.288231E-004 -0.115905E-004  0.000000E+000
-0.280630E-004 -0.112426E-004  0.000000E+000
-0.273060E-004 -0.108949E-004  0.000000E+000
-0.265525E-004 -0.105472E-004  0.000000E+000
-0.258029E-004 -0.101997E-004  0.000000E+000
-0.250576E-004 -0.985247E-005  0.000000E+000
-0.243172E-004 -0.950552E-005  0.000000E+000
-0.235822E-004 -0.915898E-005  0.000000E+000
-0.228534E-004 -0.881297E-005  0.000000E+000
-0.221316E-004 -0.846767E-005  0.000000E+000
-0.214178E-004 -0.812328E-005  0.000000E+000
-0.207132E-004 -0.778009E-005  0.000000E+000
-0.200193E-004 -0.743845E-005  0.000000E+000
-0.193379E-004 -0.709886E-005  0.000000E+000
-0.186711E-004 -0.676197E-005  0.000000E+000
-0.180219E-004 -0.642866E-005  0.000000E+000
-0.173938E-004 -0.610020E-005  0.000000E+000
-0.167913E-004 -0.577827E-005  0.000000E+000
-0.162205E-004 -0.546541E-005  0.000000E+000
-0.156897E-004 -0.516509E-005  0.000000E+000
-0.152100E-004 -0.488284E-005  0.000000E+000
-0.147972E-004 -0.462645E-005  0.000000E+000
-0.144746E-004 -0.440922E-005  0.000000E+000
-0.142764E-004 -0.425091E-005  0.000000E+000
-0.142579E-004 -0.418789E-005  0.000000E+000
-0.145092E-004 -0.427995E-005  0.000000E+000
-0.151916E-004 -0.464773E-005  0.000000E+000
-0.166243E-004 -0.553496E-005  0.000000E+000
 0.327478E-004  0.128676E-004  0.000000E+000
 0.319822E-004  0.125298E-004  0.000000E+000
 0.312187E-004  0.121920E-004  0.000000E+000
 0.304575E-004  0.118541E-004  0.000000E+000
 0.296989E-004  0.115162E-004  0.000000E+000
 0.289431E-004  0.111782E-004  0.000000E+000
 0.281903E-004  0.108401E-004  0.000000E+000
 0.274408E-004  0.105021E-004  0.000000E+000
 0.266951E-004  0.101641E-004  0.000000E+000
 0.259534E-004  0.982614E-005  0.000000E+000
 0.252164E-004  0.948833E-005  0.000000E+000
 0.244845E-004  0.915071E-005  0.000000E+000
 0.237584E-004  0.881337E-005  0.000000E+000
 0.230388E-004  0.847644E-005  0.000000E+000
 0.223266E-004  0.814006E-005  0.000000E+000
 0.216229E-004  0.780443E-005  0.000000E+000
 0.209289E-004  0.746983E-005  0.000000E+000
 0.202461E-004  0.713659E-005  0.000000E+000
 0.195765E-004  0.680520E-005  0.000000E+000
 0.189223E-004  0.647628E-005  0.000000E+000
 0.182864E-004  0.615076E-005  0.000000E+000
 0.176724E-004  0.582980E-005  0.000000E+000
 0.170852E-004  0.551523E-005  0.000000E+000
 0.165309E-004  0.520938E-005  0.000000E+000
 0.160179E-004  0.491614E-005  0.000000E+000
 0.155571E-004  0.464057E-005  0.000000E+000
 0.151650E-004  0.439149E-005  0.000000E+000
 0.148636E-004  0.418121E-005  0.000000E+000
 0.146880E-004  0.403202E-005  0.000000E+000
 0.146900E-004  0.397835E-005  0.000000E+000
 0.149578E-004  0.408647E-005  0.000000E+000
 0.156414E-004  0.447315E-005  0.000000E+000
 0.170306E-004  0.540677E-005  0.000000E+000
-0.316384E-004 -0.133714E-004  0.000000E+000
-0.308913E-004 -0.130266E-004  0.000000E+000
-0.301460E-004 -0.126817E-004  0.000000E+000
-0.294029E-004 -0.123370E-004  0.000000E+000
-0.286620E-004 -0.119923E-004  0.000000E+000
-0.279236E-004 -0.116478E-004  0.000000E+000
-0.271880E-004 -0.113034E-004  0.000000E+000
-0.264554E-004 -0.109592E-004  0.000000E+000
-0.257262E-004 -0.106152E-004  0.000000E+000
-0.250007E-004 -0.102716E-004  0.000000E+000
-0.242793E-004 -0.992834E-005  0.000000E+000
-0.235626E-004 -0.958557E-005  0.000000E+000
-0.228511E-004 -0.924339E-005  0.000000E+000
-0.221456E-004 -0.890197E-005  0.000000E+000
-0.214468E-004 -0.856148E-005  0.000000E+000
-0.207557E-004 -0.822218E-005  0.000000E+000
-0.200734E-004 -0.788437E-005  0.000000E+000
-0.194015E-004 -0.754845E-005  0.000000E+000
-0.187416E-004 -0.721496E-005  0.000000E+000
-0.180959E-004 -0.688459E-005  0.000000E+000
-0.174671E-004 -0.655831E-005  0.000000E+000
-0.168587E-004 -0.623737E-005  0.000000E+000
-0.162751E-004 -0.592363E-005  0.000000E+000
-0.157224E-004 -0.561951E-005  0.000000E+000
-0.152086E-004 -0.532877E-005  0.000000E+000
-0.147446E-004 -0.505655E-005  0.000000E+000
-0.143460E-004 -0.481107E-005  0.000000E+000
-0.140359E-004 -0.460457E-005  0.000000E+000
-0.138481E-004 -0.445680E-005  0.000000E+000
-0.138379E-004 -0.440159E-005  0.000000E+000
-0.140947E-004 -0.449430E-005  0.000000E+000
-0.147802E-004 -0.484838E-005  0.000000E+000
-0.162190E-004 -0.566753E-005  0.000000E+000
 0.328390E-004  0.124041E-004  0.000000E+000
 0.320800E-004  0.120765E-004  0.000000E+000
 0.313232E-004  0.117487E-004  0.000000E+000
 0.305689E-004  0.114208E-004  0.000000E+000
 0.298173E-004  0.110928E-004  0.000000E+000
 0.290686E-004  0.107646E-004  0.000000E+000
 0.283232E-004  0.104364E-004  0.000000E+000
 0.275813E-004  0.101081E-004  0.000000E+000
 0.268433E-004  0.977969E-005  0.000000E+000
 0.261098E-004  0.945128E-005  0.000000E+000
 0.253810E-004  0.912290E-005  0.000000E+000
 0.246578E-004  0.879460E-005  0.000000E+000
 0.239406E-004  0.846647E-005  0.000000E+000
 0.232303E-004  0.813861E-005  0.000000E+000
 0.225279E-004  0.781117E-005  0.000000E+000
 0.218343E-004  0.748434E-005  0.000000E+000
 0.211510E-004  0.715836E-005  0.000000E+000
 0.204795E-004  0.683359E-005  0.000000E+000
 0.198218E-004  0.651048E-005  0.000000E+000
 0.191802E-004  0.618968E-005  0.000000E+000
 0.185577E-004  0.587203E-005  0.000000E+000
 0.179581E-004  0.555883E-005  0.000000E+000
 0.173862E-004  0.525173E-005  0.000000E+000
 0.168484E-004  0.495337E-005  0.000000E+000
 0.163529E-004  0.466731E-005  0.000000E+000
 0.159112E-004  0.439920E-005  0.000000E+000
 0.155389E-004  0.415749E-005  0.000000E+000
 0.152587E-004  0.395542E-005  0.000000E+000
 0.151039E-004  0.381512E-005  0.000000E+000
 0.151252E-004  0.377271E-005  0.000000E+000
 0.154065E-004  0.389504E-005  0.000000E+000
 0.160861E-004  0.430339E-005  0.000000E+000
 0.174277E-004  0.526997E-005  0.000000E+000
-0.306124E-004 -0.134169E-004  0.000000E+000
-0.298901E-004 -0.130751E-004  0.000000E+000
-0.291696E-004 -0.127334E-004  0.000000E+000
-0.284512E-004 -0.123919E-004  0.000000E+000
-0.277349E-004 -0.120505E-004  0.000000E+000
-0.270210E-004 -0.117094E-004  0.000000E+000
-0.263097E-004 -0.113686E-004  0.000000E+000
-0.256014E-004 -0.110281E-004  0.000000E+000
-0.248962E-004 -0.106879E-004  0.000000E+000
-0.241946E-004 -0.103482E-004  0.000000E+000
-0.234970E-004 -0.100091E-004  0.000000E+000
-0.228039E-004 -0.967059E-005  0.000000E+000
-0.221158E-004 -0.933291E-005  0.000000E+000
-0.214334E-004 -0.899620E-005  0.000000E+000
-0.207574E-004 -0.866067E-005  0.000000E+000
-0.200889E-004 -0.832659E-005  0.000000E+000
-0.194289E-004 -0.799432E-005  0.000000E+000
-0.187788E-004 -0.766428E-005  0.000000E+000
-0.181403E-004 -0.733705E-005  0.000000E+000
-0.175155E-004 -0.701339E-005  0.000000E+000
-0.169071E-004 -0.669427E-005  0.000000E+000
-0.163183E-004 -0.638106E-005  0.000000E+000
-0.157538E-004 -0.607558E-005  0.000000E+000
-0.152191E-004 -0.578040E-005  0.000000E+000
-0.147223E-004 -0.549921E-005  0.000000E+000
-0.142740E-004 -0.523711E-005  0.000000E+000
-0.138901E-004 -0.500236E-005  0.000000E+000
-0.135924E-004 -0.480614E-005  0.000000E+000
-0.134158E-004 -0.466874E-005  0.000000E+000
-0.134136E-004 -0.461909E-005  0.000000E+000
-0.136763E-004 -0.471301E-005  0.000000E+000
-0.143647E-004 -0.504596E-005  0.000000E+000
-0.158007E-004 -0.580020E-005  0.000000E+000
 0.329360E-004  0.119399E-004  0.000000E+000
 0.321835E-004  0.116223E-004  0.000000E+000
 0.314334E-004  0.113046E-004  0.000000E+000
 0.306860E-004  0.109867E-004  0.000000E+000
 0.299414E-004  0.106685E-004  0.000000E+000
 0.291999E-004  0.103502E-004  0.000000E+000
 0.284619E-004  0.100318E-004  0.000000E+000
 0.277276E-004  0.971311E-005  0.000000E+000
 0.269975E-004  0.939433E-005  0.000000E+000
 0.262721E-004  0.907544E-005  0.000000E+000
 0.255517E-004  0.875648E-005  0.000000E+000
 0.248372E-004  0.843751E-005  0.000000E+000
 0.241290E-004  0.811859E-005  0.000000E+000
 0.234282E-004  0.779983E-005  0.000000E+000
 0.227355E-004  0.748137E-005  0.000000E+000
 0.220523E-004  0.716337E-005  0.000000E+000
 0.213798E-004  0.684610E-005  0.000000E+000
 0.207196E-004  0.652987E-005  0.000000E+000
 0.200739E-004  0.621516E-005  0.000000E+000
 0.194450E-004  0.590258E-005  0.000000E+000
 0.188360E-004  0.559303E-005  0.000000E+000
 0.182508E-004  0.528773E-005  0.000000E+000
 0.176943E-004  0.498846E-005  0.000000E+000
 0.171728E-004  0.469778E-005  0.000000E+000
 0.166948E-004  0.441941E-005  0.000000E+000
 0.162716E-004  0.415912E-005  0.000000E+000
 0.159189E-004  0.392536E-005  0.000000E+000
 0.156590E-004  0.373209E-005  0.000000E+000
 0.155237E-004  0.360128E-005  0.000000E+000
 0.155629E-004  0.357067E-005  0.000000E+000
 0.158538E-004  0.370737E-005  0.000000E+000
 0.165263E-004  0.413612E-005  0.000000E+000
 0.178135E-004  0.512860E-005  0.000000E+000
-0.295840E-004 -0.134666E-004  0.000000E+000
-0.288864E-004 -0.131279E-004  0.000000E+000
-0.281906E-004 -0.127895E-004  0.000000E+000
-0.274967E-004 -0.124512E-004  0.000000E+000
-0.268048E-004 -0.121133E-004  0.000000E+000
-0.261153E-004 -0.117757E-004  0.000000E+000
-0.254282E-004 -0.114385E-004  0.000000E+000
-0.247439E-004 -0.111017E-004  0.000000E+000
-0.240627E-004 -0.107655E-004  0.000000E+000
-0.233849E-004 -0.104298E-004  0.000000E+000
-0.227110E-004 -0.100949E-004  0.000000E+000
-0.220413E-004 -0.976083E-005  0.000000E+000
-0.213764E-004 -0.942776E-005  0.000000E+000
-0.207170E-004 -0.909588E-005  0.000000E+000
-0.200638E-004 -0.876544E-005  0.000000E+000
-0.194177E-004 -0.843673E-005  0.000000E+000
-0.187798E-004 -0.811014E-005  0.000000E+000
-0.181514E-004 -0.778613E-005  0.000000E+000
-0.175342E-004 -0.746531E-005  0.000000E+000
-0.169303E-004 -0.714849E-005  0.000000E+000
-0.163421E-004 -0.683669E-005  0.000000E+000
-0.157731E-004 -0.653133E-005  0.000000E+000
-0.152274E-004 -0.623422E-005  0.000000E+000
-0.147109E-004 -0.594809E-005  0.000000E+000
-0.142312E-004 -0.567634E-005  0.000000E+000
-0.137990E-004 -0.542454E-005  0.000000E+000
-0.134296E-004 -0.519982E-005  0.000000E+000
-0.131450E-004 -0.501424E-005  0.000000E+000
-0.129794E-004 -0.488523E-005  0.000000E+000
-0.129859E-004 -0.484161E-005  0.000000E+000
-0.132544E-004 -0.493279E-005  0.000000E+000
-0.139443E-004 -0.524339E-005  0.000000E+000
-0.153714E-004 -0.592917E-005  0.000000E+000
 0.330387E-004  0.114752E-004  0.000000E+000
 0.322928E-004  0.111677E-004  0.000000E+000
 0.315495E-004  0.108599E-004  0.000000E+000
 0.308090E-004  0.105519E-004  0.000000E+000
 0.300714E-004  0.102437E-004  0.000000E+000
 0.293372E-004  0.993519E-005  0.000000E+000
 0.286066E-004  0.962646E-005  0.000000E+000
 0.278800E-004  0.931749E-005  0.000000E+000
 0.271578E-004  0.900832E-005  0.000000E+000
 0.264405E-004  0.869895E-005  0.000000E+000
 0.257287E-004  0.838943E-005  0.000000E+000
 0.250228E-004  0.807980E-005  0.000000E+000
 0.243238E-004  0.777012E-005  0.000000E+000
 0.236324E-004  0.746051E-005  0.000000E+000
 0.229497E-004  0.715106E-005  0.000000E+000
 0.222768E-004  0.684198E-005  0.000000E+000
 0.216152E-004  0.653348E-005  0.000000E+000
 0.209665E-004  0.622592E-005  0.000000E+000
 0.203328E-004  0.591972E-005  0.000000E+000
 0.197167E-004  0.561554E-005  0.000000E+000
 0.191212E-004  0.531426E-005  0.000000E+000
 0.185504E-004  0.501711E-005  0.000000E+000
 0.180091E-004  0.472594E-005  0.000000E+000
 0.175039E-004  0.444328E-005  0.000000E+000
 0.170432E-004  0.417305E-005  0.000000E+000
 0.166382E-004  0.392094E-005  0.000000E+000
 0.163045E-004  0.369583E-005  0.000000E+000
 0.160637E-004  0.351175E-005  0.000000E+000
 0.159469E-004  0.339118E-005  0.000000E+000
 0.160015E-004  0.337268E-005  0.000000E+000
 0.162994E-004  0.352373E-005  0.000000E+000
 0.169605E-004  0.397134E-005  0.000000E+000
 0.181881E-004  0.498327E-005  0.000000E+000
-0.285533E-004 -0.135209E-004  0.000000E+000
-0.278803E-004 -0.131854E-004  0.000000E+000
-0.272090E-004 -0.128502E-004  0.000000E+000
-0.265394E-004 -0.125153E-004  0.000000E+000
-0.258719E-004 -0.121809E-004  0.000000E+000
-0.252065E-004 -0.118469E-004  0.000000E+000
-0.245436E-004 -0.115134E-004  0.000000E+000
-0.238833E-004 -0.111804E-004  0.000000E+000
-0.232259E-004 -0.108482E-004  0.000000E+000
-0.225717E-004 -0.105167E-004  0.000000E+000
-0.219213E-004 -0.101861E-004  0.000000E+000
-0.212749E-004 -0.985649E-005  0.000000E+000
-0.206331E-004 -0.952813E-005  0.000000E+000
-0.199966E-004 -0.920121E-005  0.000000E+000
-0.193660E-004 -0.887598E-005  0.000000E+000
-0.187422E-004 -0.855277E-005  0.000000E+000
-0.181264E-004 -0.823199E-005  0.000000E+000
-0.175197E-004 -0.791414E-005  0.000000E+000
-0.169238E-004 -0.759988E-005  0.000000E+000
-0.163406E-004 -0.729001E-005  0.000000E+000
-0.157727E-004 -0.698567E-005  0.000000E+000
-0.152233E-004 -0.668820E-005  0.000000E+000
-0.146966E-004 -0.639963E-005  0.000000E+000
-0.141983E-004 -0.612241E-005  0.000000E+000
-0.137358E-004 -0.586030E-005  0.000000E+000
-0.133198E-004 -0.561827E-005  0.000000E+000
-0.129652E-004 -0.540373E-005  0.000000E+000
-0.126940E-004 -0.522773E-005  0.000000E+000
-0.125397E-004 -0.510673E-005  0.000000E+000
-0.125552E-004 -0.506750E-005  0.000000E+000
-0.128291E-004 -0.515382E-005  0.000000E+000
-0.135190E-004 -0.543961E-005  0.000000E+000
-0.149319E-004 -0.605451E-005  0.000000E+000
 0.331475E-004  0.110102E-004  0.000000E+000
 0.324082E-004  0.107127E-004  0.000000E+000
 0.316716E-004  0.104149E-004  0.000000E+000
 0.309380E-004  0.101169E-004  0.000000E+000
 0.302076E-004  0.981850E-005  0.000000E+000
 0.294806E-004  0.951982E-005  0.000000E+000
 0.287575E-004  0.922084E-005  0.000000E+000
 0.280386E-004  0.892157E-005  0.000000E+000
 0.273244E-004  0.862201E-005  0.000000E+000
 0.266153E-004  0.832218E-005  0.000000E+000
 0.259119E-004  0.802212E-005  0.000000E+000
 0.252149E-004  0.772187E-005  0.000000E+000
 0.245250E-004  0.742149E-005  0.000000E+000
 0.238432E-004  0.712106E-005  0.000000E+000
 0.231704E-004  0.682072E-005  0.000000E+000
 0.225080E-004  0.652063E-005  0.000000E+000
 0.218573E-004  0.622102E-005  0.000000E+000
 0.212201E-004  0.592224E-005  0.000000E+000
 0.205985E-004  0.562472E-005  0.000000E+000
 0.199951E-004  0.532912E-005  0.000000E+000
 0.194132E-004  0.503632E-005  0.000000E+000
 0.188567E-004  0.474761E-005  0.000000E+000
 0.183306E-004  0.446480E-005  0.000000E+000
 0.178414E-004  0.419056E-005  0.000000E+000
 0.173976E-004  0.392882E-005  0.000000E+000
 0.170104E-004  0.368542E-005  0.000000E+000
 0.166949E-004  0.346945E-005  0.000000E+000
 0.164723E-004  0.329509E-005  0.000000E+000
 0.163725E-004  0.318533E-005  0.000000E+000
 0.164402E-004  0.317917E-005  0.000000E+000
 0.167423E-004  0.334444E-005  0.000000E+000
 0.173876E-004  0.380900E-005  0.000000E+000
 0.185513E-004  0.483439E-005  0.000000E+000
-0.275204E-004 -0.135798E-004  0.000000E+000
-0.268719E-004 -0.132476E-004  0.000000E+000
-0.262249E-004 -0.129158E-004  0.000000E+000
-0.255797E-004 -0.125843E-004  0.000000E+000
-0.249363E-004 -0.122534E-004  0.000000E+000
-0.242950E-004 -0.119231E-004  0.000000E+000
-0.236560E-004 -0.115934E-004  0.000000E+000
-0.230195E-004 -0.112643E-004  0.000000E+000
-0.223858E-004 -0.109362E-004  0.000000E+000
-0.217553E-004 -0.106089E-004  0.000000E+000
-0.211282E-004 -0.102827E-004  0.000000E+000
-0.205050E-004 -0.995774E-005  0.000000E+000
-0.198862E-004 -0.963422E-005  0.000000E+000
-0.192725E-004 -0.931236E-005  0.000000E+000
-0.186644E-004 -0.899246E-005  0.000000E+000
-0.180629E-004 -0.867486E-005  0.000000E+000
-0.174690E-004 -0.836001E-005  0.000000E+000
-0.168839E-004 -0.804844E-005  0.000000E+000
-0.163092E-004 -0.774082E-005  0.000000E+000
-0.157468E-004 -0.743804E-005  0.000000E+000
-0.151991E-004 -0.714118E-005  0.000000E+000
-0.146694E-004 -0.685175E-005  0.000000E+000
-0.141618E-004 -0.657162E-005  0.000000E+000
-0.136817E-004 -0.630341E-005  0.000000E+000
-0.132366E-004 -0.605068E-005  0.000000E+000
-0.128369E-004 -0.581832E-005  0.000000E+000
-0.124974E-004 -0.561348E-005  0.000000E+000
-0.122398E-004 -0.544641E-005  0.000000E+000
-0.120971E-004 -0.533253E-005  0.000000E+000
-0.121216E-004 -0.529610E-005  0.000000E+000
-0.124007E-004 -0.537549E-005  0.000000E+000
-0.130889E-004 -0.563402E-005  0.000000E+000
-0.144830E-004 -0.617605E-005  0.000000E+000
 0.332624E-004  0.105453E-004  0.000000E+000
 0.325297E-004  0.102578E-004  0.000000E+000
 0.317999E-004  0.997002E-005  0.000000E+000
 0.310732E-004  0.968188E-005  0.000000E+000
 0.303499E-004  0.939338E-005  0.000000E+000
 0.296302E-004  0.910452E-005  0.000000E+000
 0.289146E-004  0.881530E-005  0.000000E+000
 0.282035E-004  0.852573E-005  0.000000E+000
 0.274972E-004  0.823581E-005  0.000000E+000
 0.267964E-004  0.794556E-005  0.000000E+000
 0.261015E-004  0.765501E-005  0.000000E+000
 0.254134E-004  0.736419E-005  0.000000E+000
 0.247327E-004  0.707316E-005  0.000000E+000
 0.240605E-004  0.678200E-005  0.000000E+000
 0.233977E-004  0.649085E-005  0.000000E+000
 0.227457E-004  0.619986E-005  0.000000E+000
 0.221059E-004  0.590927E-005  0.000000E+000
 0.214802E-004  0.561941E-005  0.000000E+000
 0.208708E-004  0.533075E-005  0.000000E+000
 0.202802E-004  0.504392E-005  0.000000E+000
 0.197117E-004  0.475985E-005  0.000000E+000
 0.191694E-004  0.447984E-005  0.000000E+000
 0.186583E-004  0.420573E-005  0.000000E+000
 0.181850E-004  0.394027E-005  0.000000E+000
 0.177577E-004  0.368743E-005  0.000000E+000
 0.173876E-004  0.345323E-005  0.000000E+000
 0.170896E-004  0.324687E-005  0.000000E+000
 0.168839E-004  0.308276E-005  0.000000E+000
 0.167996E-004  0.298427E-005  0.000000E+000
 0.168780E-004  0.299056E-005  0.000000E+000
 0.171813E-004  0.316969E-005  0.000000E+000
 0.178068E-004  0.364907E-005  0.000000E+000
 0.189029E-004  0.468222E-005  0.000000E+000
-0.264855E-004 -0.136437E-004  0.000000E+000
-0.258613E-004 -0.133148E-004  0.000000E+000
-0.252385E-004 -0.129863E-004  0.000000E+000
-0.246175E-004 -0.126584E-004  0.000000E+000
-0.239982E-004 -0.123311E-004  0.000000E+000
-0.233809E-004 -0.120045E-004  0.000000E+000
-0.227657E-004 -0.116786E-004  0.000000E+000
-0.221530E-004 -0.113536E-004  0.000000E+000
-0.215429E-004 -0.110296E-004  0.000000E+000
-0.209357E-004 -0.107067E-004  0.000000E+000
-0.203319E-004 -0.103850E-004  0.000000E+000
-0.197319E-004 -0.100647E-004  0.000000E+000
-0.191360E-004 -0.974613E-005  0.000000E+000
-0.185449E-004 -0.942944E-005  0.000000E+000
-0.179593E-004 -0.911497E-005  0.000000E+000
-0.173800E-004 -0.880308E-005  0.000000E+000
-0.168080E-004 -0.849426E-005  0.000000E+000
-0.162444E-004 -0.818905E-005  0.000000E+000
-0.156909E-004 -0.788818E-005  0.000000E+000
-0.151492E-004 -0.759253E-005  0.000000E+000
-0.146219E-004 -0.730326E-005  0.000000E+000
-0.141119E-004 -0.702182E-005  0.000000E+000
-0.136233E-004 -0.675015E-005  0.000000E+000
-0.131616E-004 -0.649082E-005  0.000000E+000
-0.127341E-004 -0.624729E-005  0.000000E+000
-0.123509E-004 -0.602432E-005  0.000000E+000
-0.120267E-004 -0.582863E-005  0.000000E+000
-0.117829E-004 -0.566978E-005  0.000000E+000
-0.116520E-004 -0.556195E-005  0.000000E+000
-0.116857E-004 -0.552669E-005  0.000000E+000
-0.119694E-004 -0.559712E-005  0.000000E+000
-0.126542E-004 -0.582596E-005  0.000000E+000
-0.140248E-004 -0.629370E-005  0.000000E+000
 0.333835E-004  0.100808E-004  0.000000E+000
 0.326575E-004  0.980335E-005  0.000000E+000
 0.319344E-004  0.952553E-005  0.000000E+000
 0.312147E-004  0.924732E-005  0.000000E+000
 0.304984E-004  0.896871E-005  0.000000E+000
 0.297861E-004  0.868969E-005  0.000000E+000
 0.290780E-004  0.841027E-005  0.000000E+000
 0.283746E-004  0.813043E-005  0.000000E+000
 0.276763E-004  0.785020E-005  0.000000E+000
 0.269838E-004  0.756957E-005  0.000000E+000
 0.262975E-004  0.728858E-005  0.000000E+000
 0.256182E-004  0.700725E-005  0.000000E+000
 0.249468E-004  0.672566E-005  0.000000E+000
 0.242842E-004  0.644387E-005  0.000000E+000
 0.236314E-004  0.616201E-005  0.000000E+000
 0.229899E-004  0.588025E-005  0.000000E+000
 0.223611E-004  0.559882E-005  0.000000E+000
 0.217469E-004  0.531807E-005  0.000000E+000
 0.211495E-004  0.503845E-005  0.000000E+000
 0.205716E-004  0.476063E-005  0.000000E+000
 0.200164E-004  0.448554E-005  0.000000E+000
 0.194882E-004  0.421451E-005  0.000000E+000
 0.189919E-004  0.394945E-005  0.000000E+000
 0.185339E-004  0.369313E-005  0.000000E+000
 0.181227E-004  0.344962E-005  0.000000E+000
 0.177692E-004  0.322505E-005  0.000000E+000
 0.174876E-004  0.302877E-005  0.000000E+000
 0.172978E-004  0.287538E-005  0.000000E+000
 0.172269E-004  0.278846E-005  0.000000E+000
 0.173138E-004  0.280724E-005  0.000000E+000
 0.176154E-004  0.299967E-005  0.000000E+000
 0.182172E-004  0.349152E-005  0.000000E+000
 0.192429E-004  0.452695E-005  0.000000E+000
-0.254487E-004 -0.137127E-004  0.000000E+000
-0.248487E-004 -0.133871E-004  0.000000E+000
-0.242501E-004 -0.130621E-004  0.000000E+000
-0.236531E-004 -0.127377E-004  0.000000E+000
-0.230578E-004 -0.124141E-004  0.000000E+000
-0.224643E-004 -0.120913E-004  0.000000E+000
-0.218729E-004 -0.117694E-004  0.000000E+000
-0.212838E-004 -0.114484E-004  0.000000E+000
-0.206972E-004 -0.111286E-004  0.000000E+000
-0.201135E-004 -0.108101E-004  0.000000E+000
-0.195329E-004 -0.104930E-004  0.000000E+000
-0.189558E-004 -0.101775E-004  0.000000E+000
-0.183828E-004 -0.986396E-005  0.000000E+000
-0.178143E-004 -0.955252E-005  0.000000E+000
-0.172511E-004 -0.924356E-005  0.000000E+000
-0.166939E-004 -0.893747E-005  0.000000E+000
-0.161438E-004 -0.863475E-005  0.000000E+000
-0.156017E-004 -0.833598E-005  0.000000E+000
-0.150694E-004 -0.804190E-005  0.000000E+000
-0.145485E-004 -0.775343E-005  0.000000E+000
-0.140414E-004 -0.747173E-005  0.000000E+000
-0.135512E-004 -0.719827E-005  0.000000E+000
-0.130818E-004 -0.693498E-005  0.000000E+000
-0.126386E-004 -0.668437E-005  0.000000E+000
-0.122287E-004 -0.644979E-005  0.000000E+000
-0.118623E-004 -0.623580E-005  0.000000E+000
-0.115536E-004 -0.604868E-005  0.000000E+000
-0.113238E-004 -0.589723E-005  0.000000E+000
-0.112049E-004 -0.579426E-005  0.000000E+000
-0.112475E-004 -0.575852E-005  0.000000E+000
-0.115354E-004 -0.581799E-005  0.000000E+000
-0.122149E-004 -0.601485E-005  0.000000E+000
-0.135579E-004 -0.640741E-005  0.000000E+000
 0.335110E-004  0.961713E-005  0.000000E+000
 0.327915E-004  0.934972E-005  0.000000E+000
 0.320752E-004  0.908190E-005  0.000000E+000
 0.313624E-004  0.881364E-005  0.000000E+000
 0.306532E-004  0.854495E-005  0.000000E+000
 0.299482E-004  0.827581E-005  0.000000E+000
 0.292477E-004  0.800622E-005  0.000000E+000
 0.285520E-004  0.773617E-005  0.000000E+000
 0.278617E-004  0.746567E-005  0.000000E+000
 0.271774E-004  0.719473E-005  0.000000E+000
 0.264997E-004  0.692338E-005  0.000000E+000
 0.258294E-004  0.665164E-005  0.000000E+000
 0.251672E-004  0.637958E-005  0.000000E+000
 0.245141E-004  0.610727E-005  0.000000E+000
 0.238714E-004  0.583483E-005  0.000000E+000
 0.232403E-004  0.556244E-005  0.000000E+000
 0.226224E-004  0.529034E-005  0.000000E+000
 0.220197E-004  0.501887E-005  0.000000E+000
 0.214342E-004  0.474851E-005  0.000000E+000
 0.208689E-004  0.447993E-005  0.000000E+000
 0.203270E-004  0.421409E-005  0.000000E+000
 0.198125E-004  0.395236E-005  0.000000E+000
 0.193306E-004  0.369667E-005  0.000000E+000
 0.188878E-004  0.344986E-005  0.000000E+000
 0.184921E-004  0.321610E-005  0.000000E+000
 0.181542E-004  0.300159E-005  0.000000E+000
 0.178881E-004  0.281581E-005  0.000000E+000
 0.177127E-004  0.267352E-005  0.000000E+000
 0.176536E-004  0.259839E-005  0.000000E+000
 0.177466E-004  0.262956E-005  0.000000E+000
 0.180433E-004  0.283448E-005  0.000000E+000
 0.186178E-004  0.333629E-005  0.000000E+000
 0.195710E-004  0.436874E-005  0.000000E+000
-0.244102E-004 -0.137868E-004  0.000000E+000
-0.238344E-004 -0.134646E-004  0.000000E+000
-0.232599E-004 -0.131431E-004  0.000000E+000
-0.226869E-004 -0.128224E-004  0.000000E+000
-0.221154E-004 -0.125025E-004  0.000000E+000
-0.215457E-004 -0.121835E-004  0.000000E+000
-0.209780E-004 -0.118656E-004  0.000000E+000
-0.204124E-004 -0.115488E-004  0.000000E+000
-0.198493E-004 -0.112333E-004  0.000000E+000
-0.192888E-004 -0.109192E-004  0.000000E+000
-0.187313E-004 -0.106068E-004  0.000000E+000
-0.181772E-004 -0.102962E-004  0.000000E+000
-0.176270E-004 -0.998771E-005  0.000000E+000
-0.170811E-004 -0.968159E-005  0.000000E+000
-0.165402E-004 -0.937821E-005  0.000000E+000
-0.160052E-004 -0.907799E-005  0.000000E+000
-0.154768E-004 -0.878142E-005  0.000000E+000
-0.149563E-004 -0.848913E-005  0.000000E+000
-0.144451E-004 -0.820187E-005  0.000000E+000
-0.139450E-004 -0.792058E-005  0.000000E+000
-0.134583E-004 -0.764642E-005  0.000000E+000
-0.129879E-004 -0.738086E-005  0.000000E+000
-0.125378E-004 -0.712581E-005  0.000000E+000
-0.121132E-004 -0.688370E-005  0.000000E+000
-0.117211E-004 -0.665775E-005  0.000000E+000
-0.113716E-004 -0.645226E-005  0.000000E+000
-0.110786E-004 -0.627303E-005  0.000000E+000
-0.108629E-004 -0.612808E-005  0.000000E+000
-0.107561E-004 -0.602868E-005  0.000000E+000
-0.108075E-004 -0.599081E-005  0.000000E+000
-0.110988E-004 -0.603731E-005  0.000000E+000
-0.117711E-004 -0.620012E-005  0.000000E+000
-0.130826E-004 -0.651712E-005  0.000000E+000
 0.336446E-004  0.915475E-005  0.000000E+000
 0.329317E-004  0.889740E-005  0.000000E+000
 0.322221E-004  0.863960E-005  0.000000E+000
 0.315162E-004  0.838134E-005  0.000000E+000
 0.308142E-004  0.812261E-005  0.000000E+000
 0.301165E-004  0.786339E-005  0.000000E+000
 0.294234E-004  0.760369E-005  0.000000E+000
 0.287355E-004  0.734349E-005  0.000000E+000
 0.280533E-004  0.708280E-005  0.000000E+000
 0.273772E-004  0.682163E-005  0.000000E+000
 0.267081E-004  0.656001E-005  0.000000E+000
 0.260466E-004  0.629796E-005  0.000000E+000
 0.253936E-004  0.603554E-005  0.000000E+000
 0.247501E-004  0.577283E-005  0.000000E+000
 0.241174E-004  0.550996E-005  0.000000E+000
 0.234967E-004  0.524711E-005  0.000000E+000
 0.228896E-004  0.498452E-005  0.000000E+000
 0.222982E-004  0.472253E-005  0.000000E+000
 0.217246E-004  0.446165E-005  0.000000E+000
 0.211717E-004  0.420257E-005  0.000000E+000
 0.206427E-004  0.394627E-005  0.000000E+000
 0.201418E-004  0.369413E-005  0.000000E+000
 0.196740E-004  0.344816E-005  0.000000E+000
 0.192456E-004  0.321124E-005  0.000000E+000
 0.188648E-004  0.298760E-005  0.000000E+000
 0.185418E-004  0.278354E-005  0.000000E+000
 0.182901E-004  0.260863E-005  0.000000E+000
 0.181275E-004  0.247773E-005  0.000000E+000
 0.180783E-004  0.241449E-005  0.000000E+000
 0.181751E-004  0.245779E-005  0.000000E+000
 0.184639E-004  0.267418E-005  0.000000E+000
 0.190080E-004  0.318331E-005  0.000000E+000
 0.198872E-004  0.420773E-005  0.000000E+000
-0.233705E-004 -0.138662E-004  0.000000E+000
-0.228187E-004 -0.135474E-004  0.000000E+000
-0.222682E-004 -0.132295E-004  0.000000E+000
-0.217190E-004 -0.129124E-004  0.000000E+000
-0.211714E-004 -0.125963E-004  0.000000E+000
-0.206254E-004 -0.122812E-004  0.000000E+000
-0.200813E-004 -0.119673E-004  0.000000E+000
-0.195392E-004 -0.116547E-004  0.000000E+000
-0.189994E-004 -0.113436E-004  0.000000E+000
-0.184621E-004 -0.110341E-004  0.000000E+000
-0.179277E-004 -0.107264E-004  0.000000E+000
-0.173965E-004 -0.104207E-004  0.000000E+000
-0.168690E-004 -0.101173E-004  0.000000E+000
-0.163457E-004 -0.981659E-005  0.000000E+000
-0.158271E-004 -0.951884E-005  0.000000E+000
-0.153141E-004 -0.922451E-005  0.000000E+000
-0.148076E-004 -0.893412E-005  0.000000E+000
-0.143086E-004 -0.864832E-005  0.000000E+000
-0.138186E-004 -0.836787E-005  0.000000E+000
-0.133393E-004 -0.809372E-005  0.000000E+000
-0.128730E-004 -0.782702E-005  0.000000E+000
-0.124226E-004 -0.756924E-005  0.000000E+000
-0.119919E-004 -0.732223E-005  0.000000E+000
-0.115860E-004 -0.708834E-005  0.000000E+000
-0.112119E-004 -0.687062E-005  0.000000E+000
-0.108794E-004 -0.667307E-005  0.000000E+000
-0.106022E-004 -0.650100E-005  0.000000E+000
-0.104009E-004 -0.636153E-005  0.000000E+000
-0.103060E-004 -0.626438E-005  0.000000E+000
-0.103660E-004 -0.622272E-005  0.000000E+000
-0.106597E-004 -0.625429E-005  0.000000E+000
-0.113228E-004 -0.638124E-005  0.000000E+000
-0.125992E-004 -0.662277E-005  0.000000E+000
 0.337843E-004  0.869416E-005  0.000000E+000
 0.330780E-004  0.844691E-005  0.000000E+000
 0.323751E-004  0.819918E-005  0.000000E+000
 0.316761E-004  0.795096E-005  0.000000E+000
 0.309811E-004  0.770224E-005  0.000000E+000
 0.302907E-004  0.745302E-005  0.000000E+000
 0.296051E-004  0.720327E-005  0.000000E+000
 0.289249E-004  0.695300E-005  0.000000E+000
 0.282506E-004  0.670220E-005  0.000000E+000
 0.275828E-004  0.645090E-005  0.000000E+000
 0.269222E-004  0.619911E-005  0.000000E+000
 0.262695E-004  0.594686E-005  0.000000E+000
 0.256257E-004  0.569422E-005  0.000000E+000
 0.249918E-004  0.544126E-005  0.000000E+000
 0.243689E-004  0.518812E-005  0.000000E+000
 0.237585E-004  0.493498E-005  0.000000E+000
 0.231622E-004  0.468209E-005  0.000000E+000
 0.225820E-004  0.442981E-005  0.000000E+000
 0.220201E-004  0.417865E-005  0.000000E+000
 0.214793E-004  0.392932E-005  0.000000E+000
 0.209630E-004  0.368283E-005  0.000000E+000
 0.204753E-004  0.344061E-005  0.000000E+000
 0.200211E-004  0.320468E-005  0.000000E+000
 0.196067E-004  0.297799E-005  0.000000E+000
 0.192399E-004  0.276484E-005  0.000000E+000
 0.189308E-004  0.257158E-005  0.000000E+000
 0.186923E-004  0.240785E-005  0.000000E+000
 0.185412E-004  0.228853E-005  0.000000E+000
 0.184998E-004  0.223716E-005  0.000000E+000
 0.185980E-004  0.229215E-005  0.000000E+000
 0.188762E-004  0.251877E-005  0.000000E+000
 0.193869E-004  0.303248E-005  0.000000E+000
 0.201911E-004  0.404406E-005  0.000000E+000
-0.223297E-004 -0.139507E-004  0.000000E+000
-0.218019E-004 -0.136355E-004  0.000000E+000
-0.212753E-004 -0.133211E-004  0.000000E+000
-0.207500E-004 -0.130078E-004  0.000000E+000
-0.202260E-004 -0.126955E-004  0.000000E+000
-0.197037E-004 -0.123844E-004  0.000000E+000
-0.191831E-004 -0.120746E-004  0.000000E+000
-0.186644E-004 -0.117662E-004  0.000000E+000
-0.181479E-004 -0.114595E-004  0.000000E+000
-0.176339E-004 -0.111545E-004  0.000000E+000
-0.171225E-004 -0.108516E-004  0.000000E+000
-0.166142E-004 -0.105509E-004  0.000000E+000
-0.161094E-004 -0.102527E-004  0.000000E+000
-0.156086E-004 -0.995735E-005  0.000000E+000
-0.151123E-004 -0.966524E-005  0.000000E+000
-0.146214E-004 -0.937681E-005  0.000000E+000
-0.141367E-004 -0.909261E-005  0.000000E+000
-0.136593E-004 -0.881328E-005  0.000000E+000
-0.131905E-004 -0.853959E-005  0.000000E+000
-0.127321E-004 -0.827248E-005  0.000000E+000
-0.122863E-004 -0.801312E-005  0.000000E+000
-0.118559E-004 -0.776294E-005  0.000000E+000
-0.114446E-004 -0.752372E-005  0.000000E+000
-0.110576E-004 -0.729770E-005  0.000000E+000
-0.107016E-004 -0.708775E-005  0.000000E+000
-0.103863E-004 -0.689753E-005  0.000000E+000
-0.101251E-004 -0.673179E-005  0.000000E+000
-0.993796E-005 -0.659675E-005  0.000000E+000
-0.985498E-005 -0.650048E-005  0.000000E+000
-0.992302E-005 -0.645338E-005  0.000000E+000
-0.102183E-004 -0.646817E-005  0.000000E+000
-0.108702E-004 -0.655770E-005  0.000000E+000
-0.121081E-004 -0.672432E-005  0.000000E+000
 0.339299E-004  0.823590E-005  0.000000E+000
 0.332300E-004  0.799880E-005  0.000000E+000
 0.325339E-004  0.776120E-005  0.000000E+000
 0.318417E-004  0.752309E-005  0.000000E+000
 0.311538E-004  0.728445E-005  0.000000E+000
 0.304705E-004  0.704529E-005  0.000000E+000
 0.297924E-004  0.680558E-005  0.000000E+000
 0.291199E-004  0.656533E-005  0.000000E+000
 0.284535E-004  0.632453E-005  0.000000E+000
 0.277939E-004  0.608320E-005  0.000000E+000
 0.271417E-004  0.584137E-005  0.000000E+000
 0.264978E-004  0.559906E-005  0.000000E+000
 0.258631E-004  0.535633E-005  0.000000E+000
 0.252385E-004  0.511329E-005  0.000000E+000
 0.246255E-004  0.487005E-005  0.000000E+000
 0.240252E-004  0.462680E-005  0.000000E+000
 0.234395E-004  0.438382E-005  0.000000E+000
 0.228703E-004  0.414147E-005  0.000000E+000
 0.223199E-004  0.390028E-005  0.000000E+000
 0.217910E-004  0.366097E-005  0.000000E+000
 0.212870E-004  0.342459E-005  0.000000E+000
 0.208120E-004  0.319258E-005  0.000000E+000
 0.203709E-004  0.296701E-005  0.000000E+000
 0.199698E-004  0.275089E-005  0.000000E+000
 0.196163E-004  0.254853E-005  0.000000E+000
 0.193202E-004  0.236637E-005  0.000000E+000
 0.190935E-004  0.221404E-005  0.000000E+000
 0.189522E-004  0.210639E-005  0.000000E+000
 0.189167E-004  0.206672E-005  0.000000E+000
 0.190140E-004  0.213282E-005  0.000000E+000
 0.192788E-004  0.236823E-005  0.000000E+000
 0.197539E-004  0.288369E-005  0.000000E+000
 0.204828E-004  0.387783E-005  0.000000E+000
-0.212883E-004 -0.140405E-004  0.000000E+000
-0.207844E-004 -0.137288E-004  0.000000E+000
-0.202816E-004 -0.134180E-004  0.000000E+000
-0.197801E-004 -0.131084E-004  0.000000E+000
-0.192798E-004 -0.127999E-004  0.000000E+000
-0.187811E-004 -0.124928E-004  0.000000E+000
-0.182840E-004 -0.121871E-004  0.000000E+000
-0.177887E-004 -0.118831E-004  0.000000E+000
-0.172955E-004 -0.115808E-004  0.000000E+000
-0.168045E-004 -0.112804E-004  0.000000E+000
-0.163162E-004 -0.109823E-004  0.000000E+000
-0.158307E-004 -0.106865E-004  0.000000E+000
-0.153486E-004 -0.103935E-004  0.000000E+000
-0.148703E-004 -0.101036E-004  0.000000E+000
-0.143964E-004 -0.981713E-005  0.000000E+000
-0.139276E-004 -0.953460E-005  0.000000E+000
-0.134647E-004 -0.925654E-005  0.000000E+000
-0.130089E-004 -0.898361E-005  0.000000E+000
-0.125614E-004 -0.871659E-005  0.000000E+000
-0.121239E-004 -0.845641E-005  0.000000E+000
-0.116986E-004 -0.820422E-005  0.000000E+000
-0.112883E-004 -0.796140E-005  0.000000E+000
-0.108967E-004 -0.772966E-005  0.000000E+000
-0.105286E-004 -0.751111E-005  0.000000E+000
-0.101909E-004 -0.730839E-005  0.000000E+000
-0.989273E-005 -0.712481E-005  0.000000E+000
-0.964752E-005 -0.696454E-005  0.000000E+000
-0.947466E-005 -0.683280E-005  0.000000E+000
-0.940335E-005 -0.673604E-005  0.000000E+000
-0.947892E-005 -0.668187E-005  0.000000E+000
-0.977455E-005 -0.667816E-005  0.000000E+000
-0.104132E-004 -0.672904E-005  0.000000E+000
-0.116094E-004 -0.682171E-005  0.000000E+000
 0.340810E-004  0.778056E-005  0.000000E+000
 0.333876E-004  0.755367E-005  0.000000E+000
 0.326981E-004  0.732627E-005  0.000000E+000
 0.320126E-004  0.709834E-005  0.000000E+000
 0.313317E-004  0.686988E-005  0.000000E+000
 0.306556E-004  0.664086E-005  0.000000E+000
 0.299849E-004  0.641129E-005  0.000000E+000
 0.293200E-004  0.618117E-005  0.000000E+000
 0.286614E-004  0.595048E-005  0.000000E+000
 0.280099E-004  0.571926E-005  0.000000E+000
 0.273661E-004  0.548751E-005  0.000000E+000
 0.267309E-004  0.525528E-005  0.000000E+000
 0.261051E-004  0.502264E-005  0.000000E+000
 0.254898E-004  0.478967E-005  0.000000E+000
 0.248864E-004  0.455652E-005  0.000000E+000
 0.242962E-004  0.432337E-005  0.000000E+000
 0.237208E-004  0.409051E-005  0.000000E+000
 0.231624E-004  0.385832E-005  0.000000E+000
 0.226231E-004  0.362734E-005  0.000000E+000
 0.221058E-004  0.339832E-005  0.000000E+000
 0.216138E-004  0.317232E-005  0.000000E+000
 0.211510E-004  0.295081E-005  0.000000E+000
 0.207224E-004  0.273592E-005  0.000000E+000
 0.203339E-004  0.253064E-005  0.000000E+000
 0.199928E-004  0.233936E-005  0.000000E+000
 0.197085E-004  0.216852E-005  0.000000E+000
 0.194924E-004  0.202774E-005  0.000000E+000
 0.193592E-004  0.193172E-005  0.000000E+000
 0.193278E-004  0.190345E-005  0.000000E+000
 0.194218E-004  0.197988E-005  0.000000E+000
 0.196708E-004  0.222249E-005  0.000000E+000
 0.201082E-004  0.273683E-005  0.000000E+000
 0.207620E-004  0.370918E-005  0.000000E+000
-0.202467E-004 -0.141353E-004  0.000000E+000
-0.197667E-004 -0.138270E-004  0.000000E+000
-0.192877E-004 -0.135199E-004  0.000000E+000
-0.188098E-004 -0.132140E-004  0.000000E+000
-0.183332E-004 -0.129095E-004  0.000000E+000
-0.178580E-004 -0.126064E-004  0.000000E+000
-0.173844E-004 -0.123048E-004  0.000000E+000
-0.169125E-004 -0.120050E-004  0.000000E+000
-0.164425E-004 -0.117072E-004  0.000000E+000
-0.159747E-004 -0.114115E-004  0.000000E+000
-0.155093E-004 -0.111181E-004  0.000000E+000
-0.150467E-004 -0.108273E-004  0.000000E+000
-0.145873E-004 -0.105395E-004  0.000000E+000
-0.141315E-004 -0.102550E-004  0.000000E+000
-0.136799E-004 -0.997411E-005  0.000000E+000
-0.132332E-004 -0.969741E-005  0.000000E+000
-0.127923E-004 -0.942543E-005  0.000000E+000
-0.123580E-004 -0.915880E-005  0.000000E+000
-0.119319E-004 -0.889832E-005  0.000000E+000
-0.115154E-004 -0.864491E-005  0.000000E+000
-0.111108E-004 -0.839967E-005  0.000000E+000
-0.107207E-004 -0.816392E-005  0.000000E+000
-0.103487E-004 -0.793930E-005  0.000000E+000
-0.999968E-005 -0.772775E-005  0.000000E+000
-0.968019E-005 -0.753168E-005  0.000000E+000
-0.939935E-005 -0.735401E-005  0.000000E+000
-0.917011E-005 -0.719827E-005  0.000000E+000
-0.901137E-005 -0.706869E-005  0.000000E+000
-0.895138E-005 -0.697007E-005  0.000000E+000
-0.903382E-005 -0.690729E-005  0.000000E+000
-0.932861E-005 -0.688351E-005  0.000000E+000
-0.995195E-005 -0.689481E-005  0.000000E+000
-0.111037E-004 -0.691490E-005  0.000000E+000
 0.342373E-004  0.732878E-005  0.000000E+000
 0.335503E-004  0.711218E-005  0.000000E+000
 0.328672E-004  0.689505E-005  0.000000E+000
 0.321885E-004  0.667739E-005  0.000000E+000
 0.315144E-004  0.645919E-005  0.000000E+000
 0.308455E-004  0.624043E-005  0.000000E+000
 0.301820E-004  0.602111E-005  0.000000E+000
 0.295246E-004  0.580123E-005  0.000000E+000
 0.288738E-004  0.558078E-005  0.000000E+000
 0.282302E-004  0.535979E-005  0.000000E+000
 0.275947E-004  0.513828E-005  0.000000E+000
 0.269679E-004  0.491629E-005  0.000000E+000
 0.263510E-004  0.469390E-005  0.000000E+000
 0.257449E-004  0.447119E-005  0.000000E+000
 0.251509E-004  0.424832E-005  0.000000E+000
 0.245704E-004  0.402548E-005  0.000000E+000
 0.240052E-004  0.380296E-005  0.000000E+000
 0.234572E-004  0.358117E-005  0.000000E+000
 0.229288E-004  0.336065E-005  0.000000E+000
 0.224227E-004  0.314217E-005  0.000000E+000
 0.219421E-004  0.292682E-005  0.000000E+000
 0.214911E-004  0.271609E-005  0.000000E+000
 0.210743E-004  0.251213E-005  0.000000E+000
 0.206976E-004  0.231796E-005  0.000000E+000
 0.203680E-004  0.213798E-005  0.000000E+000
 0.200943E-004  0.197861E-005  0.000000E+000
 0.198874E-004  0.184941E-005  0.000000E+000
 0.197608E-004  0.176489E-005  0.000000E+000
 0.197315E-004  0.174758E-005  0.000000E+000
 0.198201E-004  0.183339E-005  0.000000E+000
 0.200511E-004  0.208144E-005  0.000000E+000
 0.204492E-004  0.259177E-005  0.000000E+000
 0.210286E-004  0.353821E-005  0.000000E+000
-0.192053E-004 -0.142348E-004  0.000000E+000
-0.187491E-004 -0.139301E-004  0.000000E+000
-0.182939E-004 -0.136266E-004  0.000000E+000
-0.178397E-004 -0.133245E-004  0.000000E+000
-0.173867E-004 -0.130238E-004  0.000000E+000
-0.169351E-004 -0.127247E-004  0.000000E+000
-0.164849E-004 -0.124273E-004  0.000000E+000
-0.160363E-004 -0.121318E-004  0.000000E+000
-0.155895E-004 -0.118384E-004  0.000000E+000
-0.151448E-004 -0.115472E-004  0.000000E+000
-0.147024E-004 -0.112587E-004  0.000000E+000
-0.142627E-004 -0.109729E-004  0.000000E+000
-0.138260E-004 -0.106902E-004  0.000000E+000
-0.133928E-004 -0.104110E-004  0.000000E+000
-0.129635E-004 -0.101357E-004  0.000000E+000
-0.125390E-004 -0.986471E-005  0.000000E+000
-0.121200E-004 -0.959868E-005  0.000000E+000
-0.117074E-004 -0.933824E-005  0.000000E+000
-0.113027E-004 -0.908413E-005  0.000000E+000
-0.109073E-004 -0.883726E-005  0.000000E+000
-0.105233E-004 -0.859869E-005  0.000000E+000
-0.101535E-004 -0.836970E-005  0.000000E+000
-0.980126E-005 -0.815177E-005  0.000000E+000
-0.947136E-005 -0.794672E-005  0.000000E+000
-0.917019E-005 -0.775666E-005  0.000000E+000
-0.890663E-005 -0.758410E-005  0.000000E+000
-0.869328E-005 -0.743195E-005  0.000000E+000
-0.854843E-005 -0.730338E-005  0.000000E+000
-0.849933E-005 -0.720156E-005  0.000000E+000
-0.858785E-005 -0.712869E-005  0.000000E+000
-0.888048E-005 -0.708348E-005  0.000000E+000
-0.948646E-005 -0.705460E-005  0.000000E+000
-0.105912E-004 -0.700384E-005  0.000000E+000
 0.343980E-004  0.688119E-005  0.000000E+000
 0.337173E-004  0.667496E-005  0.000000E+000
 0.330407E-004  0.646821E-005  0.000000E+000
 0.323686E-004  0.626092E-005  0.000000E+000
 0.317013E-004  0.605309E-005  0.000000E+000
 0.310393E-004  0.584470E-005  0.000000E+000
 0.303830E-004  0.563575E-005  0.000000E+000
 0.297329E-004  0.542624E-005  0.000000E+000
 0.290897E-004  0.521618E-005  0.000000E+000
 0.284540E-004  0.500557E-005  0.000000E+000
 0.278266E-004  0.479445E-005  0.000000E+000
 0.272082E-004  0.458287E-005  0.000000E+000
 0.265998E-004  0.437090E-005  0.000000E+000
 0.260027E-004  0.415864E-005  0.000000E+000
 0.254179E-004  0.394624E-005  0.000000E+000
 0.248470E-004  0.373392E-005  0.000000E+000
 0.242916E-004  0.352198E-005  0.000000E+000
 0.237538E-004  0.331081E-005  0.000000E+000
 0.232358E-004  0.310099E-005  0.000000E+000
 0.227404E-004  0.289331E-005  0.000000E+000
 0.222708E-004  0.268885E-005  0.000000E+000
 0.218308E-004  0.248915E-005  0.000000E+000
 0.214252E-004  0.229635E-005  0.000000E+000
 0.210594E-004  0.211349E-005  0.000000E+000
 0.207403E-004  0.194497E-005  0.000000E+000
 0.204761E-004  0.179715E-005  0.000000E+000
 0.202770E-004  0.167948E-005  0.000000E+000
 0.201554E-004  0.160619E-005  0.000000E+000
 0.201263E-004  0.159924E-005  0.000000E+000
 0.202075E-004  0.169333E-005  0.000000E+000
 0.204185E-004  0.194493E-005  0.000000E+000
 0.207762E-004  0.244835E-005  0.000000E+000
 0.212824E-004  0.336503E-005  0.000000E+000
-0.181646E-004 -0.143387E-004  0.000000E+000
-0.177322E-004 -0.140375E-004  0.000000E+000
-0.173007E-004 -0.137377E-004  0.000000E+000
-0.168702E-004 -0.134393E-004  0.000000E+000
-0.164409E-004 -0.131425E-004  0.000000E+000
-0.160127E-004 -0.128474E-004  0.000000E+000
-0.155859E-004 -0.125541E-004  0.000000E+000
-0.151607E-004 -0.122629E-004  0.000000E+000
-0.147372E-004 -0.119739E-004  0.000000E+000
-0.143156E-004 -0.116873E-004  0.000000E+000
-0.138963E-004 -0.114034E-004  0.000000E+000
-0.134794E-004 -0.111225E-004  0.000000E+000
-0.130654E-004 -0.108449E-004  0.000000E+000
-0.126547E-004 -0.105710E-004  0.000000E+000
-0.122479E-004 -0.103011E-004  0.000000E+000
-0.118456E-004 -0.100358E-004  0.000000E+000
-0.114485E-004 -0.977558E-005  0.000000E+000
-0.110577E-004 -0.952113E-005  0.000000E+000
-0.106744E-004 -0.927319E-005  0.000000E+000
-0.103002E-004 -0.903260E-005  0.000000E+000
-0.993697E-005 -0.880041E-005  0.000000E+000
-0.958745E-005 -0.857777E-005  0.000000E+000
-0.925502E-005 -0.836609E-005  0.000000E+000
-0.894426E-005 -0.816697E-005  0.000000E+000
-0.866140E-005 -0.798224E-005  0.000000E+000
-0.841506E-005 -0.781399E-005  0.000000E+000
-0.821743E-005 -0.766445E-005  0.000000E+000
-0.808616E-005 -0.753576E-005  0.000000E+000
-0.804741E-005 -0.742946E-005  0.000000E+000
-0.814111E-005 -0.734516E-005  0.000000E+000
-0.843018E-005 -0.727737E-005  0.000000E+000
-0.901680E-005 -0.720803E-005  0.000000E+000
-0.100721E-004 -0.708849E-005  0.000000E+000
 0.345626E-004  0.643848E-005  0.000000E+000
 0.338881E-004  0.624272E-005  0.000000E+000
 0.332178E-004  0.604644E-005  0.000000E+000
 0.325521E-004  0.584963E-005  0.000000E+000
 0.318915E-004  0.565229E-005  0.000000E+000
 0.312363E-004  0.545439E-005  0.000000E+000
 0.305870E-004  0.525595E-005  0.000000E+000
 0.299442E-004  0.505695E-005  0.000000E+000
 0.293084E-004  0.485741E-005  0.000000E+000
 0.286804E-004  0.465735E-005  0.000000E+000
 0.280608E-004  0.445679E-005  0.000000E+000
 0.274506E-004  0.425579E-005  0.000000E+000
 0.268506E-004  0.405442E-005  0.000000E+000
 0.262621E-004  0.385280E-005  0.000000E+000
 0.256863E-004  0.365109E-005  0.000000E+000
 0.251246E-004  0.344949E-005  0.000000E+000
 0.245787E-004  0.324833E-005  0.000000E+000
 0.240507E-004  0.304802E-005  0.000000E+000
 0.235427E-004  0.284913E-005  0.000000E+000
 0.230575E-004  0.265247E-005  0.000000E+000
 0.225983E-004  0.245914E-005  0.000000E+000
 0.221688E-004  0.227068E-005  0.000000E+000
 0.217735E-004  0.208923E-005  0.000000E+000
 0.214178E-004  0.191785E-005  0.000000E+000
 0.211081E-004  0.176087E-005  0.000000E+000
 0.208523E-004  0.162459E-005  0.000000E+000
 0.206596E-004  0.151828E-005  0.000000E+000
 0.205414E-004  0.145583E-005  0.000000E+000
 0.205108E-004  0.145850E-005  0.000000E+000
 0.205828E-004  0.155962E-005  0.000000E+000
 0.207722E-004  0.181280E-005  0.000000E+000
 0.210887E-004  0.230643E-005  0.000000E+000
 0.215232E-004  0.318976E-005  0.000000E+000
-0.171251E-004 -0.144466E-004  0.000000E+000
-0.167166E-004 -0.141489E-004  0.000000E+000
-0.163088E-004 -0.138527E-004  0.000000E+000
-0.159020E-004 -0.135580E-004  0.000000E+000
-0.154962E-004 -0.132650E-004  0.000000E+000
-0.150916E-004 -0.129738E-004  0.000000E+000
-0.146883E-004 -0.126847E-004  0.000000E+000
-0.142864E-004 -0.123976E-004  0.000000E+000
-0.138861E-004 -0.121130E-004  0.000000E+000
-0.134877E-004 -0.118309E-004  0.000000E+000
-0.130913E-004 -0.115517E-004  0.000000E+000
-0.126974E-004 -0.112756E-004  0.000000E+000
-0.123062E-004 -0.110030E-004  0.000000E+000
-0.119181E-004 -0.107342E-004  0.000000E+000
-0.115337E-004 -0.104696E-004  0.000000E+000
-0.111536E-004 -0.102098E-004  0.000000E+000
-0.107786E-004 -0.995525E-005  0.000000E+000
-0.104096E-004 -0.970659E-005  0.000000E+000
-0.100478E-004 -0.946455E-005  0.000000E+000
-0.969470E-005 -0.922996E-005  0.000000E+000
-0.935233E-005 -0.900377E-005  0.000000E+000
-0.902318E-005 -0.878709E-005  0.000000E+000
-0.871056E-005 -0.858115E-005  0.000000E+000
-0.841894E-005 -0.838736E-005  0.000000E+000
-0.815433E-005 -0.820727E-005  0.000000E+000
-0.792508E-005 -0.804249E-005  0.000000E+000
-0.774294E-005 -0.789459E-005  0.000000E+000
-0.762485E-005 -0.776468E-005  0.000000E+000
-0.759579E-005 -0.765270E-005  0.000000E+000
-0.769369E-005 -0.755576E-005  0.000000E+000
-0.797772E-005 -0.746449E-005  0.000000E+000
-0.854303E-005 -0.735474E-005  0.000000E+000
-0.954697E-005 -0.716881E-005  0.000000E+000
 0.347302E-004  0.600129E-005  0.000000E+000
 0.340616E-004  0.581611E-005  0.000000E+000
 0.333975E-004  0.563043E-005  0.000000E+000
 0.327381E-004  0.544422E-005  0.000000E+000
 0.320840E-004  0.525749E-005  0.000000E+000
 0.314354E-004  0.507022E-005  0.000000E+000
 0.307930E-004  0.488242E-005  0.000000E+000
 0.301572E-004  0.469409E-005  0.000000E+000
 0.295287E-004  0.450523E-005  0.000000E+000
 0.289081E-004  0.431587E-005  0.000000E+000
 0.282962E-004  0.412604E-005  0.000000E+000
 0.276939E-004  0.393580E-005  0.000000E+000
 0.271021E-004  0.374522E-005  0.000000E+000
 0.265219E-004  0.355444E-005  0.000000E+000
 0.259547E-004  0.336360E-005  0.000000E+000
 0.254019E-004  0.317294E-005  0.000000E+000
 0.248651E-004  0.298277E-005  0.000000E+000
 0.243464E-004  0.279352E-005  0.000000E+000
 0.238480E-004  0.260578E-005  0.000000E+000
 0.233725E-004  0.242035E-005  0.000000E+000
 0.229230E-004  0.223835E-005  0.000000E+000
 0.225033E-004  0.206131E-005  0.000000E+000
 0.221176E-004  0.189137E-005  0.000000E+000
 0.217710E-004  0.173154E-005  0.000000E+000
 0.214697E-004  0.158612E-005  0.000000E+000
 0.212210E-004  0.146129E-005  0.000000E+000
 0.210334E-004  0.136608E-005  0.000000E+000
 0.209171E-004  0.131396E-005  0.000000E+000
 0.208834E-004  0.132538E-005  0.000000E+000
 0.209445E-004  0.143214E-005  0.000000E+000
 0.211110E-004  0.168484E-005  0.000000E+000
 0.213861E-004  0.216585E-005  0.000000E+000
 0.217511E-004  0.301251E-005  0.000000E+000
-0.160875E-004 -0.145578E-004  0.000000E+000
-0.157027E-004 -0.142636E-004  0.000000E+000
-0.153187E-004 -0.139709E-004  0.000000E+000
-0.149356E-004 -0.136799E-004  0.000000E+000
-0.145534E-004 -0.133907E-004  0.000000E+000
-0.141723E-004 -0.131034E-004  0.000000E+000
-0.137924E-004 -0.128182E-004  0.000000E+000
-0.134139E-004 -0.125354E-004  0.000000E+000
-0.130369E-004 -0.122550E-004  0.000000E+000
-0.126616E-004 -0.119773E-004  0.000000E+000
-0.122883E-004 -0.117027E-004  0.000000E+000
-0.119173E-004 -0.114313E-004  0.000000E+000
-0.115489E-004 -0.111635E-004  0.000000E+000
-0.111835E-004 -0.108997E-004  0.000000E+000
-0.108216E-004 -0.106403E-004  0.000000E+000
-0.104638E-004 -0.103858E-004  0.000000E+000
-0.101108E-004 -0.101367E-004  0.000000E+000
-0.976364E-005 -0.989355E-005  0.000000E+000
-0.942340E-005 -0.965713E-005  0.000000E+000
-0.909157E-005 -0.942819E-005  0.000000E+000
-0.877005E-005 -0.920763E-005  0.000000E+000
-0.846127E-005 -0.899644E-005  0.000000E+000
-0.816847E-005 -0.879571E-005  0.000000E+000
-0.789592E-005 -0.860664E-005  0.000000E+000
-0.764947E-005 -0.843046E-005  0.000000E+000
-0.743712E-005 -0.826834E-005  0.000000E+000
-0.727014E-005 -0.812113E-005  0.000000E+000
-0.716473E-005 -0.798895E-005  0.000000E+000
-0.714462E-005 -0.787020E-005  0.000000E+000
-0.724562E-005 -0.775961E-005  0.000000E+000
-0.752312E-005 -0.764421E-005  0.000000E+000
-0.806522E-005 -0.749442E-005  0.000000E+000
-0.901595E-005 -0.724474E-005  0.000000E+000
 0.348996E-004  0.557029E-005  0.000000E+000
 0.342369E-004  0.539581E-005  0.000000E+000
 0.335787E-004  0.522084E-005  0.000000E+000
 0.329255E-004  0.504536E-005  0.000000E+000
 0.322776E-004  0.486938E-005  0.000000E+000
 0.316356E-004  0.469288E-005  0.000000E+000
 0.309998E-004  0.451587E-005  0.000000E+000
 0.303708E-004  0.433835E-005  0.000000E+000
 0.297493E-004  0.416033E-005  0.000000E+000
 0.291359E-004  0.398184E-005  0.000000E+000
 0.285314E-004  0.380291E-005  0.000000E+000
 0.279367E-004  0.362361E-005  0.000000E+000
 0.273527E-004  0.344402E-005  0.000000E+000
 0.267806E-004  0.326425E-005  0.000000E+000
 0.262217E-004  0.308449E-005  0.000000E+000
 0.256774E-004  0.290497E-005  0.000000E+000
 0.251493E-004  0.272599E-005  0.000000E+000
 0.246394E-004  0.254801E-005  0.000000E+000
 0.241500E-004  0.237160E-005  0.000000E+000
 0.236836E-004  0.219759E-005  0.000000E+000
 0.232433E-004  0.202708E-005  0.000000E+000
 0.228325E-004  0.186159E-005  0.000000E+000
 0.224555E-004  0.170325E-005  0.000000E+000
 0.221172E-004  0.155502E-005  0.000000E+000
 0.218233E-004  0.142110E-005  0.000000E+000
 0.215805E-004  0.130752E-005  0.000000E+000
 0.213967E-004  0.122304E-005  0.000000E+000
 0.212808E-004  0.118061E-005  0.000000E+000
 0.212425E-004  0.119980E-005  0.000000E+000
 0.212914E-004  0.131073E-005  0.000000E+000
 0.214340E-004  0.156083E-005  0.000000E+000
 0.216679E-004  0.202648E-005  0.000000E+000
 0.219658E-004  0.283339E-005  0.000000E+000
-0.150522E-004 -0.146716E-004  0.000000E+000
-0.146912E-004 -0.143808E-004  0.000000E+000
-0.143309E-004 -0.140916E-004  0.000000E+000
-0.139715E-004 -0.138042E-004  0.000000E+000
-0.136129E-004 -0.135187E-004  0.000000E+000
-0.132554E-004 -0.132352E-004  0.000000E+000
-0.128990E-004 -0.129540E-004  0.000000E+000
-0.125438E-004 -0.126751E-004  0.000000E+000
-0.121902E-004 -0.123989E-004  0.000000E+000
-0.118381E-004 -0.121256E-004  0.000000E+000
-0.114879E-004 -0.118554E-004  0.000000E+000
-0.111399E-004 -0.115886E-004  0.000000E+000
-0.107943E-004 -0.113255E-004  0.000000E+000
-0.104516E-004 -0.110665E-004  0.000000E+000
-0.101122E-004 -0.108121E-004  0.000000E+000
-0.977671E-005 -0.105626E-004  0.000000E+000
-0.944588E-005 -0.103187E-004  0.000000E+000
-0.912059E-005 -0.100808E-004  0.000000E+000
-0.880194E-005 -0.984970E-005  0.000000E+000
-0.849137E-005 -0.962606E-005  0.000000E+000
-0.819070E-005 -0.941070E-005  0.000000E+000
-0.790229E-005 -0.920452E-005  0.000000E+000
-0.762925E-005 -0.900845E-005  0.000000E+000
-0.737569E-005 -0.882347E-005  0.000000E+000
-0.714722E-005 -0.865049E-005  0.000000E+000
-0.695151E-005 -0.849020E-005  0.000000E+000
-0.679931E-005 -0.834280E-005  0.000000E+000
-0.670599E-005 -0.820739E-005  0.000000E+000
-0.669400E-005 -0.808089E-005  0.000000E+000
-0.679694E-005 -0.795583E-005  0.000000E+000
-0.706637E-005 -0.781592E-005  0.000000E+000
-0.758347E-005 -0.762678E-005  0.000000E+000
-0.847942E-005 -0.731627E-005  0.000000E+000
 0.350697E-004  0.514610E-005  0.000000E+000
 0.344126E-004  0.498243E-005  0.000000E+000
 0.337603E-004  0.481830E-005  0.000000E+000
 0.331130E-004  0.465369E-005  0.000000E+000
 0.324712E-004  0.448860E-005  0.000000E+000
 0.318353E-004  0.432302E-005  0.000000E+000
 0.312059E-004  0.415695E-005  0.000000E+000
 0.305835E-004  0.399040E-005  0.000000E+000
 0.299688E-004  0.382339E-005  0.000000E+000
 0.293623E-004  0.365593E-005  0.000000E+000
 0.287649E-004  0.348808E-005  0.000000E+000
 0.281775E-004  0.331989E-005  0.000000E+000
 0.276010E-004  0.315145E-005  0.000000E+000
 0.270366E-004  0.298290E-005  0.000000E+000
 0.264855E-004  0.281440E-005  0.000000E+000
 0.259493E-004  0.264619E-005  0.000000E+000
 0.254294E-004  0.247860E-005  0.000000E+000
 0.249279E-004  0.231206E-005  0.000000E+000
 0.244469E-004  0.214716E-005  0.000000E+000
 0.239890E-004  0.198471E-005  0.000000E+000
 0.235571E-004  0.182582E-005  0.000000E+000
 0.231546E-004  0.167198E-005  0.000000E+000
 0.227855E-004  0.152527E-005  0.000000E+000
 0.224545E-004  0.138861E-005  0.000000E+000
 0.221669E-004  0.126606E-005  0.000000E+000
 0.219289E-004  0.116346E-005  0.000000E+000
 0.217476E-004  0.108924E-005  0.000000E+000
 0.216309E-004  0.105577E-005  0.000000E+000
 0.215868E-004  0.108163E-005  0.000000E+000
 0.216223E-004  0.119516E-005  0.000000E+000
 0.217405E-004  0.144054E-005  0.000000E+000
 0.219336E-004  0.188816E-005  0.000000E+000
 0.221672E-004  0.265252E-005  0.000000E+000
-0.140198E-004 -0.147871E-004  0.000000E+000
-0.136826E-004 -0.144996E-004  0.000000E+000
-0.133461E-004 -0.142139E-004  0.000000E+000
-0.130103E-004 -0.139300E-004  0.000000E+000
-0.126754E-004 -0.136480E-004  0.000000E+000
-0.123415E-004 -0.133683E-004  0.000000E+000
-0.120086E-004 -0.130909E-004  0.000000E+000
-0.116769E-004 -0.128160E-004  0.000000E+000
-0.113465E-004 -0.125438E-004  0.000000E+000
-0.110177E-004 -0.122746E-004  0.000000E+000
-0.106907E-004 -0.120087E-004  0.000000E+000
-0.103656E-004 -0.117463E-004  0.000000E+000
-0.100429E-004 -0.114877E-004  0.000000E+000
-0.972295E-005 -0.112334E-004  0.000000E+000
-0.940613E-005 -0.109837E-004  0.000000E+000
-0.909305E-005 -0.107391E-004  0.000000E+000
-0.878438E-005 -0.105000E-004  0.000000E+000
-0.848099E-005 -0.102671E-004  0.000000E+000
-0.818397E-005 -0.100409E-004  0.000000E+000
-0.789466E-005 -0.982217E-005  0.000000E+000
-0.761483E-005 -0.961158E-005  0.000000E+000
-0.734675E-005 -0.940991E-005  0.000000E+000
-0.709337E-005 -0.921794E-005  0.000000E+000
-0.685867E-005 -0.903642E-005  0.000000E+000
-0.664796E-005 -0.886593E-005  0.000000E+000
-0.646855E-005 -0.870670E-005  0.000000E+000
-0.633066E-005 -0.855827E-005  0.000000E+000
-0.624877E-005 -0.841877E-005  0.000000E+000
-0.624400E-005 -0.828370E-005  0.000000E+000
-0.634766E-005 -0.814356E-005  0.000000E+000
-0.660749E-005 -0.797904E-005  0.000000E+000
-0.709787E-005 -0.775155E-005  0.000000E+000
-0.793772E-005 -0.738335E-005  0.000000E+000
 0.352392E-004  0.472926E-005  0.000000E+000
 0.345875E-004  0.457655E-005  0.000000E+000
 0.339407E-004  0.442339E-005  0.000000E+000
 0.332991E-004  0.426978E-005  0.000000E+000
 0.326631E-004  0.411573E-005  0.000000E+000
 0.320332E-004  0.396121E-005  0.000000E+000
 0.314100E-004  0.380624E-005  0.000000E+000
 0.307938E-004  0.365082E-005  0.000000E+000
 0.301855E-004  0.349496E-005  0.000000E+000
 0.295856E-004  0.333871E-005  0.000000E+000
 0.289950E-004  0.318210E-005  0.000000E+000
 0.284146E-004  0.302520E-005  0.000000E+000
 0.278452E-004  0.286810E-005  0.000000E+000
 0.272881E-004  0.271093E-005  0.000000E+000
 0.267444E-004  0.255386E-005  0.000000E+000
 0.262157E-004  0.239715E-005  0.000000E+000
 0.257036E-004  0.224110E-005  0.000000E+000
 0.252099E-004  0.208616E-005  0.000000E+000
 0.247367E-004  0.193291E-005  0.000000E+000
 0.242866E-004  0.178215E-005  0.000000E+000
 0.238625E-004  0.163496E-005  0.000000E+000
 0.234674E-004  0.149282E-005  0.000000E+000
 0.231054E-004  0.135774E-005  0.000000E+000
 0.227808E-004  0.123253E-005  0.000000E+000
 0.224985E-004  0.112115E-005  0.000000E+000
 0.222643E-004  0.102918E-005  0.000000E+000
 0.220844E-004  0.964651E-006  0.000000E+000
 0.219657E-004  0.939326E-006  0.000000E+000
 0.219146E-004  0.970676E-006  0.000000E+000
 0.219359E-004  0.108517E-005  0.000000E+000
 0.220294E-004  0.132371E-005  0.000000E+000
 0.221827E-004  0.175074E-005  0.000000E+000
 0.223552E-004  0.246999E-005  0.000000E+000
-0.129907E-004 -0.149033E-004  0.000000E+000
-0.126774E-004 -0.146191E-004  0.000000E+000
-0.123647E-004 -0.143366E-004  0.000000E+000
-0.120526E-004 -0.140561E-004  0.000000E+000
-0.117414E-004 -0.137777E-004  0.000000E+000
-0.114311E-004 -0.135015E-004  0.000000E+000
-0.111217E-004 -0.132278E-004  0.000000E+000
-0.108135E-004 -0.129567E-004  0.000000E+000
-0.105065E-004 -0.126884E-004  0.000000E+000
-0.102010E-004 -0.124232E-004  0.000000E+000
-0.989715E-005 -0.121614E-004  0.000000E+000
-0.959518E-005 -0.119032E-004  0.000000E+000
-0.929541E-005 -0.116489E-004  0.000000E+000
-0.899821E-005 -0.113990E-004  0.000000E+000
-0.870400E-005 -0.111538E-004  0.000000E+000
-0.841333E-005 -0.109137E-004  0.000000E+000
-0.812685E-005 -0.106792E-004  0.000000E+000
-0.784539E-005 -0.104509E-004  0.000000E+000
-0.756999E-005 -0.102293E-004  0.000000E+000
-0.730193E-005 -0.100151E-004  0.000000E+000
-0.704291E-005 -0.980876E-005  0.000000E+000
-0.679506E-005 -0.961109E-005  0.000000E+000
-0.656124E-005 -0.942266E-005  0.000000E+000
-0.634519E-005 -0.924398E-005  0.000000E+000
-0.615198E-005 -0.907531E-005  0.000000E+000
-0.598850E-005 -0.891643E-005  0.000000E+000
-0.586436E-005 -0.876621E-005  0.000000E+000
-0.579319E-005 -0.862188E-005  0.000000E+000
-0.579465E-005 -0.847762E-005  0.000000E+000
-0.589780E-005 -0.832200E-005  0.000000E+000
-0.614649E-005 -0.813305E-005  0.000000E+000
-0.660854E-005 -0.786850E-005  0.000000E+000
-0.739117E-005 -0.744594E-005  0.000000E+000
 0.354065E-004  0.432026E-005  0.000000E+000
 0.347600E-004  0.417863E-005  0.000000E+000
 0.341185E-004  0.403659E-005  0.000000E+000
 0.334823E-004  0.389413E-005  0.000000E+000
 0.328518E-004  0.375125E-005  0.000000E+000
 0.322276E-004  0.360794E-005  0.000000E+000
 0.316102E-004  0.346421E-005  0.000000E+000
 0.310000E-004  0.332008E-005  0.000000E+000
 0.303978E-004  0.317555E-005  0.000000E+000
 0.298042E-004  0.303066E-005  0.000000E+000
 0.292200E-004  0.288545E-005  0.000000E+000
 0.286460E-004  0.274000E-005  0.000000E+000
 0.280834E-004  0.259440E-005  0.000000E+000
 0.275331E-004  0.244878E-005  0.000000E+000
 0.269964E-004  0.230331E-005  0.000000E+000
 0.264748E-004  0.215824E-005  0.000000E+000
 0.259698E-004  0.201389E-005  0.000000E+000
 0.254833E-004  0.187068E-005  0.000000E+000
 0.250174E-004  0.172919E-005  0.000000E+000
 0.245745E-004  0.159021E-005  0.000000E+000
 0.241573E-004  0.145477E-005  0.000000E+000
 0.237690E-004  0.132432E-005  0.000000E+000
 0.234132E-004  0.120079E-005  0.000000E+000
 0.230940E-004  0.108690E-005  0.000000E+000
 0.228161E-004  0.986404E-006  0.000000E+000
 0.225846E-004  0.904623E-006  0.000000E+000
 0.224052E-004  0.849162E-006  0.000000E+000
 0.222835E-004  0.831071E-006  0.000000E+000
 0.222247E-004  0.866669E-006  0.000000E+000
 0.222312E-004  0.980485E-006  0.000000E+000
 0.223001E-004  0.121008E-005  0.000000E+000
 0.224149E-004  0.161409E-005  0.000000E+000
 0.225297E-004  0.228594E-005  0.000000E+000
-0.119655E-004 -0.150192E-004  0.000000E+000
-0.116760E-004 -0.147380E-004  0.000000E+000
-0.113872E-004 -0.144587E-004  0.000000E+000
-0.110989E-004 -0.141815E-004  0.000000E+000
-0.108114E-004 -0.139064E-004  0.000000E+000
-0.105247E-004 -0.136337E-004  0.000000E+000
-0.102390E-004 -0.133635E-004  0.000000E+000
-0.995426E-005 -0.130960E-004  0.000000E+000
-0.967072E-005 -0.128314E-004  0.000000E+000
-0.938853E-005 -0.125700E-004  0.000000E+000
-0.910788E-005 -0.123121E-004  0.000000E+000
-0.882902E-005 -0.120578E-004  0.000000E+000
-0.855222E-005 -0.118077E-004  0.000000E+000
-0.827783E-005 -0.115619E-004  0.000000E+000
-0.800627E-005 -0.113208E-004  0.000000E+000
-0.773804E-005 -0.110850E-004  0.000000E+000
-0.747377E-005 -0.108548E-004  0.000000E+000
-0.721425E-005 -0.106307E-004  0.000000E+000
-0.696045E-005 -0.104133E-004  0.000000E+000
-0.671361E-005 -0.102031E-004  0.000000E+000
-0.647531E-005 -0.100007E-004  0.000000E+000
-0.624761E-005 -0.980648E-005  0.000000E+000
-0.603317E-005 -0.962105E-005  0.000000E+000
-0.583555E-005 -0.944462E-005  0.000000E+000
-0.565950E-005 -0.927714E-005  0.000000E+000
-0.551150E-005 -0.911795E-005  0.000000E+000
-0.540054E-005 -0.896530E-005  0.000000E+000
-0.533930E-005 -0.881554E-005  0.000000E+000
-0.534598E-005 -0.866162E-005  0.000000E+000
-0.544733E-005 -0.849038E-005  0.000000E+000
-0.568342E-005 -0.827747E-005  0.000000E+000
-0.611562E-005 -0.797743E-005  0.000000E+000
-0.684011E-005 -0.750403E-005  0.000000E+000
 0.355700E-004  0.391948E-005  0.000000E+000
 0.349284E-004  0.378906E-005  0.000000E+000
 0.342918E-004  0.365827E-005  0.000000E+000
 0.336608E-004  0.352709E-005  0.000000E+000
 0.330356E-004  0.339553E-005  0.000000E+000
 0.324167E-004  0.326358E-005  0.000000E+000
 0.318047E-004  0.313125E-005  0.000000E+000
 0.312002E-004  0.299855E-005  0.000000E+000
 0.306037E-004  0.286550E-005  0.000000E+000
 0.300159E-004  0.273213E-005  0.000000E+000
 0.294377E-004  0.259848E-005  0.000000E+000
 0.288699E-004  0.246464E-005  0.000000E+000
 0.283135E-004  0.233069E-005  0.000000E+000
 0.277696E-004  0.219676E-005  0.000000E+000
 0.272394E-004  0.206304E-005  0.000000E+000
 0.267243E-004  0.192975E-005  0.000000E+000
 0.262259E-004  0.179721E-005  0.000000E+000
 0.257461E-004  0.166583E-005  0.000000E+000
 0.252868E-004  0.153619E-005  0.000000E+000
 0.248503E-004  0.140903E-005  0.000000E+000
 0.244394E-004  0.128536E-005  0.000000E+000
 0.240571E-004  0.116655E-005  0.000000E+000
 0.237067E-004  0.105446E-005  0.000000E+000
 0.233921E-004  0.951665E-006  0.000000E+000
 0.231177E-004  0.861723E-006  0.000000E+000
 0.228881E-004  0.789641E-006  0.000000E+000
 0.227082E-004  0.742545E-006  0.000000E+000
 0.225828E-004  0.730727E-006  0.000000E+000
 0.225155E-004  0.769289E-006  0.000000E+000
 0.225071E-004  0.880764E-006  0.000000E+000
 0.225519E-004  0.109938E-005  0.000000E+000
 0.226297E-004  0.147808E-005  0.000000E+000
 0.226906E-004  0.210046E-005  0.000000E+000
-0.109446E-004 -0.151334E-004  0.000000E+000
-0.106790E-004 -0.148551E-004  0.000000E+000
-0.104140E-004 -0.145789E-004  0.000000E+000
-0.101496E-004 -0.143047E-004  0.000000E+000
-0.988585E-005 -0.140328E-004  0.000000E+000
-0.962287E-005 -0.137633E-004  0.000000E+000
-0.936074E-005 -0.134965E-004  0.000000E+000
-0.909957E-005 -0.132324E-004  0.000000E+000
-0.883949E-005 -0.129713E-004  0.000000E+000
-0.858068E-005 -0.127135E-004  0.000000E+000
-0.832329E-005 -0.124592E-004  0.000000E+000
-0.806758E-005 -0.122087E-004  0.000000E+000
-0.781379E-005 -0.119624E-004  0.000000E+000
-0.756225E-005 -0.117204E-004  0.000000E+000
-0.731335E-005 -0.114833E-004  0.000000E+000
-0.706758E-005 -0.112514E-004  0.000000E+000
-0.682552E-005 -0.110251E-004  0.000000E+000
-0.658792E-005 -0.108049E-004  0.000000E+000
-0.635569E-005 -0.105913E-004  0.000000E+000
-0.613000E-005 -0.103847E-004  0.000000E+000
-0.591235E-005 -0.101856E-004  0.000000E+000
-0.570464E-005 -0.999444E-005  0.000000E+000
-0.550940E-005 -0.981147E-005  0.000000E+000
-0.532993E-005 -0.963675E-005  0.000000E+000
-0.517068E-005 -0.946990E-005  0.000000E+000
-0.503768E-005 -0.930983E-005  0.000000E+000
-0.493925E-005 -0.915422E-005  0.000000E+000
-0.488711E-005 -0.899858E-005  0.000000E+000
-0.489798E-005 -0.883474E-005  0.000000E+000
-0.499627E-005 -0.864799E-005  0.000000E+000
-0.521830E-005 -0.841185E-005  0.000000E+000
-0.561927E-005 -0.807817E-005  0.000000E+000
-0.628487E-005 -0.755757E-005  0.000000E+000
 0.357280E-004  0.352715E-005  0.000000E+000
 0.350909E-004  0.340808E-005  0.000000E+000
 0.344591E-004  0.328867E-005  0.000000E+000
 0.338327E-004  0.316892E-005  0.000000E+000
 0.332124E-004  0.304882E-005  0.000000E+000
 0.325986E-004  0.292837E-005  0.000000E+000
 0.319917E-004  0.280758E-005  0.000000E+000
 0.313924E-004  0.268646E-005  0.000000E+000
 0.308012E-004  0.256502E-005  0.000000E+000
 0.302189E-004  0.244331E-005  0.000000E+000
 0.296463E-004  0.232138E-005  0.000000E+000
 0.290842E-004  0.219928E-005  0.000000E+000
 0.285335E-004  0.207712E-005  0.000000E+000
 0.279955E-004  0.195502E-005  0.000000E+000
 0.274712E-004  0.183316E-005  0.000000E+000
 0.269621E-004  0.171177E-005  0.000000E+000
 0.264698E-004  0.159114E-005  0.000000E+000
 0.259959E-004  0.147168E-005  0.000000E+000
 0.255426E-004  0.135394E-005  0.000000E+000
 0.251120E-004  0.123861E-005  0.000000E+000
 0.247066E-004  0.112668E-005  0.000000E+000
 0.243295E-004  0.101943E-005  0.000000E+000
 0.239838E-004  0.918615E-006  0.000000E+000
 0.236730E-004  0.826655E-006  0.000000E+000
 0.234013E-004  0.746880E-006  0.000000E+000
 0.231727E-004  0.683953E-006  0.000000E+000
 0.229917E-004  0.644476E-006  0.000000E+000
 0.228619E-004  0.637935E-006  0.000000E+000
 0.227858E-004  0.678163E-006  0.000000E+000
 0.227625E-004  0.785661E-006  0.000000E+000
 0.227839E-004  0.991332E-006  0.000000E+000
 0.228270E-004  0.134261E-005  0.000000E+000
 0.228378E-004  0.191369E-005  0.000000E+000
-0.992824E-005 -0.152445E-004  0.000000E+000
-0.968664E-005 -0.149691E-004  0.000000E+000
-0.944552E-005 -0.146956E-004  0.000000E+000
-0.920497E-005 -0.144244E-004  0.000000E+000
-0.896503E-005 -0.141555E-004  0.000000E+000
-0.872579E-005 -0.138891E-004  0.000000E+000
-0.848733E-005 -0.136253E-004  0.000000E+000
-0.824976E-005 -0.133644E-004  0.000000E+000
-0.801320E-005 -0.131067E-004  0.000000E+000
-0.777779E-005 -0.128522E-004  0.000000E+000
-0.754372E-005 -0.126013E-004  0.000000E+000
-0.731118E-005 -0.123543E-004  0.000000E+000
-0.708042E-005 -0.121114E-004  0.000000E+000
-0.685175E-005 -0.118730E-004  0.000000E+000
-0.662554E-005 -0.116395E-004  0.000000E+000
-0.640223E-005 -0.114111E-004  0.000000E+000
-0.618238E-005 -0.111884E-004  0.000000E+000
-0.596667E-005 -0.109717E-004  0.000000E+000
-0.575596E-005 -0.107615E-004  0.000000E+000
-0.555135E-005 -0.105581E-004  0.000000E+000
-0.535421E-005 -0.103619E-004  0.000000E+000
-0.516634E-005 -0.101733E-004  0.000000E+000
-0.499005E-005 -0.999231E-005  0.000000E+000
-0.482844E-005 -0.981879E-005  0.000000E+000
-0.468558E-005 -0.965207E-005  0.000000E+000
-0.456705E-005 -0.949066E-005  0.000000E+000
-0.448050E-005 -0.933167E-005  0.000000E+000
-0.443661E-005 -0.916988E-005  0.000000E+000
-0.445062E-005 -0.899608E-005  0.000000E+000
-0.454460E-005 -0.879415E-005  0.000000E+000
-0.475121E-005 -0.853579E-005  0.000000E+000
-0.511967E-005 -0.817055E-005  0.000000E+000
-0.572580E-005 -0.760654E-005  0.000000E+000
 0.358786E-004  0.314338E-005  0.000000E+000
 0.352458E-004  0.303578E-005  0.000000E+000
 0.346182E-004  0.292789E-005  0.000000E+000
 0.339963E-004  0.281969E-005  0.000000E+000
 0.333805E-004  0.271119E-005  0.000000E+000
 0.327713E-004  0.260237E-005  0.000000E+000
 0.321691E-004  0.249325E-005  0.000000E+000
 0.315746E-004  0.238384E-005  0.000000E+000
 0.309883E-004  0.227417E-005  0.000000E+000
 0.304110E-004  0.216425E-005  0.000000E+000
 0.298435E-004  0.205415E-005  0.000000E+000
 0.292866E-004  0.194393E-005  0.000000E+000
 0.287412E-004  0.183368E-005  0.000000E+000
 0.282085E-004  0.172353E-005  0.000000E+000
 0.276896E-004  0.161365E-005  0.000000E+000
 0.271860E-004  0.150424E-005  0.000000E+000
 0.266991E-004  0.139560E-005  0.000000E+000
 0.262307E-004  0.128811E-005  0.000000E+000
 0.257826E-004  0.118228E-005  0.000000E+000
 0.253572E-004  0.107878E-005  0.000000E+000
 0.249567E-004  0.978522E-006  0.000000E+000
 0.245841E-004  0.882705E-006  0.000000E+000
 0.242422E-004  0.792968E-006  0.000000E+000
 0.239346E-004  0.711545E-006  0.000000E+000
 0.236649E-004  0.641515E-006  0.000000E+000
 0.234367E-004  0.587163E-006  0.000000E+000
 0.232539E-004  0.554532E-006  0.000000E+000
 0.231193E-004  0.552259E-006  0.000000E+000
 0.230343E-004  0.592867E-006  0.000000E+000
 0.229965E-004  0.694800E-006  0.000000E+000
 0.229957E-004  0.885672E-006  0.000000E+000
 0.230062E-004  0.120755E-005  0.000000E+000
 0.229712E-004  0.172572E-005  0.000000E+000
-0.891670E-005 -0.153512E-004  0.000000E+000
-0.869909E-005 -0.150783E-004  0.000000E+000
-0.848193E-005 -0.148076E-004  0.000000E+000
-0.826528E-005 -0.145390E-004  0.000000E+000
-0.804919E-005 -0.142729E-004  0.000000E+000
-0.783374E-005 -0.140093E-004  0.000000E+000
-0.761899E-005 -0.137485E-004  0.000000E+000
-0.740506E-005 -0.134905E-004  0.000000E+000
-0.719205E-005 -0.132358E-004  0.000000E+000
-0.698009E-005 -0.129844E-004  0.000000E+000
-0.676935E-005 -0.127366E-004  0.000000E+000
-0.656002E-005 -0.124928E-004  0.000000E+000
-0.635233E-005 -0.122531E-004  0.000000E+000
-0.614655E-005 -0.120179E-004  0.000000E+000
-0.594302E-005 -0.117876E-004  0.000000E+000
-0.574217E-005 -0.115625E-004  0.000000E+000
-0.554450E-005 -0.113430E-004  0.000000E+000
-0.535064E-005 -0.111294E-004  0.000000E+000
-0.516139E-005 -0.109222E-004  0.000000E+000
-0.497774E-005 -0.107216E-004  0.000000E+000
-0.480098E-005 -0.105279E-004  0.000000E+000
-0.463275E-005 -0.103414E-004  0.000000E+000
-0.447518E-005 -0.101619E-004  0.000000E+000
-0.433108E-005 -0.998917E-005  0.000000E+000
-0.420420E-005 -0.982217E-005  0.000000E+000
-0.409960E-005 -0.965906E-005  0.000000E+000
-0.402422E-005 -0.949643E-005  0.000000E+000
-0.398774E-005 -0.932838E-005  0.000000E+000
-0.400385E-005 -0.914477E-005  0.000000E+000
-0.409233E-005 -0.892825E-005  0.000000E+000
-0.428222E-005 -0.864894E-005  0.000000E+000
-0.461703E-005 -0.825444E-005  0.000000E+000
-0.516323E-005 -0.765092E-005  0.000000E+000
 0.360199E-004  0.276808E-005  0.000000E+000
 0.353909E-004  0.267208E-005  0.000000E+000
 0.347673E-004  0.257583E-005  0.000000E+000
 0.341495E-004  0.247932E-005  0.000000E+000
 0.335378E-004  0.238253E-005  0.000000E+000
 0.329327E-004  0.228547E-005  0.000000E+000
 0.323349E-004  0.218815E-005  0.000000E+000
 0.317447E-004  0.209058E-005  0.000000E+000
 0.311629E-004  0.199278E-005  0.000000E+000
 0.305902E-004  0.189478E-005  0.000000E+000
 0.300273E-004  0.179664E-005  0.000000E+000
 0.294750E-004  0.169841E-005  0.000000E+000
 0.289344E-004  0.160018E-005  0.000000E+000
 0.284065E-004  0.150207E-005  0.000000E+000
 0.278925E-004  0.140424E-005  0.000000E+000
 0.273937E-004  0.130689E-005  0.000000E+000
 0.269117E-004  0.121029E-005  0.000000E+000
 0.264480E-004  0.111480E-005  0.000000E+000
 0.260046E-004  0.102089E-005  0.000000E+000
 0.255837E-004  0.929181E-006  0.000000E+000
 0.251875E-004  0.840503E-006  0.000000E+000
 0.248186E-004  0.755969E-006  0.000000E+000
 0.244800E-004  0.677078E-006  0.000000E+000
 0.241749E-004  0.605867E-006  0.000000E+000
 0.239065E-004  0.545135E-006  0.000000E+000
 0.236782E-004  0.498762E-006  0.000000E+000
 0.234932E-004  0.472198E-006  0.000000E+000
 0.233537E-004  0.473194E-006  0.000000E+000
 0.232600E-004  0.512933E-006  0.000000E+000
 0.232083E-004  0.607790E-006  0.000000E+000
 0.231867E-004  0.782130E-006  0.000000E+000
 0.231673E-004  0.107283E-005  0.000000E+000
 0.230908E-004  0.153669E-005  0.000000E+000
-0.791007E-005 -0.154520E-004  0.000000E+000
-0.771649E-005 -0.151815E-004  0.000000E+000
-0.752333E-005 -0.149131E-004  0.000000E+000
-0.733063E-005 -0.146471E-004  0.000000E+000
-0.713843E-005 -0.143835E-004  0.000000E+000
-0.694680E-005 -0.141225E-004  0.000000E+000
-0.675581E-005 -0.138643E-004  0.000000E+000
-0.656556E-005 -0.136091E-004  0.000000E+000
-0.637613E-005 -0.133570E-004  0.000000E+000
-0.618766E-005 -0.131084E-004  0.000000E+000
-0.600028E-005 -0.128635E-004  0.000000E+000
-0.581418E-005 -0.126225E-004  0.000000E+000
-0.562956E-005 -0.123858E-004  0.000000E+000
-0.544668E-005 -0.121535E-004  0.000000E+000
-0.526585E-005 -0.119261E-004  0.000000E+000
-0.508743E-005 -0.117039E-004  0.000000E+000
-0.491190E-005 -0.114872E-004  0.000000E+000
-0.473984E-005 -0.112763E-004  0.000000E+000
-0.457196E-005 -0.110716E-004  0.000000E+000
-0.440917E-005 -0.108734E-004  0.000000E+000
-0.425264E-005 -0.106819E-004  0.000000E+000
-0.410384E-005 -0.104970E-004  0.000000E+000
-0.396471E-005 -0.103187E-004  0.000000E+000
-0.383779E-005 -0.101464E-004  0.000000E+000
-0.372644E-005 -0.997877E-005  0.000000E+000
-0.363521E-005 -0.981371E-005  0.000000E+000
-0.357033E-005 -0.964732E-005  0.000000E+000
-0.354041E-005 -0.947308E-005  0.000000E+000
-0.355763E-005 -0.928002E-005  0.000000E+000
-0.363946E-005 -0.904974E-005  0.000000E+000
-0.381143E-005 -0.875097E-005  0.000000E+000
-0.411156E-005 -0.832975E-005  0.000000E+000
-0.459750E-005 -0.769068E-005  0.000000E+000
 0.361501E-004  0.240099E-005  0.000000E+000
 0.355246E-004  0.231672E-005  0.000000E+000
 0.349045E-004  0.223222E-005  0.000000E+000
 0.342903E-004  0.214750E-005  0.000000E+000
 0.336823E-004  0.206255E-005  0.000000E+000
 0.330810E-004  0.197737E-005  0.000000E+000
 0.324870E-004  0.189196E-005  0.000000E+000
 0.319007E-004  0.180634E-005  0.000000E+000
 0.313229E-004  0.172052E-005  0.000000E+000
 0.307542E-004  0.163455E-005  0.000000E+000
 0.301954E-004  0.154846E-005  0.000000E+000
 0.296474E-004  0.146232E-005  0.000000E+000
 0.291110E-004  0.137620E-005  0.000000E+000
 0.285873E-004  0.129022E-005  0.000000E+000
 0.280776E-004  0.120451E-005  0.000000E+000
 0.275831E-004  0.111928E-005  0.000000E+000
 0.271053E-004  0.103475E-005  0.000000E+000
 0.266458E-004  0.951267E-006  0.000000E+000
 0.262065E-004  0.869249E-006  0.000000E+000
 0.257894E-004  0.789263E-006  0.000000E+000
 0.253968E-004  0.712059E-006  0.000000E+000
 0.250311E-004  0.638638E-006  0.000000E+000
 0.246952E-004  0.570345E-006  0.000000E+000
 0.243920E-004  0.509007E-006  0.000000E+000
 0.241245E-004  0.457118E-006  0.000000E+000
 0.238957E-004  0.418130E-006  0.000000E+000
 0.237082E-004  0.396869E-006  0.000000E+000
 0.235638E-004  0.400172E-006  0.000000E+000
 0.234617E-004  0.437856E-006  0.000000E+000
 0.233970E-004  0.524224E-006  0.000000E+000
 0.233563E-004  0.680442E-006  0.000000E+000
 0.233099E-004  0.938352E-006  0.000000E+000
 0.231965E-004  0.134670E-005  0.000000E+000
-0.690830E-005 -0.155453E-004  0.000000E+000
-0.673881E-005 -0.152770E-004  0.000000E+000
-0.656969E-005 -0.150108E-004  0.000000E+000
-0.640097E-005 -0.147470E-004  0.000000E+000
-0.623270E-005 -0.144857E-004  0.000000E+000
-0.606494E-005 -0.142270E-004  0.000000E+000
-0.589775E-005 -0.139712E-004  0.000000E+000
-0.573120E-005 -0.137184E-004  0.000000E+000
-0.556539E-005 -0.134688E-004  0.000000E+000
-0.540043E-005 -0.132227E-004  0.000000E+000
-0.523644E-005 -0.129803E-004  0.000000E+000
-0.507359E-005 -0.127419E-004  0.000000E+000
-0.491206E-005 -0.125077E-004  0.000000E+000
-0.475207E-005 -0.122780E-004  0.000000E+000
-0.459391E-005 -0.120531E-004  0.000000E+000
-0.443791E-005 -0.118334E-004  0.000000E+000
-0.428448E-005 -0.116192E-004  0.000000E+000
-0.413415E-005 -0.114107E-004  0.000000E+000
-0.398755E-005 -0.112082E-004  0.000000E+000
-0.384550E-005 -0.110120E-004  0.000000E+000
-0.370902E-005 -0.108222E-004  0.000000E+000
-0.357944E-005 -0.106387E-004  0.000000E+000
-0.345848E-005 -0.104612E-004  0.000000E+000
-0.334838E-005 -0.102889E-004  0.000000E+000
-0.325213E-005 -0.101205E-004  0.000000E+000
-0.317373E-005 -0.995337E-005  0.000000E+000
-0.311867E-005 -0.978324E-005  0.000000E+000
-0.309451E-005 -0.960305E-005  0.000000E+000
-0.311189E-005 -0.940112E-005  0.000000E+000
-0.318601E-005 -0.915811E-005  0.000000E+000
-0.333898E-005 -0.884162E-005  0.000000E+000
-0.360352E-005 -0.839637E-005  0.000000E+000
-0.402897E-005 -0.772582E-005  0.000000E+000
 0.362673E-004  0.204167E-005  0.000000E+000
 0.356449E-004  0.196922E-005  0.000000E+000
 0.350279E-004  0.189659E-005  0.000000E+000
 0.344169E-004  0.182377E-005  0.000000E+000
 0.338121E-004  0.175075E-005  0.000000E+000
 0.332142E-004  0.167754E-005  0.000000E+000
 0.326235E-004  0.160415E-005  0.000000E+000
 0.320407E-004  0.153057E-005  0.000000E+000
 0.314663E-004  0.145685E-005  0.000000E+000
 0.309012E-004  0.138299E-005  0.000000E+000
 0.303460E-004  0.130905E-005  0.000000E+000
 0.298015E-004  0.123507E-005  0.000000E+000
 0.292688E-004  0.116114E-005  0.000000E+000
 0.287489E-004  0.108734E-005  0.000000E+000
 0.282429E-004  0.101382E-005  0.000000E+000
 0.277520E-004  0.940726E-006  0.000000E+000
 0.272779E-004  0.868293E-006  0.000000E+000
 0.268220E-004  0.796806E-006  0.000000E+000
 0.263861E-004  0.726644E-006  0.000000E+000
 0.259723E-004  0.658305E-006  0.000000E+000
 0.255827E-004  0.592451E-006  0.000000E+000
 0.252197E-004  0.529962E-006  0.000000E+000
 0.248859E-004  0.472017E-006  0.000000E+000
 0.245840E-004  0.420212E-006  0.000000E+000
 0.243170E-004  0.376722E-006  0.000000E+000
 0.240874E-004  0.344544E-006  0.000000E+000
 0.238975E-004  0.327860E-006  0.000000E+000
 0.237483E-004  0.332565E-006  0.000000E+000
 0.236384E-004  0.367095E-006  0.000000E+000
 0.235620E-004  0.443685E-006  0.000000E+000
 0.235042E-004  0.580353E-006  0.000000E+000
 0.234339E-004  0.804065E-006  0.000000E+000
 0.232882E-004  0.115587E-005  0.000000E+000
-0.591122E-005 -0.156297E-004  0.000000E+000
-0.576586E-005 -0.153633E-004  0.000000E+000
-0.562081E-005 -0.150991E-004  0.000000E+000
-0.547612E-005 -0.148372E-004  0.000000E+000
-0.533182E-005 -0.145779E-004  0.000000E+000
-0.518796E-005 -0.143213E-004  0.000000E+000
-0.504459E-005 -0.140676E-004  0.000000E+000
-0.490179E-005 -0.138169E-004  0.000000E+000
-0.475962E-005 -0.135695E-004  0.000000E+000
-0.461819E-005 -0.133256E-004  0.000000E+000
-0.447761E-005 -0.130854E-004  0.000000E+000
-0.433802E-005 -0.128491E-004  0.000000E+000
-0.419958E-005 -0.126172E-004  0.000000E+000
-0.406248E-005 -0.123897E-004  0.000000E+000
-0.392698E-005 -0.121671E-004  0.000000E+000
-0.379336E-005 -0.119495E-004  0.000000E+000
-0.366199E-005 -0.117374E-004  0.000000E+000
-0.353331E-005 -0.115309E-004  0.000000E+000
-0.340790E-005 -0.113303E-004  0.000000E+000
-0.328645E-005 -0.111357E-004  0.000000E+000
-0.316986E-005 -0.109473E-004  0.000000E+000
-0.305929E-005 -0.107648E-004  0.000000E+000
-0.295622E-005 -0.105879E-004  0.000000E+000
-0.286260E-005 -0.104155E-004  0.000000E+000
-0.278102E-005 -0.102461E-004  0.000000E+000
-0.271493E-005 -0.100769E-004  0.000000E+000
-0.266907E-005 -0.990320E-005  0.000000E+000
-0.264991E-005 -0.971746E-005  0.000000E+000
-0.266657E-005 -0.950741E-005  0.000000E+000
-0.273201E-005 -0.925292E-005  0.000000E+000
-0.286500E-005 -0.892063E-005  0.000000E+000
-0.309318E-005 -0.845424E-005  0.000000E+000
-0.345799E-005 -0.775630E-005  0.000000E+000
 0.363699E-004  0.168946E-005  0.000000E+000
 0.357501E-004  0.162893E-005  0.000000E+000
 0.351358E-004  0.156825E-005  0.000000E+000
 0.345274E-004  0.150742E-005  0.000000E+000
 0.339255E-004  0.144643E-005  0.000000E+000
 0.333303E-004  0.138529E-005  0.000000E+000
 0.327425E-004  0.132399E-005  0.000000E+000
 0.321627E-004  0.126255E-005  0.000000E+000
 0.315913E-004  0.120099E-005  0.000000E+000
 0.310292E-004  0.113933E-005  0.000000E+000
 0.304770E-004  0.107760E-005  0.000000E+000
 0.299357E-004  0.101586E-005  0.000000E+000
 0.294061E-004  0.954173E-006  0.000000E+000
 0.288892E-004  0.892617E-006  0.000000E+000
 0.283863E-004  0.831306E-006  0.000000E+000
 0.278986E-004  0.770387E-006  0.000000E+000
 0.274275E-004  0.710049E-006  0.000000E+000
 0.269746E-004  0.650539E-006  0.000000E+000
 0.265416E-004  0.592183E-006  0.000000E+000
 0.261305E-004  0.535408E-006  0.000000E+000
 0.257433E-004  0.480777E-006  0.000000E+000
 0.253824E-004  0.429039E-006  0.000000E+000
 0.250503E-004  0.381197E-006  0.000000E+000
 0.247495E-004  0.338600E-006  0.000000E+000
 0.244827E-004  0.303088E-006  0.000000E+000
 0.242522E-004  0.277188E-006  0.000000E+000
 0.240599E-004  0.264410E-006  0.000000E+000
 0.239063E-004  0.269696E-006  0.000000E+000
 0.237895E-004  0.300084E-006  0.000000E+000
 0.237026E-004  0.365749E-006  0.000000E+000
 0.236300E-004  0.481614E-006  0.000000E+000
 0.235391E-004  0.669911E-006  0.000000E+000
 0.233659E-004  0.964326E-006  0.000000E+000
-0.491852E-005 -0.157039E-004  0.000000E+000
-0.479732E-005 -0.154391E-004  0.000000E+000
-0.467639E-005 -0.151765E-004  0.000000E+000
-0.455576E-005 -0.149164E-004  0.000000E+000
-0.443546E-005 -0.146588E-004  0.000000E+000
-0.431553E-005 -0.144039E-004  0.000000E+000
-0.419601E-005 -0.141520E-004  0.000000E+000
-0.407697E-005 -0.139031E-004  0.000000E+000
-0.395847E-005 -0.136576E-004  0.000000E+000
-0.384059E-005 -0.134155E-004  0.000000E+000
-0.372343E-005 -0.131772E-004  0.000000E+000
-0.360710E-005 -0.129429E-004  0.000000E+000
-0.349175E-005 -0.127128E-004  0.000000E+000
-0.337753E-005 -0.124872E-004  0.000000E+000
-0.326466E-005 -0.122664E-004  0.000000E+000
-0.315339E-005 -0.120507E-004  0.000000E+000
-0.304402E-005 -0.118403E-004  0.000000E+000
-0.293693E-005 -0.116354E-004  0.000000E+000
-0.283260E-005 -0.114364E-004  0.000000E+000
-0.273163E-005 -0.112432E-004  0.000000E+000
-0.263477E-005 -0.110558E-004  0.000000E+000
-0.254299E-005 -0.108741E-004  0.000000E+000
-0.245755E-005 -0.106975E-004  0.000000E+000
-0.238010E-005 -0.105249E-004  0.000000E+000
-0.231279E-005 -0.103545E-004  0.000000E+000
-0.225854E-005 -0.101833E-004  0.000000E+000
-0.222129E-005 -0.100063E-004  0.000000E+000
-0.220645E-005 -0.981557E-005  0.000000E+000
-0.222161E-005 -0.959832E-005  0.000000E+000
-0.227752E-005 -0.933378E-005  0.000000E+000
-0.238968E-005 -0.898782E-005  0.000000E+000
-0.258082E-005 -0.850329E-005  0.000000E+000
-0.288489E-005 -0.778211E-005  0.000000E+000
 0.364562E-004  0.134351E-005  0.000000E+000
 0.358385E-004  0.129499E-005  0.000000E+000
 0.352264E-004  0.124635E-005  0.000000E+000
 0.346203E-004  0.119759E-005  0.000000E+000
 0.340207E-004  0.114870E-005  0.000000E+000
 0.334279E-004  0.109970E-005  0.000000E+000
 0.328424E-004  0.105057E-005  0.000000E+000
 0.322650E-004  0.100134E-005  0.000000E+000
 0.316961E-004  0.952006E-006  0.000000E+000
 0.311364E-004  0.902602E-006  0.000000E+000
 0.305868E-004  0.853155E-006  0.000000E+000
 0.300480E-004  0.803704E-006  0.000000E+000
 0.295209E-004  0.754303E-006  0.000000E+000
 0.290067E-004  0.705021E-006  0.000000E+000
 0.285063E-004  0.655952E-006  0.000000E+000
 0.280211E-004  0.607215E-006  0.000000E+000
 0.275525E-004  0.558965E-006  0.000000E+000
 0.271020E-004  0.511406E-006  0.000000E+000
 0.266714E-004  0.464804E-006  0.000000E+000
 0.262624E-004  0.419507E-006  0.000000E+000
 0.258771E-004  0.375976E-006  0.000000E+000
 0.255179E-004  0.334820E-006  0.000000E+000
 0.251870E-004  0.296853E-006  0.000000E+000
 0.248869E-004  0.263170E-006  0.000000E+000
 0.246201E-004  0.235258E-006  0.000000E+000
 0.243887E-004  0.215158E-006  0.000000E+000
 0.241942E-004  0.205696E-006  0.000000E+000
 0.240369E-004  0.210841E-006  0.000000E+000
 0.239140E-004  0.236231E-006  0.000000E+000
 0.238184E-004  0.289987E-006  0.000000E+000
 0.237333E-004  0.383984E-006  0.000000E+000
 0.236254E-004  0.535849E-006  0.000000E+000
 0.234295E-004  0.772181E-006  0.000000E+000
-0.392972E-005 -0.157665E-004  0.000000E+000
-0.383271E-005 -0.155030E-004  0.000000E+000
-0.373593E-005 -0.152419E-004  0.000000E+000
-0.363939E-005 -0.149831E-004  0.000000E+000
-0.354312E-005 -0.147270E-004  0.000000E+000
-0.344714E-005 -0.144736E-004  0.000000E+000
-0.335151E-005 -0.142231E-004  0.000000E+000
-0.325625E-005 -0.139757E-004  0.000000E+000
-0.316143E-005 -0.137317E-004  0.000000E+000
-0.306712E-005 -0.134912E-004  0.000000E+000
-0.297338E-005 -0.132544E-004  0.000000E+000
-0.288032E-005 -0.130216E-004  0.000000E+000
-0.278805E-005 -0.127931E-004  0.000000E+000
-0.269670E-005 -0.125690E-004  0.000000E+000
-0.260644E-005 -0.123497E-004  0.000000E+000
-0.251748E-005 -0.121355E-004  0.000000E+000
-0.243005E-005 -0.119265E-004  0.000000E+000
-0.234448E-005 -0.117230E-004  0.000000E+000
-0.226115E-005 -0.115251E-004  0.000000E+000
-0.218053E-005 -0.113329E-004  0.000000E+000
-0.210325E-005 -0.111464E-004  0.000000E+000
-0.203008E-005 -0.109653E-004  0.000000E+000
-0.196204E-005 -0.107888E-004  0.000000E+000
-0.190046E-005 -0.106159E-004  0.000000E+000
-0.184707E-005 -0.104446E-004  0.000000E+000
-0.180422E-005 -0.102716E-004  0.000000E+000
-0.177507E-005 -0.100917E-004  0.000000E+000
-0.176397E-005 -0.989674E-005  0.000000E+000
-0.177695E-005 -0.967338E-005  0.000000E+000
-0.182259E-005 -0.940038E-005  0.000000E+000
-0.191319E-005 -0.904301E-005  0.000000E+000
-0.206675E-005 -0.854348E-005  0.000000E+000
-0.231003E-005 -0.780325E-005  0.000000E+000
 0.365248E-004  0.100282E-005  0.000000E+000
 0.359088E-004  0.966363E-006  0.000000E+000
 0.352985E-004  0.929825E-006  0.000000E+000
 0.346942E-004  0.893199E-006  0.000000E+000
 0.340963E-004  0.856482E-006  0.000000E+000
 0.335053E-004  0.819674E-006  0.000000E+000
 0.329218E-004  0.782779E-006  0.000000E+000
 0.323462E-004  0.745804E-006  0.000000E+000
 0.317792E-004  0.708761E-006  0.000000E+000
 0.312215E-004  0.671666E-006  0.000000E+000
 0.306738E-004  0.634542E-006  0.000000E+000
 0.301370E-004  0.597420E-006  0.000000E+000
 0.296119E-004  0.560342E-006  0.000000E+000
 0.290996E-004  0.523362E-006  0.000000E+000
 0.286013E-004  0.486550E-006  0.000000E+000
 0.281181E-004  0.449998E-006  0.000000E+000
 0.276514E-004  0.413825E-006  0.000000E+000
 0.272027E-004  0.378188E-006  0.000000E+000
 0.267738E-004  0.343289E-006  0.000000E+000
 0.263665E-004  0.309394E-006  0.000000E+000
 0.259827E-004  0.276853E-006  0.000000E+000
 0.256247E-004  0.246130E-006  0.000000E+000
 0.252947E-004  0.217841E-006  0.000000E+000
 0.249951E-004  0.192817E-006  0.000000E+000
 0.247282E-004  0.172183E-006  0.000000E+000
 0.244960E-004  0.157480E-006  0.000000E+000
 0.242997E-004  0.150838E-006  0.000000E+000
 0.241392E-004  0.155243E-006  0.000000E+000
 0.240116E-004  0.174925E-006  0.000000E+000
 0.239089E-004  0.215966E-006  0.000000E+000
 0.238139E-004  0.287231E-006  0.000000E+000
 0.236926E-004  0.401846E-006  0.000000E+000
 0.234791E-004  0.579557E-006  0.000000E+000
-0.294423E-005 -0.158164E-004  0.000000E+000
-0.287145E-005 -0.155540E-004  0.000000E+000
-0.279884E-005 -0.152939E-004  0.000000E+000
-0.272641E-005 -0.150363E-004  0.000000E+000
-0.265419E-005 -0.147813E-004  0.000000E+000
-0.258219E-005 -0.145290E-004  0.000000E+000
-0.251044E-005 -0.142797E-004  0.000000E+000
-0.243899E-005 -0.140335E-004  0.000000E+000
-0.236787E-005 -0.137907E-004  0.000000E+000
-0.229712E-005 -0.135513E-004  0.000000E+000
-0.222682E-005 -0.133158E-004  0.000000E+000
-0.215703E-005 -0.130842E-004  0.000000E+000
-0.208783E-005 -0.128568E-004  0.000000E+000
-0.201933E-005 -0.126340E-004  0.000000E+000
-0.195166E-005 -0.124159E-004  0.000000E+000
-0.188497E-005 -0.122028E-004  0.000000E+000
-0.181945E-005 -0.119948E-004  0.000000E+000
-0.175534E-005 -0.117923E-004  0.000000E+000
-0.169291E-005 -0.115954E-004  0.000000E+000
-0.163255E-005 -0.114040E-004  0.000000E+000
-0.157471E-005 -0.112181E-004  0.000000E+000
-0.151999E-005 -0.110373E-004  0.000000E+000
-0.146915E-005 -0.108609E-004  0.000000E+000
-0.142319E-005 -0.106877E-004  0.000000E+000
-0.138343E-005 -0.105156E-004  0.000000E+000
-0.135162E-005 -0.103411E-004  0.000000E+000
-0.133015E-005 -0.101589E-004  0.000000E+000
-0.132227E-005 -0.996043E-005  0.000000E+000
-0.133251E-005 -0.973218E-005  0.000000E+000
-0.136728E-005 -0.945246E-005  0.000000E+000
-0.143575E-005 -0.908607E-005  0.000000E+000
-0.155129E-005 -0.857477E-005  0.000000E+000
-0.173376E-005 -0.781970E-005  0.000000E+000
 0.365746E-004  0.666210E-006  0.000000E+000
 0.359599E-004  0.641877E-006  0.000000E+000
 0.353508E-004  0.617491E-006  0.000000E+000
 0.347478E-004  0.593046E-006  0.000000E+000
 0.341512E-004  0.568542E-006  0.000000E+000
 0.335615E-004  0.543978E-006  0.000000E+000
 0.329793E-004  0.519357E-006  0.000000E+000
 0.324051E-004  0.494684E-006  0.000000E+000
 0.318395E-004  0.469967E-006  0.000000E+000
 0.312832E-004  0.445217E-006  0.000000E+000
 0.307369E-004  0.420449E-006  0.000000E+000
 0.302015E-004  0.395686E-006  0.000000E+000
 0.296778E-004  0.370955E-006  0.000000E+000
 0.291670E-004  0.346293E-006  0.000000E+000
 0.286700E-004  0.321748E-006  0.000000E+000
 0.281882E-004  0.297381E-006  0.000000E+000
 0.277229E-004  0.273275E-006  0.000000E+000
 0.272756E-004  0.249534E-006  0.000000E+000
 0.268479E-004  0.226294E-006  0.000000E+000
 0.264417E-004  0.203736E-006  0.000000E+000
 0.260590E-004  0.182095E-006  0.000000E+000
 0.257018E-004  0.161683E-006  0.000000E+000
 0.253724E-004  0.142916E-006  0.000000E+000
 0.250731E-004  0.126350E-006  0.000000E+000
 0.248061E-004  0.112741E-006  0.000000E+000
 0.245732E-004  0.103119E-006  0.000000E+000
 0.243755E-004  0.989123E-007  0.000000E+000
 0.242127E-004  0.102113E-006  0.000000E+000
 0.240815E-004  0.115543E-006  0.000000E+000
 0.239737E-004  0.143251E-006  0.000000E+000
 0.238717E-004  0.191129E-006  0.000000E+000
 0.237407E-004  0.267881E-006  0.000000E+000
 0.235144E-004  0.386572E-006  0.000000E+000
-0.196133E-005 -0.158528E-004  0.000000E+000
-0.191279E-005 -0.155911E-004  0.000000E+000
-0.186438E-005 -0.153318E-004  0.000000E+000
-0.181608E-005 -0.150750E-004  0.000000E+000
-0.176792E-005 -0.148208E-004  0.000000E+000
-0.171992E-005 -0.145693E-004  0.000000E+000
-0.167208E-005 -0.143209E-004  0.000000E+000
-0.162444E-005 -0.140755E-004  0.000000E+000
-0.157702E-005 -0.138335E-004  0.000000E+000
-0.152985E-005 -0.135950E-004  0.000000E+000
-0.148298E-005 -0.133603E-004  0.000000E+000
-0.143645E-005 -0.131296E-004  0.000000E+000
-0.139033E-005 -0.129031E-004  0.000000E+000
-0.134467E-005 -0.126811E-004  0.000000E+000
-0.129957E-005 -0.124638E-004  0.000000E+000
-0.125513E-005 -0.122515E-004  0.000000E+000
-0.121147E-005 -0.120444E-004  0.000000E+000
-0.116876E-005 -0.118426E-004  0.000000E+000
-0.112718E-005 -0.116463E-004  0.000000E+000
-0.108699E-005 -0.114554E-004  0.000000E+000
-0.104849E-005 -0.112699E-004  0.000000E+000
-0.101208E-005 -0.110894E-004  0.000000E+000
-0.978281E-006 -0.109130E-004  0.000000E+000
-0.947754E-006 -0.107396E-004  0.000000E+000
-0.921381E-006 -0.105668E-004  0.000000E+000
-0.900339E-006 -0.103912E-004  0.000000E+000
-0.886213E-006 -0.102072E-004  0.000000E+000
-0.881177E-006 -0.100062E-004  0.000000E+000
-0.888250E-006 -0.977440E-005  0.000000E+000
-0.911685E-006 -0.948980E-005  0.000000E+000
-0.957576E-006 -0.911690E-005  0.000000E+000
-0.103479E-005 -0.859714E-005  0.000000E+000
-0.115643E-005 -0.783146E-005  0.000000E+000
 0.366049E-004  0.332395E-006  0.000000E+000
 0.359909E-004  0.320220E-006  0.000000E+000
 0.353826E-004  0.308019E-006  0.000000E+000
 0.347803E-004  0.295788E-006  0.000000E+000
 0.341845E-004  0.283528E-006  0.000000E+000
 0.335956E-004  0.271239E-006  0.000000E+000
 0.330142E-004  0.258921E-006  0.000000E+000
 0.324408E-004  0.246578E-006  0.000000E+000
 0.318760E-004  0.234213E-006  0.000000E+000
 0.313205E-004  0.221832E-006  0.000000E+000
 0.307751E-004  0.209443E-006  0.000000E+000
 0.302405E-004  0.197056E-006  0.000000E+000
 0.297177E-004  0.184687E-006  0.000000E+000
 0.292077E-004  0.172354E-006  0.000000E+000
 0.287116E-004  0.160080E-006  0.000000E+000
 0.282306E-004  0.147898E-006  0.000000E+000
 0.277661E-004  0.135847E-006  0.000000E+000
 0.273196E-004  0.123982E-006  0.000000E+000
 0.268927E-004  0.112370E-006  0.000000E+000
 0.264872E-004  0.101103E-006  0.000000E+000
 0.261050E-004  0.902993E-007  0.000000E+000
 0.257483E-004  0.801151E-007  0.000000E+000
 0.254193E-004  0.707594E-007  0.000000E+000
 0.251202E-004  0.625121E-007  0.000000E+000
 0.248531E-004  0.557520E-007  0.000000E+000
 0.246197E-004  0.509964E-007  0.000000E+000
 0.244212E-004  0.489599E-007  0.000000E+000
 0.242570E-004  0.506402E-007  0.000000E+000
 0.241237E-004  0.574486E-007  0.000000E+000
 0.240128E-004  0.714077E-007  0.000000E+000
 0.239064E-004  0.954573E-007  0.000000E+000
 0.237695E-004  0.133936E-006  0.000000E+000
 0.235357E-004  0.193346E-006  0.000000E+000
-0.980209E-006 -0.158749E-004  0.000000E+000
-0.955939E-006 -0.156137E-004  0.000000E+000
-0.931727E-006 -0.153549E-004  0.000000E+000
-0.907577E-006 -0.150985E-004  0.000000E+000
-0.883494E-006 -0.148448E-004  0.000000E+000
-0.859488E-006 -0.145938E-004  0.000000E+000
-0.835568E-006 -0.143458E-004  0.000000E+000
-0.811745E-006 -0.141010E-004  0.000000E+000
-0.788033E-006 -0.138595E-004  0.000000E+000
-0.764450E-006 -0.136215E-004  0.000000E+000
-0.741015E-006 -0.133874E-004  0.000000E+000
-0.717752E-006 -0.131572E-004  0.000000E+000
-0.694690E-006 -0.129312E-004  0.000000E+000
-0.671865E-006 -0.127097E-004  0.000000E+000
-0.649318E-006 -0.124929E-004  0.000000E+000
-0.627102E-006 -0.122811E-004  0.000000E+000
-0.605280E-006 -0.120744E-004  0.000000E+000
-0.583932E-006 -0.118730E-004  0.000000E+000
-0.563156E-006 -0.116771E-004  0.000000E+000
-0.543074E-006 -0.114865E-004  0.000000E+000
-0.523844E-006 -0.113013E-004  0.000000E+000
-0.505664E-006 -0.111209E-004  0.000000E+000
-0.488791E-006 -0.109445E-004  0.000000E+000
-0.473562E-006 -0.107709E-004  0.000000E+000
-0.460417E-006 -0.105977E-004  0.000000E+000
-0.449944E-006 -0.104214E-004  0.000000E+000
-0.442939E-006 -0.102364E-004  0.000000E+000
-0.440487E-006 -0.100338E-004  0.000000E+000
-0.444097E-006 -0.979982E-005  0.000000E+000
-0.455893E-006 -0.951226E-005  0.000000E+000
-0.478912E-006 -0.913543E-005  0.000000E+000
-0.517571E-006 -0.861057E-005  0.000000E+000
-0.578389E-006 -0.783852E-005  0.000000E+000
 0.366150E-004  0.000000E+000  0.000000E+000
 0.360013E-004 -0.383760E-016  0.000000E+000
 0.353932E-004 -0.278515E-016  0.000000E+000
 0.347912E-004  0.373243E-016  0.000000E+000
 0.341956E-004  0.835106E-016  0.000000E+000
 0.336070E-004  0.606997E-016  0.000000E+000
 0.330259E-004 -0.785587E-016  0.000000E+000
 0.324528E-004  0.497289E-017  0.000000E+000
 0.318882E-004 -0.373107E-016  0.000000E+000
 0.313330E-004  0.173835E-015  0.000000E+000
 0.307879E-004 -0.101772E-015  0.000000E+000
 0.302536E-004 -0.120204E-015  0.000000E+000
 0.297311E-004  0.523963E-016  0.000000E+000
 0.292214E-004  0.209571E-016  0.000000E+000
 0.287256E-004  0.225783E-016  0.000000E+000
 0.282448E-004 -0.105252E-015  0.000000E+000
 0.277806E-004  0.206991E-017  0.000000E+000
 0.273343E-004 -0.263257E-016  0.000000E+000
 0.269077E-004 -0.576718E-016  0.000000E+000
 0.265024E-004  0.804529E-016  0.000000E+000
 0.261204E-004 -0.371833E-016  0.000000E+000
 0.257639E-004 -0.455755E-017  0.000000E+000
 0.254350E-004  0.679758E-016  0.000000E+000
 0.251359E-004 -0.494325E-016  0.000000E+000
 0.248688E-004 -0.756508E-017  0.000000E+000
 0.246353E-004 -0.553679E-016  0.000000E+000
 0.244365E-004  0.831062E-016  0.000000E+000
 0.242718E-004  0.832235E-016  0.000000E+000
 0.241377E-004  0.619528E-016  0.000000E+000
 0.240258E-004 -0.100376E-016  0.000000E+000
 0.239179E-004  0.425161E-017  0.000000E+000
 0.237792E-004 -0.119777E-015  0.000000E+000
 0.235428E-004  0.189617E-016  0.000000E+000
 0.192036E-020 -0.158823E-004  0.000000E+000
-0.225582E-016 -0.156213E-004  0.000000E+000
 0.103983E-016 -0.153626E-004  0.000000E+000
 0.116215E-015 -0.151064E-004  0.000000E+000
-0.364417E-016 -0.148528E-004  0.000000E+000
-0.104267E-016 -0.146020E-004  0.000000E+000
-0.243080E-016 -0.143542E-004  0.000000E+000
-0.485981E-016 -0.141095E-004  0.000000E+000
 0.572143E-016 -0.138682E-004  0.000000E+000
 0.689881E-017 -0.136304E-004  0.000000E+000
 0.103603E-016 -0.133964E-004  0.000000E+000
 0.936244E-016 -0.131664E-004  0.000000E+000
 0.450391E-016 -0.129406E-004  0.000000E+000
 0.138091E-016 -0.127193E-004  0.000000E+000
 0.571705E-016 -0.125027E-004  0.000000E+000
-0.701908E-017 -0.122910E-004  0.000000E+000
-0.850889E-016 -0.120844E-004  0.000000E+000
 0.311291E-016 -0.118832E-004  0.000000E+000
 0.397992E-016 -0.116874E-004  0.000000E+000
 0.432589E-016 -0.114970E-004  0.000000E+000
 0.831547E-016 -0.113118E-004  0.000000E+000
-0.556190E-016 -0.111314E-004  0.000000E+000
 0.683085E-017 -0.109551E-004  0.000000E+000
 0.536661E-016 -0.107814E-004  0.000000E+000
-0.278660E-016 -0.106080E-004  0.000000E+000
-0.556225E-016 -0.104315E-004  0.000000E+000
-0.359100E-017 -0.102461E-004  0.000000E+000
 0.311070E-016 -0.100430E-004  0.000000E+000
 0.681451E-017 -0.980831E-005  0.000000E+000
 0.682287E-017 -0.951976E-005  0.000000E+000
 0.623258E-016 -0.914161E-005  0.000000E+000
 0.276365E-016 -0.861505E-005  0.000000E+000
 0.276036E-016 -0.784087E-005  0.000000E+000
 0.366049E-004 -0.332395E-006  0.000000E+000
 0.359909E-004 -0.320220E-006  0.000000E+000
 0.353826E-004 -0.308019E-006  0.000000E+000
 0.347803E-004 -0.295788E-006  0.000000E+000
 0.341845E-004 -0.283528E-006  0.000000E+000
 0.335956E-004 -0.271239E-006  0.000000E+000
 0.330142E-004 -0.258921E-006  0.000000E+000
 0.324408E-004 -0.246578E-006  0.000000E+000
 0.318760E-004 -0.234213E-006  0.000000E+000
 0.313205E-004 -0.221832E-006  0.000000E+000
 0.307751E-004 -0.209443E-006  0.000000E+000
 0.302405E-004 -0.197056E-006  0.000000E+000
 0.297177E-004 -0.184687E-006  0.000000E+000
 0.292077E-004 -0.172354E-006  0.000000E+000
 0.287116E-004 -0.160080E-006  0.000000E+000
 0.282306E-004 -0.147898E-006  0.000000E+000
 0.277661E-004 -0.135847E-006  0.000000E+000
 0.273196E-004 -0.123982E-006  0.000000E+000
 0.268927E-004 -0.112370E-006  0.000000E+000
 0.264872E-004 -0.101103E-006  0.000000E+000
 0.261050E-004 -0.902993E-007  0.000000E+000
 0.257483E-004 -0.801151E-007  0.000000E+000
 0.254193E-004 -0.707594E-007  0.000000E+000
 0.251202E-004 -0.625121E-007  0.000000E+000
 0.248531E-004 -0.557520E-007  0.000000E+000
 0.246197E-004 -0.509964E-007  0.000000E+000
 0.244212E-004 -0.489599E-007  0.000000E+000
 0.242570E-004 -0.506402E-007  0.000000E+000
 0.241237E-004 -0.574486E-007  0.000000E+000
 0.240128E-004 -0.714077E-007  0.000000E+000
 0.239064E-004 -0.954573E-007  0.000000E+000
 0.237695E-004 -0.133936E-006  0.000000E+000
 0.235357E-004 -0.193346E-006  0.000000E+000
 0.980209E-006 -0.158749E-004  0.000000E+000
 0.955939E-006 -0.156137E-004  0.000000E+000
 0.931727E-006 -0.153549E-004  0.000000E+000
 0.907577E-006 -0.150985E-004  0.000000E+000
 0.883494E-006 -0.148448E-004  0.000000E+000
 0.859488E-006 -0.145938E-004  0.000000E+000
 0.835568E-006 -0.143458E-004  0.000000E+000
 0.811745E-006 -0.141010E-004  0.000000E+000
 0.788033E-006 -0.138595E-004  0.000000E+000
 0.764450E-006 -0.136215E-004  0.000000E+000
 0.741015E-006 -0.133874E-004  0.000000E+000
 0.717752E-006 -0.131572E-004  0.000000E+000
 0.694690E-006 -0.129312E-004  0.000000E+000
 0.671865E-006 -0.127097E-004  0.000000E+000
 0.649318E-006 -0.124929E-004  0.000000E+000
 0.627102E-006 -0.122811E-004  0.000000E+000
 0.605280E-006 -0.120744E-004  0.000000E+000
 0.583932E-006 -0.118730E-004  0.000000E+000
 0.563156E-006 -0.116771E-004  0.000000E+000
 0.543074E-006 -0.114865E-004  0.000000E+000
 0.523844E-006 -0.113013E-004  0.000000E+000
 0.505664E-006 -0.111209E-004  0.000000E+000
 0.488791E-006 -0.109445E-004  0.000000E+000
 0.473562E-006 -0.107709E-004  0.000000E+000
 0.460417E-006 -0.105977E-004  0.000000E+000
 0.449944E-006 -0.104214E-004  0.000000E+000
 0.442939E-006 -0.102364E-004  0.000000E+000
 0.440487E-006 -0.100338E-004  0.000000E+000
 0.444097E-006 -0.979982E-005  0.000000E+000
 0.455893E-006 -0.951226E-005  0.000000E+000
 0.478912E-006 -0.913543E-005  0.000000E+000
 0.517571E-006 -0.861057E-005  0.000000E+000
 0.578389E-006 -0.783852E-005  0.000000E+000
 0.365746E-004 -0.666210E-006  0.000000E+000
 0.359599E-004 -0.641877E-006  0.000000E+000
 0.353508E-004 -0.617491E-006  0.000000E+000
 0.347478E-004 -0.593046E-006  0.000000E+000
 0.341512E-004 -0.568542E-006  0.000000E+000
 0.335615E-004 -0.543978E-006  0.000000E+000
 0.329793E-004 -0.519357E-006  0.000000E+000
 0.324051E-004 -0.494684E-006  0.000000E+000
 0.318395E-004 -0.469967E-006  0.000000E+000
 0.312832E-004 -0.445217E-006  0.000000E+000
 0.307369E-004 -0.420449E-006  0.000000E+000
 0.302015E-004 -0.395686E-006  0.000000E+000
 0.296778E-004 -0.370955E-006  0.000000E+000
 0.291670E-004 -0.346293E-006  0.000000E+000
 0.286700E-004 -0.321748E-006  0.000000E+000
 0.281882E-004 -0.297381E-006  0.000000E+000
 0.277229E-004 -0.273275E-006  0.000000E+000
 0.272756E-004 -0.249534E-006  0.000000E+000
 0.268479E-004 -0.226294E-006  0.000000E+000
 0.264417E-004 -0.203736E-006  0.000000E+000
 0.260590E-004 -0.182095E-006  0.000000E+000
 0.257018E-004 -0.161683E-006  0.000000E+000
 0.253724E-004 -0.142916E-006  0.000000E+000
 0.250731E-004 -0.126350E-006  0.000000E+000
 0.248061E-004 -0.112741E-006  0.000000E+000
 0.245732E-004 -0.103119E-006  0.000000E+000
 0.243755E-004 -0.989123E-007  0.000000E+000
 0.242127E-004 -0.102113E-006  0.000000E+000
 0.240815E-004 -0.115543E-006  0.000000E+000
 0.239737E-004 -0.143251E-006  0.000000E+000
 0.238717E-004 -0.191129E-006  0.000000E+000
 0.237407E-004 -0.267881E-006  0.000000E+000
 0.235144E-004 -0.386572E-006  0.000000E+000
 0.196133E-005 -0.158528E-004  0.000000E+000
 0.191279E-005 -0.155911E-004  0.000000E+000
 0.186438E-005 -0.153318E-004  0.000000E+000
 0.181608E-005 -0.150750E-004  0.000000E+000
 0.176792E-005 -0.148208E-004  0.000000E+000
 0.171992E-005 -0.145693E-004  0.000000E+000
 0.167208E-005 -0.143209E-004  0.000000E+000
 0.162444E-005 -0.140755E-004  0.000000E+000
 0.157702E-005 -0.138335E-004  0.000000E+000
 0.152985E-005 -0.135950E-004  0.000000E+000
 0.148298E-005 -0.133603E-004  0.000000E+000
 0.143645E-005 -0.131296E-004  0.000000E+000
 0.139033E-005 -0.129031E-004  0.000000E+000
 0.134467E-005 -0.126811E-004  0.000000E+000
 0.129957E-005 -0.124638E-004  0.000000E+000
 0.125513E-005 -0.122515E-004  0.000000E+000
 0.121147E-005 -0.120444E-004  0.000000E+000
 0.116876E-005 -0.118426E-004  0.000000E+000
 0.112718E-005 -0.116463E-004  0.000000E+000
 0.108699E-005 -0.114554E-004  0.000000E+000
 0.104849E-005 -0.112699E-004  0.000000E+000
 0.101208E-005 -0.110894E-004  0.000000E+000
 0.978281E-006 -0.109130E-004  0.000000E+000
 0.947754E-006 -0.107396E-004  0.000000E+000
 0.921381E-006 -0.105668E-004  0.000000E+000
 0.900339E-006 -0.103912E-004  0.000000E+000
 0.886213E-006 -0.102072E-004  0.000000E+000
 0.881177E-006 -0.100062E-004  0.000000E+000
 0.888250E-006 -0.977440E-005  0.000000E+000
 0.911685E-006 -0.948980E-005  0.000000E+000
 0.957576E-006 -0.911690E-005  0.000000E+000
 0.103479E-005 -0.859714E-005  0.000000E+000
 0.115643E-005 -0.783146E-005  0.000000E+000
 0.365248E-004 -0.100282E-005  0.000000E+000
 0.359088E-004 -0.966363E-006  0.000000E+000
 0.352985E-004 -0.929825E-006  0.000000E+000
 0.346942E-004 -0.893199E-006  0.000000E+000
 0.340963E-004 -0.856482E-006  0.000000E+000
 0.335053E-004 -0.819674E-006  0.000000E+000
 0.329218E-004 -0.782779E-006  0.000000E+000
 0.323462E-004 -0.745804E-006  0.000000E+000
 0.317792E-004 -0.708761E-006  0.000000E+000
 0.312215E-004 -0.671666E-006  0.000000E+000
 0.306738E-004 -0.634542E-006  0.000000E+000
 0.301370E-004 -0.597420E-006  0.000000E+000
 0.296119E-004 -0.560342E-006  0.000000E+000
 0.290996E-004 -0.523362E-006  0.000000E+000
 0.286013E-004 -0.486550E-006  0.000000E+000
 0.281181E-004 -0.449998E-006  0.000000E+000
 0.276514E-004 -0.413825E-006  0.000000E+000
 0.272027E-004 -0.378188E-006  0.000000E+000
 0.267738E-004 -0.343289E-006  0.000000E+000
 0.263665E-004 -0.309394E-006  0.000000E+000
 0.259827E-004 -0.276853E-006  0.000000E+000
 0.256247E-004 -0.246130E-006  0.000000E+000
 0.252947E-004 -0.217841E-006  0.000000E+000
 0.249951E-004 -0.192817E-006  0.000000E+000
 0.247282E-004 -0.172183E-006  0.000000E+000
 0.244960E-004 -0.157480E-006  0.000000E+000
 0.242997E-004 -0.150838E-006  0.000000E+000
 0.241392E-004 -0.155243E-006  0.000000E+000
 0.240116E-004 -0.174925E-006  0.000000E+000
 0.239089E-004 -0.215966E-006  0.000000E+000
 0.238139E-004 -0.287231E-006  0.000000E+000
 0.236926E-004 -0.401846E-006  0.000000E+000
 0.234791E-004 -0.579557E-006  0.000000E+000
 0.294423E-005 -0.158164E-004  0.000000E+000
 0.287145E-005 -0.155540E-004  0.000000E+000
 0.279884E-005 -0.152939E-004  0.000000E+000
 0.272641E-005 -0.150363E-004  0.000000E+000
 0.265419E-005 -0.147813E-004  0.000000E+000
 0.258219E-005 -0.145290E-004  0.000000E+000
 0.251044E-005 -0.142797E-004  0.000000E+000
 0.243899E-005 -0.140335E-004  0.000000E+000
 0.236787E-005 -0.137907E-004  0.000000E+000
 0.229712E-005 -0.135513E-004  0.000000E+000
 0.222682E-005 -0.133158E-004  0.000000E+000
 0.215703E-005 -0.130842E-004  0.000000E+000
 0.208783E-005 -0.128568E-004  0.000000E+000
 0.201933E-005 -0.126340E-004  0.000000E+000
 0.195166E-005 -0.124159E-004  0.000000E+000
 0.188497E-005 -0.122028E-004  0.000000E+000
 0.181945E-005 -0.119948E-004  0.000000E+000
 0.175534E-005 -0.117923E-004  0.000000E+000
 0.169291E-005 -0.115954E-004  0.000000E+000
 0.163255E-005 -0.114040E-004  0.000000E+000
 0.157471E-005 -0.112181E-004  0.000000E+000
 0.151999E-005 -0.110373E-004  0.000000E+000
 0.146915E-005 -0.108609E-004  0.000000E+000
 0.142319E-005 -0.106877E-004  0.000000E+000
 0.138343E-005 -0.105156E-004  0.000000E+000
 0.135162E-005 -0.103411E-004  0.000000E+000
 0.133015E-005 -0.101589E-004  0.000000E+000
 0.132227E-005 -0.996043E-005  0.000000E+000
 0.133251E-005 -0.973218E-005  0.000000E+000
 0.136728E-005 -0.945246E-005  0.000000E+000
 0.143575E-005 -0.908607E-005  0.000000E+000
 0.155129E-005 -0.857477E-005  0.000000E+000
 0.173376E-005 -0.781970E-005  0.000000E+000
 0.364562E-004 -0.134351E-005  0.000000E+000
 0.358385E-004 -0.129499E-005  0.000000E+000
 0.352264E-004 -0.124635E-005  0.000000E+000
 0.346203E-004 -0.119759E-005  0.000000E+000
 0.340207E-004 -0.114870E-005  0.000000E+000
 0.334279E-004 -0.109970E-005  0.000000E+000
 0.328424E-004 -0.105057E-005  0.000000E+000
 0.322650E-004 -0.100134E-005  0.000000E+000
 0.316961E-004 -0.952006E-006  0.000000E+000
 0.311364E-004 -0.902602E-006  0.000000E+000
 0.305868E-004 -0.853155E-006  0.000000E+000
 0.300480E-004 -0.803704E-006  0.000000E+000
 0.295209E-004 -0.754303E-006  0.000000E+000
 0.290067E-004 -0.705021E-006  0.000000E+000
 0.285063E-004 -0.655952E-006  0.000000E+000
 0.280211E-004 -0.607215E-006  0.000000E+000
 0.275525E-004 -0.558965E-006  0.000000E+000
 0.271020E-004 -0.511406E-006  0.000000E+000
 0.266714E-004 -0.464804E-006  0.000000E+000
 0.262624E-004 -0.419507E-006  0.000000E+000
 0.258771E-004 -0.375976E-006  0.000000E+000
 0.255179E-004 -0.334820E-006  0.000000E+000
 0.251870E-004 -0.296853E-006  0.000000E+000
 0.248869E-004 -0.263170E-006  0.000000E+000
 0.246201E-004 -0.235258E-006  0.000000E+000
 0.243887E-004 -0.215158E-006  0.000000E+000
 0.241942E-004 -0.205696E-006  0.000000E+000
 0.240369E-004 -0.210841E-006  0.000000E+000
 0.239140E-004 -0.236231E-006  0.000000E+000
 0.238184E-004 -0.289987E-006  0.000000E+000
 0.237333E-004 -0.383984E-006  0.000000E+000
 0.236254E-004 -0.535849E-006  0.000000E+000
 0.234295E-004 -0.772181E-006  0.000000E+000
 0.392972E-005 -0.157665E-004  0.000000E+000
 0.383271E-005 -0.155030E-004  0.000000E+000
 0.373593E-005 -0.152419E-004  0.000000E+000
 0.363939E-005 -0.149831E-004  0.000000E+000
 0.354312E-005 -0.147270E-004  0.000000E+000
 0.344714E-005 -0.144736E-004  0.000000E+000
 0.335151E-005 -0.142231E-004  0.000000E+000
 0.325625E-005 -0.139757E-004  0.000000E+000
 0.316143E-005 -0.137317E-004  0.000000E+000
 0.306712E-005 -0.134912E-004  0.000000E+000
 0.297338E-005 -0.132544E-004  0.000000E+000
 0.288032E-005 -0.130216E-004  0.000000E+000
 0.278805E-005 -0.127931E-004  0.000000E+000
 0.269670E-005 -0.125690E-004  0.000000E+000
 0.260644E-005 -0.123497E-004  0.000000E+000
 0.251748E-005 -0.121355E-004  0.000000E+000
 0.243005E-005 -0.119265E-004  0.000000E+000
 0.234448E-005 -0.117230E-004  0.000000E+000
 0.226115E-005 -0.115251E-004  0.000000E+000
 0.218053E-005 -0.113329E-004  0.000000E+000
 0.210325E-005 -0.111464E-004  0.000000E+000
 0.203008E-005 -0.109653E-004  0.000000E+000
 0.196204E-005 -0.107888E-004  0.000000E+000
 0.190046E-005 -0.106159E-004  0.000000E+000
 0.184707E-005 -0.104446E-004  0.000000E+000
 0.180422E-005 -0.102716E-004  0.000000E+000
 0.177507E-005 -0.100917E-004  0.000000E+000
 0.176397E-005 -0.989674E-005  0.000000E+000
 0.177695E-005 -0.967338E-005  0.000000E+000
 0.182259E-005 -0.940038E-005  0.000000E+000
 0.191319E-005 -0.904301E-005  0.000000E+000
 0.206675E-005 -0.854348E-005  0.000000E+000
 0.231003E-005 -0.780325E-005  0.000000E+000
 0.363699E-004 -0.168946E-005  0.000000E+000
 0.357501E-004 -0.162893E-005  0.000000E+000
 0.351358E-004 -0.156825E-005  0.000000E+000
 0.345274E-004 -0.150742E-005  0.000000E+000
 0.339255E-004 -0.144643E-005  0.000000E+000
 0.333303E-004 -0.138529E-005  0.000000E+000
 0.327425E-004 -0.132399E-005  0.000000E+000
 0.321627E-004 -0.126255E-005  0.000000E+000
 0.315913E-004 -0.120099E-005  0.000000E+000
 0.310292E-004 -0.113933E-005  0.000000E+000
 0.304770E-004 -0.107760E-005  0.000000E+000
 0.299357E-004 -0.101586E-005  0.000000E+000
 0.294061E-004 -0.954173E-006  0.000000E+000
 0.288892E-004 -0.892617E-006  0.000000E+000
 0.283863E-004 -0.831306E-006  0.000000E+000
 0.278986E-004 -0.770387E-006  0.000000E+000
 0.274275E-004 -0.710049E-006  0.000000E+000
 0.269746E-004 -0.650539E-006  0.000000E+000
 0.265416E-004 -0.592183E-006  0.000000E+000
 0.261305E-004 -0.535408E-006  0.000000E+000
 0.257433E-004 -0.480777E-006  0.000000E+000
 0.253824E-004 -0.429039E-006  0.000000E+000
 0.250503E-004 -0.381197E-006  0.000000E+000
 0.247495E-004 -0.338600E-006  0.000000E+000
 0.244827E-004 -0.303088E-006  0.000000E+000
 0.242522E-004 -0.277188E-006  0.000000E+000
 0.240599E-004 -0.264410E-006  0.000000E+000
 0.239063E-004 -0.269696E-006  0.000000E+000
 0.237895E-004 -0.300084E-006  0.000000E+000
 0.237026E-004 -0.365749E-006  0.000000E+000
 0.236300E-004 -0.481614E-006  0.000000E+000
 0.235391E-004 -0.669911E-006  0.000000E+000
 0.233659E-004 -0.964326E-006  0.000000E+000
 0.491852E-005 -0.157039E-004  0.000000E+000
 0.479732E-005 -0.154391E-004  0.000000E+000
 0.467639E-005 -0.151765E-004  0.000000E+000
 0.455576E-005 -0.149164E-004  0.000000E+000
 0.443546E-005 -0.146588E-004  0.000000E+000
 0.431553E-005 -0.144039E-004  0.000000E+000
 0.419601E-005 -0.141520E-004  0.000000E+000
 0.407697E-005 -0.139031E-004  0.000000E+000
 0.395847E-005 -0.136576E-004  0.000000E+000
 0.384059E-005 -0.134155E-004  0.000000E+000
 0.372343E-005 -0.131772E-004  0.000000E+000
 0.360710E-005 -0.129429E-004  0.000000E+000
 0.349175E-005 -0.127128E-004  0.000000E+000
 0.337753E-005 -0.124872E-004  0.000000E+000
 0.326466E-005 -0.122664E-004  0.000000E+000
 0.315339E-005 -0.120507E-004  0.000000E+000
 0.304402E-005 -0.118403E-004  0.000000E+000
 0.293693E-005 -0.116354E-004  0.000000E+000
 0.283260E-005 -0.114364E-004  0.000000E+000
 0.273163E-005 -0.112432E-004  0.000000E+000
 0.263477E-005 -0.110558E-004  0.000000E+000
 0.254299E-005 -0.108741E-004  0.000000E+000
 0.245755E-005 -0.106975E-004  0.000000E+000
 0.238010E-005 -0.105249E-004  0.000000E+000
 0.231279E-005 -0.103545E-004  0.000000E+000
 0.225854E-005 -0.101833E-004  0.000000E+000
 0.222129E-005 -0.100063E-004  0.000000E+000
 0.220645E-005 -0.981557E-005  0.000000E+000
 0.222161E-005 -0.959832E-005  0.000000E+000
 0.227752E-005 -0.933378E-005  0.000000E+000
 0.238968E-005 -0.898782E-005  0.000000E+000
 0.258082E-005 -0.850329E-005  0.000000E+000
 0.288489E-005 -0.778211E-005  0.000000E+000
 0.362673E-004 -0.204167E-005  0.000000E+000
 0.356449E-004 -0.196922E-005  0.000000E+000
 0.350279E-004 -0.189659E-005  0.000000E+000
 0.344169E-004 -0.182377E-005  0.000000E+000
 0.338121E-004 -0.175075E-005  0.000000E+000
 0.332142E-004 -0.167754E-005  0.000000E+000
 0.326235E-004 -0.160415E-005  0.000000E+000
 0.320407E-004 -0.153057E-005  0.000000E+000
 0.314663E-004 -0.145685E-005  0.000000E+000
 0.309012E-004 -0.138299E-005  0.000000E+000
 0.303460E-004 -0.130905E-005  0.000000E+000
 0.298015E-004 -0.123507E-005  0.000000E+000
 0.292688E-004 -0.116114E-005  0.000000E+000
 0.287489E-004 -0.108734E-005  0.000000E+000
 0.282429E-004 -0.101382E-005  0.000000E+000
 0.277520E-004 -0.940726E-006  0.000000E+000
 0.272779E-004 -0.868293E-006  0.000000E+000
 0.268220E-004 -0.796806E-006  0.000000E+000
 0.263861E-004 -0.726644E-006  0.000000E+000
 0.259723E-004 -0.658305E-006  0.000000E+000
 0.255827E-004 -0.592451E-006  0.000000E+000
 0.252197E-004 -0.529962E-006  0.000000E+000
 0.248859E-004 -0.472017E-006  0.000000E+000
 0.245840E-004 -0.420212E-006  0.000000E+000
 0.243170E-004 -0.376722E-006  0.000000E+000
 0.240874E-004 -0.344544E-006  0.000000E+000
 0.238975E-004 -0.327860E-006  0.000000E+000
 0.237483E-004 -0.332565E-006  0.000000E+000
 0.236384E-004 -0.367095E-006  0.000000E+000
 0.235620E-004 -0.443685E-006  0.000000E+000
 0.235042E-004 -0.580353E-006  0.000000E+000
 0.234339E-004 -0.804065E-006  0.000000E+000
 0.232882E-004 -0.115587E-005  0.000000E+000
 0.591122E-005 -0.156297E-004  0.000000E+000
 0.576586E-005 -0.153633E-004  0.000000E+000
 0.562081E-005 -0.150991E-004  0.000000E+000
 0.547612E-005 -0.148372E-004  0.000000E+000
 0.533182E-005 -0.145779E-004  0.000000E+000
 0.518796E-005 -0.143213E-004  0.000000E+000
 0.504459E-005 -0.140676E-004  0.000000E+000
 0.490179E-005 -0.138169E-004  0.000000E+000
 0.475962E-005 -0.135695E-004  0.000000E+000
 0.461819E-005 -0.133256E-004  0.000000E+000
 0.447761E-005 -0.130854E-004  0.000000E+000
 0.433802E-005 -0.128491E-004  0.000000E+000
 0.419958E-005 -0.126172E-004  0.000000E+000
 0.406248E-005 -0.123897E-004  0.000000E+000
 0.392698E-005 -0.121671E-004  0.000000E+000
 0.379336E-005 -0.119495E-004  0.000000E+000
 0.366199E-005 -0.117374E-004  0.000000E+000
 0.353331E-005 -0.115309E-004  0.000000E+000
 0.340790E-005 -0.113303E-004  0.000000E+000
 0.328645E-005 -0.111357E-004  0.000000E+000
 0.316986E-005 -0.109473E-004  0.000000E+000
 0.305929E-005 -0.107648E-004  0.000000E+000
 0.295622E-005 -0.105879E-004  0.000000E+000
 0.286260E-005 -0.104155E-004  0.000000E+000
 0.278102E-005 -0.102461E-004  0.000000E+000
 0.271493E-005 -0.100769E-004  0.000000E+000
 0.266907E-005 -0.990320E-005  0.000000E+000
 0.264991E-005 -0.971746E-005  0.000000E+000
 0.266657E-005 -0.950741E-005  0.000000E+000
 0.273201E-005 -0.925292E-005  0.000000E+000
 0.286500E-005 -0.892063E-005  0.000000E+000
 0.309318E-005 -0.845424E-005  0.000000E+000
 0.345799E-005 -0.775630E-005  0.000000E+000
 0.361501E-004 -0.240099E-005  0.000000E+000
 0.355246E-004 -0.231672E-005  0.000000E+000
 0.349045E-004 -0.223222E-005  0.000000E+000
 0.342903E-004 -0.214750E-005  0.000000E+000
 0.336823E-004 -0.206255E-005  0.000000E+000
 0.330810E-004 -0.197737E-005  0.000000E+000
 0.324870E-004 -0.189196E-005  0.000000E+000
 0.319007E-004 -0.180634E-005  0.000000E+000
 0.313229E-004 -0.172052E-005  0.000000E+000
 0.307542E-004 -0.163455E-005  0.000000E+000
 0.301954E-004 -0.154846E-005  0.000000E+000
 0.296474E-004 -0.146232E-005  0.000000E+000
 0.291110E-004 -0.137620E-005  0.000000E+000
 0.285873E-004 -0.129022E-005  0.000000E+000
 0.280776E-004 -0.120451E-005  0.000000E+000
 0.275831E-004 -0.111928E-005  0.000000E+000
 0.271053E-004 -0.103475E-005  0.000000E+000
 0.266458E-004 -0.951267E-006  0.000000E+000
 0.262065E-004 -0.869249E-006  0.000000E+000
 0.257894E-004 -0.789263E-006  0.000000E+000
 0.253968E-004 -0.712059E-006  0.000000E+000
 0.250311E-004 -0.638638E-006  0.000000E+000
 0.246952E-004 -0.570345E-006  0.000000E+000
 0.243920E-004 -0.509007E-006  0.000000E+000
 0.241245E-004 -0.457118E-006  0.000000E+000
 0.238957E-004 -0.418130E-006  0.000000E+000
 0.237082E-004 -0.396869E-006  0.000000E+000
 0.235638E-004 -0.400172E-006  0.000000E+000
 0.234617E-004 -0.437856E-006  0.000000E+000
 0.233970E-004 -0.524224E-006  0.000000E+000
 0.233563E-004 -0.680442E-006  0.000000E+000
 0.233099E-004 -0.938352E-006  0.000000E+000
 0.231965E-004 -0.134670E-005  0.000000E+000
 0.690830E-005 -0.155453E-004  0.000000E+000
 0.673881E-005 -0.152770E-004  0.000000E+000
 0.656969E-005 -0.150108E-004  0.000000E+000
 0.640097E-005 -0.147470E-004  0.000000E+000
 0.623270E-005 -0.144857E-004  0.000000E+000
 0.606494E-005 -0.142270E-004  0.000000E+000
 0.589775E-005 -0.139712E-004  0.000000E+000
 0.573120E-005 -0.137184E-004  0.000000E+000
 0.556539E-005 -0.134688E-004  0.000000E+000
 0.540043E-005 -0.132227E-004  0.000000E+000
 0.523644E-005 -0.129803E-004  0.000000E+000
 0.507359E-005 -0.127419E-004  0.000000E+000
 0.491206E-005 -0.125077E-004  0.000000E+000
 0.475207E-005 -0.122780E-004  0.000000E+000
 0.459391E-005 -0.120531E-004  0.000000E+000
 0.443791E-005 -0.118334E-004  0.000000E+000
 0.428448E-005 -0.116192E-004  0.000000E+000
 0.413415E-005 -0.114107E-004  0.000000E+000
 0.398755E-005 -0.112082E-004  0.000000E+000
 0.384550E-005 -0.110120E-004  0.000000E+000
 0.370902E-005 -0.108222E-004  0.000000E+000
 0.357944E-005 -0.106387E-004  0.000000E+000
 0.345848E-005 -0.104612E-004  0.000000E+000
 0.334838E-005 -0.102889E-004  0.000000E+000
 0.325213E-005 -0.101205E-004  0.000000E+000
 0.317373E-005 -0.995337E-005  0.000000E+000
 0.311867E-005 -0.978324E-005  0.000000E+000
 0.309451E-005 -0.960305E-005  0.000000E+000
 0.311189E-005 -0.940112E-005  0.000000E+000
 0.318601E-005 -0.915811E-005  0.000000E+000
 0.333898E-005 -0.884162E-005  0.000000E+000
 0.360352E-005 -0.839637E-005  0.000000E+000
 0.402897E-005 -0.772582E-005  0.000000E+000
 0.360199E-004 -0.276808E-005  0.000000E+000
 0.353909E-004 -0.267208E-005  0.000000E+000
 0.347673E-004 -0.257583E-005  0.000000E+000
 0.341495E-004 -0.247932E-005  0.000000E+000
 0.335378E-004 -0.238253E-005  0.000000E+000
 0.329327E-004 -0.228547E-005  0.000000E+000
 0.323349E-004 -0.218815E-005  0.000000E+000
 0.317447E-004 -0.209058E-005  0.000000E+000
 0.311629E-004 -0.199278E-005  0.000000E+000
 0.305902E-004 -0.189478E-005  0.000000E+000
 0.300273E-004 -0.179664E-005  0.000000E+000
 0.294750E-004 -0.169841E-005  0.000000E+000
 0.289344E-004 -0.160018E-005  0.000000E+000
 0.284065E-004 -0.150207E-005  0.000000E+000
 0.278925E-004 -0.140424E-005  0.000000E+000
 0.273937E-004 -0.130689E-005  0.000000E+000
 0.269117E-004 -0.121029E-005  0.000000E+000
 0.264480E-004 -0.111480E-005  0.000000E+000
 0.260046E-004 -0.102089E-005  0.000000E+000
 0.255837E-004 -0.929181E-006  0.000000E+000
 0.251875E-004 -0.840503E-006  0.000000E+000
 0.248186E-004 -0.755969E-006  0.000000E+000
 0.244800E-004 -0.677078E-006  0.000000E+000
 0.241749E-004 -0.605867E-006  0.000000E+000
 0.239065E-004 -0.545135E-006  0.000000E+000
 0.236782E-004 -0.498762E-006  0.000000E+000
 0.234932E-004 -0.472198E-006  0.000000E+000
 0.233537E-004 -0.473194E-006  0.000000E+000
 0.232600E-004 -0.512933E-006  0.000000E+000
 0.232083E-004 -0.607790E-006  0.000000E+000
 0.231867E-004 -0.782130E-006  0.000000E+000
 0.231673E-004 -0.107283E-005  0.000000E+000
 0.230908E-004 -0.153669E-005  0.000000E+000
 0.791007E-005 -0.154520E-004  0.000000E+000
 0.771649E-005 -0.151815E-004  0.000000E+000
 0.752333E-005 -0.149131E-004  0.000000E+000
 0.733063E-005 -0.146471E-004  0.000000E+000
 0.713843E-005 -0.143835E-004  0.000000E+000
 0.694680E-005 -0.141225E-004  0.000000E+000
 0.675581E-005 -0.138643E-004  0.000000E+000
 0.656556E-005 -0.136091E-004  0.000000E+000
 0.637613E-005 -0.133570E-004  0.000000E+000
 0.618766E-005 -0.131084E-004  0.000000E+000
 0.600028E-005 -0.128635E-004  0.000000E+000
 0.581418E-005 -0.126225E-004  0.000000E+000
 0.562956E-005 -0.123858E-004  0.000000E+000
 0.544668E-005 -0.121535E-004  0.000000E+000
 0.526585E-005 -0.119261E-004  0.000000E+000
 0.508743E-005 -0.117039E-004  0.000000E+000
 0.491190E-005 -0.114872E-004  0.000000E+000
 0.473984E-005 -0.112763E-004  0.000000E+000
 0.457196E-005 -0.110716E-004  0.000000E+000
 0.440917E-005 -0.108734E-004  0.000000E+000
 0.425264E-005 -0.106819E-004  0.000000E+000
 0.410384E-005 -0.104970E-004  0.000000E+000
 0.396471E-005 -0.103187E-004  0.000000E+000
 0.383779E-005 -0.101464E-004  0.000000E+000
 0.372644E-005 -0.997877E-005  0.000000E+000
 0.363521E-005 -0.981371E-005  0.000000E+000
 0.357033E-005 -0.964732E-005  0.000000E+000
 0.354041E-005 -0.947308E-005  0.000000E+000
 0.355763E-005 -0.928002E-005  0.000000E+000
 0.363946E-005 -0.904974E-005  0.000000E+000
 0.381143E-005 -0.875097E-005  0.000000E+000
 0.411156E-005 -0.832975E-005  0.000000E+000
 0.459750E-005 -0.769068E-005  0.000000E+000
 0.358786E-004 -0.314338E-005  0.000000E+000
 0.352458E-004 -0.303578E-005  0.000000E+000
 0.346182E-004 -0.292789E-005  0.000000E+000
 0.339963E-004 -0.281969E-005  0.000000E+000
 0.333805E-004 -0.271119E-005  0.000000E+000
 0.327713E-004 -0.260237E-005  0.000000E+000
 0.321691E-004 -0.249325E-005  0.000000E+000
 0.315746E-004 -0.238384E-005  0.000000E+000
 0.309883E-004 -0.227417E-005  0.000000E+000
 0.304110E-004 -0.216425E-005  0.000000E+000
 0.298435E-004 -0.205415E-005  0.000000E+000
 0.292866E-004 -0.194393E-005  0.000000E+000
 0.287412E-004 -0.183368E-005  0.000000E+000
 0.282085E-004 -0.172353E-005  0.000000E+000
 0.276896E-004 -0.161365E-005  0.000000E+000
 0.271860E-004 -0.150424E-005  0.000000E+000
 0.266991E-004 -0.139560E-005  0.000000E+000
 0.262307E-004 -0.128811E-005  0.000000E+000
 0.257826E-004 -0.118228E-005  0.000000E+000
 0.253572E-004 -0.107878E-005  0.000000E+000
 0.249567E-004 -0.978522E-006  0.000000E+000
 0.245841E-004 -0.882705E-006  0.000000E+000
 0.242422E-004 -0.792968E-006  0.000000E+000
 0.239346E-004 -0.711545E-006  0.000000E+000
 0.236649E-004 -0.641515E-006  0.000000E+000
 0.234367E-004 -0.587163E-006  0.000000E+000
 0.232539E-004 -0.554532E-006  0.000000E+000
 0.231193E-004 -0.552259E-006  0.000000E+000
 0.230343E-004 -0.592867E-006  0.000000E+000
 0.229965E-004 -0.694800E-006  0.000000E+000
 0.229957E-004 -0.885672E-006  0.000000E+000
 0.230062E-004 -0.120755E-005  0.000000E+000
 0.229712E-004 -0.172572E-005  0.000000E+000
 0.891670E-005 -0.153512E-004  0.000000E+000
 0.869909E-005 -0.150783E-004  0.000000E+000
 0.848193E-005 -0.148076E-004  0.000000E+000
 0.826528E-005 -0.145390E-004  0.000000E+000
 0.804919E-005 -0.142729E-004  0.000000E+000
 0.783374E-005 -0.140093E-004  0.000000E+000
 0.761899E-005 -0.137485E-004  0.000000E+000
 0.740506E-005 -0.134905E-004  0.000000E+000
 0.719205E-005 -0.132358E-004  0.000000E+000
 0.698009E-005 -0.129844E-004  0.000000E+000
 0.676935E-005 -0.127366E-004  0.000000E+000
 0.656002E-005 -0.124928E-004  0.000000E+000
 0.635233E-005 -0.122531E-004  0.000000E+000
 0.614655E-005 -0.120179E-004  0.000000E+000
 0.594302E-005 -0.117876E-004  0.000000E+000
 0.574217E-005 -0.115625E-004  0.000000E+000
 0.554450E-005 -0.113430E-004  0.000000E+000
 0.535064E-005 -0.111294E-004  0.000000E+000
 0.516139E-005 -0.109222E-004  0.000000E+000
 0.497774E-005 -0.107216E-004  0.000000E+000
 0.480098E-005 -0.105279E-004  0.000000E+000
 0.463275E-005 -0.103414E-004  0.000000E+000
 0.447518E-005 -0.101619E-004  0.000000E+000
 0.433108E-005 -0.998917E-005  0.000000E+000
 0.420420E-005 -0.982217E-005  0.000000E+000
 0.409960E-005 -0.965906E-005  0.000000E+000
 0.402422E-005 -0.949643E-005  0.000000E+000
 0.398774E-005 -0.932838E-005  0.000000E+000
 0.400385E-005 -0.914477E-005  0.000000E+000
 0.409233E-005 -0.892825E-005  0.000000E+000
 0.428222E-005 -0.864894E-005  0.000000E+000
 0.461703E-005 -0.825444E-005  0.000000E+000
 0.516323E-005 -0.765092E-005  0.000000E+000
 0.357280E-004 -0.352715E-005  0.000000E+000
 0.350909E-004 -0.340808E-005  0.000000E+000
 0.344591E-004 -0.328867E-005  0.000000E+000
 0.338327E-004 -0.316892E-005  0.000000E+000
 0.332124E-004 -0.304882E-005  0.000000E+000
 0.325986E-004 -0.292837E-005  0.000000E+000
 0.319917E-004 -0.280758E-005  0.000000E+000
 0.313924E-004 -0.268646E-005  0.000000E+000
 0.308012E-004 -0.256502E-005  0.000000E+000
 0.302189E-004 -0.244331E-005  0.000000E+000
 0.296463E-004 -0.232138E-005  0.000000E+000
 0.290842E-004 -0.219928E-005  0.000000E+000
 0.285335E-004 -0.207712E-005  0.000000E+000
 0.279955E-004 -0.195502E-005  0.000000E+000
 0.274712E-004 -0.183316E-005  0.000000E+000
 0.269621E-004 -0.171177E-005  0.000000E+000
 0.264698E-004 -0.159114E-005  0.000000E+000
 0.259959E-004 -0.147168E-005  0.000000E+000
 0.255426E-004 -0.135394E-005  0.000000E+000
 0.251120E-004 -0.123861E-005  0.000000E+000
 0.247066E-004 -0.112668E-005  0.000000E+000
 0.243295E-004 -0.101943E-005  0.000000E+000
 0.239838E-004 -0.918615E-006  0.000000E+000
 0.236730E-004 -0.826655E-006  0.000000E+000
 0.234013E-004 -0.746880E-006  0.000000E+000
 0.231727E-004 -0.683953E-006  0.000000E+000
 0.229917E-004 -0.644476E-006  0.000000E+000
 0.228619E-004 -0.637935E-006  0.000000E+000
 0.227858E-004 -0.678163E-006  0.000000E+000
 0.227625E-004 -0.785661E-006  0.000000E+000
 0.227839E-004 -0.991332E-006  0.000000E+000
 0.228270E-004 -0.134261E-005  0.000000E+000
 0.228378E-004 -0.191369E-005  0.000000E+000
 0.992824E-005 -0.152445E-004  0.000000E+000
 0.968664E-005 -0.149691E-004  0.000000E+000
 0.944552E-005 -0.146956E-004  0.000000E+000
 0.920497E-005 -0.144244E-004  0.000000E+000
 0.896503E-005 -0.141555E-004  0.000000E+000
 0.872579E-005 -0.138891E-004  0.000000E+000
 0.848733E-005 -0.136253E-004  0.000000E+000
 0.824976E-005 -0.133644E-004  0.000000E+000
 0.801320E-005 -0.131067E-004  0.000000E+000
 0.777779E-005 -0.128522E-004  0.000000E+000
 0.754372E-005 -0.126013E-004  0.000000E+000
 0.731118E-005 -0.123543E-004  0.000000E+000
 0.708042E-005 -0.121114E-004  0.000000E+000
 0.685175E-005 -0.118730E-004  0.000000E+000
 0.662554E-005 -0.116395E-004  0.000000E+000
 0.640223E-005 -0.114111E-004  0.000000E+000
 0.618238E-005 -0.111884E-004  0.000000E+000
 0.596667E-005 -0.109717E-004  0.000000E+000
 0.575596E-005 -0.107615E-004  0.000000E+000
 0.555135E-005 -0.105581E-004  0.000000E+000
 0.535421E-005 -0.103619E-004  0.000000E+000
 0.516634E-005 -0.101733E-004  0.000000E+000
 0.499005E-005 -0.999231E-005  0.000000E+000
 0.482844E-005 -0.981879E-005  0.000000E+000
 0.468558E-005 -0.965207E-005  0.000000E+000
 0.456705E-005 -0.949066E-005  0.000000E+000
 0.448050E-005 -0.933167E-005  0.000000E+000
 0.443661E-005 -0.916988E-005  0.000000E+000
 0.445062E-005 -0.899608E-005  0.000000E+000
 0.454460E-005 -0.879415E-005  0.000000E+000
 0.475121E-005 -0.853579E-005  0.000000E+000
 0.511967E-005 -0.817055E-005  0.000000E+000
 0.572580E-005 -0.760654E-005  0.000000E+000
 0.355700E-004 -0.391948E-005  0.000000E+000
 0.349284E-004 -0.378906E-005  0.000000E+000
 0.342918E-004 -0.365827E-005  0.000000E+000
 0.336608E-004 -0.352709E-005  0.000000E+000
 0.330356E-004 -0.339553E-005  0.000000E+000
 0.324167E-004 -0.326358E-005  0.000000E+000
 0.318047E-004 -0.313125E-005  0.000000E+000
 0.312002E-004 -0.299855E-005  0.000000E+000
 0.306037E-004 -0.286550E-005  0.000000E+000
 0.300159E-004 -0.273213E-005  0.000000E+000
 0.294377E-004 -0.259848E-005  0.000000E+000
 0.288699E-004 -0.246464E-005  0.000000E+000
 0.283135E-004 -0.233069E-005  0.000000E+000
 0.277696E-004 -0.219676E-005  0.000000E+000
 0.272394E-004 -0.206304E-005  0.000000E+000
 0.267243E-004 -0.192975E-005  0.000000E+000
 0.262259E-004 -0.179721E-005  0.000000E+000
 0.257461E-004 -0.166583E-005  0.000000E+000
 0.252868E-004 -0.153619E-005  0.000000E+000
 0.248503E-004 -0.140903E-005  0.000000E+000
 0.244394E-004 -0.128536E-005  0.000000E+000
 0.240571E-004 -0.116655E-005  0.000000E+000
 0.237067E-004 -0.105446E-005  0.000000E+000
 0.233921E-004 -0.951665E-006  0.000000E+000
 0.231177E-004 -0.861723E-006  0.000000E+000
 0.228881E-004 -0.789641E-006  0.000000E+000
 0.227082E-004 -0.742545E-006  0.000000E+000
 0.225828E-004 -0.730727E-006  0.000000E+000
 0.225155E-004 -0.769289E-006  0.000000E+000
 0.225071E-004 -0.880764E-006  0.000000E+000
 0.225519E-004 -0.109938E-005  0.000000E+000
 0.226297E-004 -0.147808E-005  0.000000E+000
 0.226906E-004 -0.210046E-005  0.000000E+000
 0.109446E-004 -0.151334E-004  0.000000E+000
 0.106790E-004 -0.148551E-004  0.000000E+000
 0.104140E-004 -0.145789E-004  0.000000E+000
 0.101496E-004 -0.143047E-004  0.000000E+000
 0.988585E-005 -0.140328E-004  0.000000E+000
 0.962287E-005 -0.137633E-004  0.000000E+000
 0.936074E-005 -0.134965E-004  0.000000E+000
 0.909957E-005 -0.132324E-004  0.000000E+000
 0.883949E-005 -0.129713E-004  0.000000E+000
 0.858068E-005 -0.127135E-004  0.000000E+000
 0.832329E-005 -0.124592E-004  0.000000E+000
 0.806758E-005 -0.122087E-004  0.000000E+000
 0.781379E-005 -0.119624E-004  0.000000E+000
 0.756225E-005 -0.117204E-004  0.000000E+000
 0.731335E-005 -0.114833E-004  0.000000E+000
 0.706758E-005 -0.112514E-004  0.000000E+000
 0.682552E-005 -0.110251E-004  0.000000E+000
 0.658792E-005 -0.108049E-004  0.000000E+000
 0.635569E-005 -0.105913E-004  0.000000E+000
 0.613000E-005 -0.103847E-004  0.000000E+000
 0.591235E-005 -0.101856E-004  0.000000E+000
 0.570464E-005 -0.999444E-005  0.000000E+000
 0.550940E-005 -0.981147E-005  0.000000E+000
 0.532993E-005 -0.963675E-005  0.000000E+000
 0.517068E-005 -0.946990E-005  0.000000E+000
 0.503768E-005 -0.930983E-005  0.000000E+000
 0.493925E-005 -0.915422E-005  0.000000E+000
 0.488711E-005 -0.899858E-005  0.000000E+000
 0.489798E-005 -0.883474E-005  0.000000E+000
 0.499627E-005 -0.864799E-005  0.000000E+000
 0.521830E-005 -0.841185E-005  0.000000E+000
 0.561927E-005 -0.807817E-005  0.000000E+000
 0.628487E-005 -0.755757E-005  0.000000E+000
 0.354065E-004 -0.432026E-005  0.000000E+000
 0.347600E-004 -0.417863E-005  0.000000E+000
 0.341185E-004 -0.403659E-005  0.000000E+000
 0.334823E-004 -0.389413E-005  0.000000E+000
 0.328518E-004 -0.375125E-005  0.000000E+000
 0.322276E-004 -0.360794E-005  0.000000E+000
 0.316102E-004 -0.346421E-005  0.000000E+000
 0.310000E-004 -0.332008E-005  0.000000E+000
 0.303978E-004 -0.317555E-005  0.000000E+000
 0.298042E-004 -0.303066E-005  0.000000E+000
 0.292200E-004 -0.288545E-005  0.000000E+000
 0.286460E-004 -0.274000E-005  0.000000E+000
 0.280834E-004 -0.259440E-005  0.000000E+000
 0.275331E-004 -0.244878E-005  0.000000E+000
 0.269964E-004 -0.230331E-005  0.000000E+000
 0.264748E-004 -0.215824E-005  0.000000E+000
 0.259698E-004 -0.201389E-005  0.000000E+000
 0.254833E-004 -0.187068E-005  0.000000E+000
 0.250174E-004 -0.172919E-005  0.000000E+000
 0.245745E-004 -0.159021E-005  0.000000E+000
 0.241573E-004 -0.145477E-005  0.000000E+000
 0.237690E-004 -0.132432E-005  0.000000E+000
 0.234132E-004 -0.120079E-005  0.000000E+000
 0.230940E-004 -0.108690E-005  0.000000E+000
 0.228161E-004 -0.986404E-006  0.000000E+000
 0.225846E-004 -0.904623E-006  0.000000E+000
 0.224052E-004 -0.849162E-006  0.000000E+000
 0.222835E-004 -0.831071E-006  0.000000E+000
 0.222247E-004 -0.866669E-006  0.000000E+000
 0.222312E-004 -0.980485E-006  0.000000E+000
 0.223001E-004 -0.121008E-005  0.000000E+000
 0.224149E-004 -0.161409E-005  0.000000E+000
 0.225297E-004 -0.228594E-005  0.000000E+000
 0.119655E-004 -0.150192E-004  0.000000E+000
 0.116760E-004 -0.147380E-004  0.000000E+000
 0.113872E-004 -0.144587E-004  0.000000E+000
 0.110989E-004 -0.141815E-004  0.000000E+000
 0.108114E-004 -0.139064E-004  0.000000E+000
 0.105247E-004 -0.136337E-004  0.000000E+000
 0.102390E-004 -0.133635E-004  0.000000E+000
 0.995426E-005 -0.130960E-004  0.000000E+000
 0.967072E-005 -0.128314E-004  0.000000E+000
 0.938853E-005 -0.125700E-004  0.000000E+000
 0.910788E-005 -0.123121E-004  0.000000E+000
 0.882902E-005 -0.120578E-004  0.000000E+000
 0.855222E-005 -0.118077E-004  0.000000E+000
 0.827783E-005 -0.115619E-004  0.000000E+000
 0.800627E-005 -0.113208E-004  0.000000E+000
 0.773804E-005 -0.110850E-004  0.000000E+000
 0.747377E-005 -0.108548E-004  0.000000E+000
 0.721425E-005 -0.106307E-004  0.000000E+000
 0.696045E-005 -0.104133E-004  0.000000E+000
 0.671361E-005 -0.102031E-004  0.000000E+000
 0.647531E-005 -0.100007E-004  0.000000E+000
 0.624761E-005 -0.980648E-005  0.000000E+000
 0.603317E-005 -0.962105E-005  0.000000E+000
 0.583555E-005 -0.944462E-005  0.000000E+000
 0.565950E-005 -0.927714E-005  0.000000E+000
 0.551150E-005 -0.911795E-005  0.000000E+000
 0.540054E-005 -0.896530E-005  0.000000E+000
 0.533930E-005 -0.881554E-005  0.000000E+000
 0.534598E-005 -0.866162E-005  0.000000E+000
 0.544733E-005 -0.849038E-005  0.000000E+000
 0.568342E-005 -0.827747E-005  0.000000E+000
 0.611562E-005 -0.797743E-005  0.000000E+000
 0.684011E-005 -0.750403E-005  0.000000E+000
 0.352392E-004 -0.472926E-005  0.000000E+000
 0.345875E-004 -0.457655E-005  0.000000E+000
 0.339407E-004 -0.442339E-005  0.000000E+000
 0.332991E-004 -0.426978E-005  0.000000E+000
 0.326631E-004 -0.411573E-005  0.000000E+000
 0.320332E-004 -0.396121E-005  0.000000E+000
 0.314100E-004 -0.380624E-005  0.000000E+000
 0.307938E-004 -0.365082E-005  0.000000E+000
 0.301855E-004 -0.349496E-005  0.000000E+000
 0.295856E-004 -0.333871E-005  0.000000E+000
 0.289950E-004 -0.318210E-005  0.000000E+000
 0.284146E-004 -0.302520E-005  0.000000E+000
 0.278452E-004 -0.286810E-005  0.000000E+000
 0.272881E-004 -0.271093E-005  0.000000E+000
 0.267444E-004 -0.255386E-005  0.000000E+000
 0.262157E-004 -0.239715E-005  0.000000E+000
 0.257036E-004 -0.224110E-005  0.000000E+000
 0.252099E-004 -0.208616E-005  0.000000E+000
 0.247367E-004 -0.193291E-005  0.000000E+000
 0.242866E-004 -0.178215E-005  0.000000E+000
 0.238625E-004 -0.163496E-005  0.000000E+000
 0.234674E-004 -0.149282E-005  0.000000E+000
 0.231054E-004 -0.135774E-005  0.000000E+000
 0.227808E-004 -0.123253E-005  0.000000E+000
 0.224985E-004 -0.112115E-005  0.000000E+000
 0.222643E-004 -0.102918E-005  0.000000E+000
 0.220844E-004 -0.964651E-006  0.000000E+000
 0.219657E-004 -0.939326E-006  0.000000E+000
 0.219146E-004 -0.970676E-006  0.000000E+000
 0.219359E-004 -0.108517E-005  0.000000E+000
 0.220294E-004 -0.132371E-005  0.000000E+000
 0.221827E-004 -0.175074E-005  0.000000E+000
 0.223552E-004 -0.246999E-005  0.000000E+000
 0.129907E-004 -0.149033E-004  0.000000E+000
 0.126774E-004 -0.146191E-004  0.000000E+000
 0.123647E-004 -0.143366E-004  0.000000E+000
 0.120526E-004 -0.140561E-004  0.000000E+000
 0.117414E-004 -0.137777E-004  0.000000E+000
 0.114311E-004 -0.135015E-004  0.000000E+000
 0.111217E-004 -0.132278E-004  0.000000E+000
 0.108135E-004 -0.129567E-004  0.000000E+000
 0.105065E-004 -0.126884E-004  0.000000E+000
 0.102010E-004 -0.124232E-004  0.000000E+000
 0.989715E-005 -0.121614E-004  0.000000E+000
 0.959518E-005 -0.119032E-004  0.000000E+000
 0.929541E-005 -0.116489E-004  0.000000E+000
 0.899821E-005 -0.113990E-004  0.000000E+000
 0.870400E-005 -0.111538E-004  0.000000E+000
 0.841333E-005 -0.109137E-004  0.000000E+000
 0.812685E-005 -0.106792E-004  0.000000E+000
 0.784539E-005 -0.104509E-004  0.000000E+000
 0.756999E-005 -0.102293E-004  0.000000E+000
 0.730193E-005 -0.100151E-004  0.000000E+000
 0.704291E-005 -0.980876E-005  0.000000E+000
 0.679506E-005 -0.961109E-005  0.000000E+000
 0.656124E-005 -0.942266E-005  0.000000E+000
 0.634519E-005 -0.924398E-005  0.000000E+000
 0.615198E-005 -0.907531E-005  0.000000E+000
 0.598850E-005 -0.891643E-005  0.000000E+000
 0.586436E-005 -0.876621E-005  0.000000E+000
 0.579319E-005 -0.862188E-005  0.000000E+000
 0.579465E-005 -0.847762E-005  0.000000E+000
 0.589780E-005 -0.832200E-005  0.000000E+000
 0.614649E-005 -0.813305E-005  0.000000E+000
 0.660854E-005 -0.786850E-005  0.000000E+000
 0.739117E-005 -0.744594E-005  0.000000E+000
 0.350697E-004 -0.514610E-005  0.000000E+000
 0.344126E-004 -0.498243E-005  0.000000E+000
 0.337603E-004 -0.481830E-005  0.000000E+000
 0.331130E-004 -0.465369E-005  0.000000E+000
 0.324712E-004 -0.448860E-005  0.000000E+000
 0.318353E-004 -0.432302E-005  0.000000E+000
 0.312059E-004 -0.415695E-005  0.000000E+000
 0.305835E-004 -0.399040E-005  0.000000E+000
 0.299688E-004 -0.382339E-005  0.000000E+000
 0.293623E-004 -0.365593E-005  0.000000E+000
 0.287649E-004 -0.348808E-005  0.000000E+000
 0.281775E-004 -0.331989E-005  0.000000E+000
 0.276010E-004 -0.315145E-005  0.000000E+000
 0.270366E-004 -0.298290E-005  0.000000E+000
 0.264855E-004 -0.281440E-005  0.000000E+000
 0.259493E-004 -0.264619E-005  0.000000E+000
 0.254294E-004 -0.247860E-005  0.000000E+000
 0.249279E-004 -0.231206E-005  0.000000E+000
 0.244469E-004 -0.214716E-005  0.000000E+000
 0.239890E-004 -0.198471E-005  0.000000E+000
 0.235571E-004 -0.182582E-005  0.000000E+000
 0.231546E-004 -0.167198E-005  0.000000E+000
 0.227855E-004 -0.152527E-005  0.000000E+000
 0.224545E-004 -0.138861E-005  0.000000E+000
 0.221669E-004 -0.126606E-005  0.000000E+000
 0.219289E-004 -0.116346E-005  0.000000E+000
 0.217476E-004 -0.108924E-005  0.000000E+000
 0.216309E-004 -0.105577E-005  0.000000E+000
 0.215868E-004 -0.108163E-005  0.000000E+000
 0.216223E-004 -0.119516E-005  0.000000E+000
 0.217405E-004 -0.144054E-005  0.000000E+000
 0.219336E-004 -0.188816E-005  0.000000E+000
 0.221672E-004 -0.265252E-005  0.000000E+000
 0.140198E-004 -0.147871E-004  0.000000E+000
 0.136826E-004 -0.144996E-004  0.000000E+000
 0.133461E-004 -0.142139E-004  0.000000E+000
 0.130103E-004 -0.139300E-004  0.000000E+000
 0.126754E-004 -0.136480E-004  0.000000E+000
 0.123415E-004 -0.133683E-004  0.000000E+000
 0.120086E-004 -0.130909E-004  0.000000E+000
 0.116769E-004 -0.128160E-004  0.000000E+000
 0.113465E-004 -0.125438E-004  0.000000E+000
 0.110177E-004 -0.122746E-004  0.000000E+000
 0.106907E-004 -0.120087E-004  0.000000E+000
 0.103656E-004 -0.117463E-004  0.000000E+000
 0.100429E-004 -0.114877E-004  0.000000E+000
 0.972295E-005 -0.112334E-004  0.000000E+000
 0.940613E-005 -0.109837E-004  0.000000E+000
 0.909305E-005 -0.107391E-004  0.000000E+000
 0.878438E-005 -0.105000E-004  0.000000E+000
 0.848099E-005 -0.102671E-004  0.000000E+000
 0.818397E-005 -0.100409E-004  0.000000E+000
 0.789466E-005 -0.982217E-005  0.000000E+000
 0.761483E-005 -0.961158E-005  0.000000E+000
 0.734675E-005 -0.940991E-005  0.000000E+000
 0.709337E-005 -0.921794E-005  0.000000E+000
 0.685867E-005 -0.903642E-005  0.000000E+000
 0.664796E-005 -0.886593E-005  0.000000E+000
 0.646855E-005 -0.870670E-005  0.000000E+000
 0.633066E-005 -0.855827E-005  0.000000E+000
 0.624877E-005 -0.841877E-005  0.000000E+000
 0.624400E-005 -0.828370E-005  0.000000E+000
 0.634766E-005 -0.814356E-005  0.000000E+000
 0.660749E-005 -0.797904E-005  0.000000E+000
 0.709787E-005 -0.775155E-005  0.000000E+000
 0.793772E-005 -0.738335E-005  0.000000E+000
 0.348996E-004 -0.557029E-005  0.000000E+000
 0.342369E-004 -0.539581E-005  0.000000E+000
 0.335787E-004 -0.522084E-005  0.000000E+000
 0.329255E-004 -0.504536E-005  0.000000E+000
 0.322776E-004 -0.486938E-005  0.000000E+000
 0.316356E-004 -0.469288E-005  0.000000E+000
 0.309998E-004 -0.451587E-005  0.000000E+000
 0.303708E-004 -0.433835E-005  0.000000E+000
 0.297493E-004 -0.416033E-005  0.000000E+000
 0.291359E-004 -0.398184E-005  0.000000E+000
 0.285314E-004 -0.380291E-005  0.000000E+000
 0.279367E-004 -0.362361E-005  0.000000E+000
 0.273527E-004 -0.344402E-005  0.000000E+000
 0.267806E-004 -0.326425E-005  0.000000E+000
 0.262217E-004 -0.308449E-005  0.000000E+000
 0.256774E-004 -0.290497E-005  0.000000E+000
 0.251493E-004 -0.272599E-005  0.000000E+000
 0.246394E-004 -0.254801E-005  0.000000E+000
 0.241500E-004 -0.237160E-005  0.000000E+000
 0.236836E-004 -0.219759E-005  0.000000E+000
 0.232433E-004 -0.202708E-005  0.000000E+000
 0.228325E-004 -0.186159E-005  0.000000E+000
 0.224555E-004 -0.170325E-005  0.000000E+000
 0.221172E-004 -0.155502E-005  0.000000E+000
 0.218233E-004 -0.142110E-005  0.000000E+000
 0.215805E-004 -0.130752E-005  0.000000E+000
 0.213967E-004 -0.122304E-005  0.000000E+000
 0.212808E-004 -0.118061E-005  0.000000E+000
 0.212425E-004 -0.119980E-005  0.000000E+000
 0.212914E-004 -0.131073E-005  0.000000E+000
 0.214340E-004 -0.156083E-005  0.000000E+000
 0.216679E-004 -0.202648E-005  0.000000E+000
 0.219658E-004 -0.283339E-005  0.000000E+000
 0.150522E-004 -0.146716E-004  0.000000E+000
 0.146912E-004 -0.143808E-004  0.000000E+000
 0.143309E-004 -0.140916E-004  0.000000E+000
 0.139715E-004 -0.138042E-004  0.000000E+000
 0.136129E-004 -0.135187E-004  0.000000E+000
 0.132554E-004 -0.132352E-004  0.000000E+000
 0.128990E-004 -0.129540E-004  0.000000E+000
 0.125438E-004 -0.126751E-004  0.000000E+000
 0.121902E-004 -0.123989E-004  0.000000E+000
 0.118381E-004 -0.121256E-004  0.000000E+000
 0.114879E-004 -0.118554E-004  0.000000E+000
 0.111399E-004 -0.115886E-004  0.000000E+000
 0.107943E-004 -0.113255E-004  0.000000E+000
 0.104516E-004 -0.110665E-004  0.000000E+000
 0.101122E-004 -0.108121E-004  0.000000E+000
 0.977671E-005 -0.105626E-004  0.000000E+000
 0.944588E-005 -0.103187E-004  0.000000E+000
 0.912059E-005 -0.100808E-004  0.000000E+000
 0.880194E-005 -0.984970E-005  0.000000E+000
 0.849137E-005 -0.962606E-005  0.000000E+000
 0.819070E-005 -0.941070E-005  0.000000E+000
 0.790229E-005 -0.920452E-005  0.000000E+000
 0.762925E-005 -0.900845E-005  0.000000E+000
 0.737569E-005 -0.882347E-005  0.000000E+000
 0.714722E-005 -0.865049E-005  0.000000E+000
 0.695151E-005 -0.849020E-005  0.000000E+000
 0.679931E-005 -0.834280E-005  0.000000E+000
 0.670599E-005 -0.820739E-005  0.000000E+000
 0.669400E-005 -0.808089E-005  0.000000E+000
 0.679694E-005 -0.795583E-005  0.000000E+000
 0.706637E-005 -0.781592E-005  0.000000E+000
 0.758347E-005 -0.762678E-005  0.000000E+000
 0.847942E-005 -0.731627E-005  0.000000E+000
 0.347302E-004 -0.600129E-005  0.000000E+000
 0.340616E-004 -0.581611E-005  0.000000E+000
 0.333975E-004 -0.563043E-005  0.000000E+000
 0.327381E-004 -0.544422E-005  0.000000E+000
 0.320840E-004 -0.525749E-005  0.000000E+000
 0.314354E-004 -0.507022E-005  0.000000E+000
 0.307930E-004 -0.488242E-005  0.000000E+000
 0.301572E-004 -0.469409E-005  0.000000E+000
 0.295287E-004 -0.450523E-005  0.000000E+000
 0.289081E-004 -0.431587E-005  0.000000E+000
 0.282962E-004 -0.412604E-005  0.000000E+000
 0.276939E-004 -0.393580E-005  0.000000E+000
 0.271021E-004 -0.374522E-005  0.000000E+000
 0.265219E-004 -0.355444E-005  0.000000E+000
 0.259547E-004 -0.336360E-005  0.000000E+000
 0.254019E-004 -0.317294E-005  0.000000E+000
 0.248651E-004 -0.298277E-005  0.000000E+000
 0.243464E-004 -0.279352E-005  0.000000E+000
 0.238480E-004 -0.260578E-005  0.000000E+000
 0.233725E-004 -0.242035E-005  0.000000E+000
 0.229230E-004 -0.223835E-005  0.000000E+000
 0.225033E-004 -0.206131E-005  0.000000E+000
 0.221176E-004 -0.189137E-005  0.000000E+000
 0.217710E-004 -0.173154E-005  0.000000E+000
 0.214697E-004 -0.158612E-005  0.000000E+000
 0.212210E-004 -0.146129E-005  0.000000E+000
 0.210334E-004 -0.136608E-005  0.000000E+000
 0.209171E-004 -0.131396E-005  0.000000E+000
 0.208834E-004 -0.132538E-005  0.000000E+000
 0.209445E-004 -0.143214E-005  0.000000E+000
 0.211110E-004 -0.168484E-005  0.000000E+000
 0.213861E-004 -0.216585E-005  0.000000E+000
 0.217511E-004 -0.301251E-005  0.000000E+000
 0.160875E-004 -0.145578E-004  0.000000E+000
 0.157027E-004 -0.142636E-004  0.000000E+000
 0.153187E-004 -0.139709E-004  0.000000E+000
 0.149356E-004 -0.136799E-004  0.000000E+000
 0.145534E-004 -0.133907E-004  0.000000E+000
 0.141723E-004 -0.131034E-004  0.000000E+000
 0.137924E-004 -0.128182E-004  0.000000E+000
 0.134139E-004 -0.125354E-004  0.000000E+000
 0.130369E-004 -0.122550E-004  0.000000E+000
 0.126616E-004 -0.119773E-004  0.000000E+000
 0.122883E-004 -0.117027E-004  0.000000E+000
 0.119173E-004 -0.114313E-004  0.000000E+000
 0.115489E-004 -0.111635E-004  0.000000E+000
 0.111835E-004 -0.108997E-004  0.000000E+000
 0.108216E-004 -0.106403E-004  0.000000E+000
 0.104638E-004 -0.103858E-004  0.000000E+000
 0.101108E-004 -0.101367E-004  0.000000E+000
 0.976364E-005 -0.989355E-005  0.000000E+000
 0.942340E-005 -0.965713E-005  0.000000E+000
 0.909157E-005 -0.942819E-005  0.000000E+000
 0.877005E-005 -0.920763E-005  0.000000E+000
 0.846127E-005 -0.899644E-005  0.000000E+000
 0.816847E-005 -0.879571E-005  0.000000E+000
 0.789592E-005 -0.860664E-005  0.000000E+000
 0.764947E-005 -0.843046E-005  0.000000E+000
 0.743712E-005 -0.826834E-005  0.000000E+000
 0.727014E-005 -0.812113E-005  0.000000E+000
 0.716473E-005 -0.798895E-005  0.000000E+000
 0.714462E-005 -0.787020E-005  0.000000E+000
 0.724562E-005 -0.775961E-005  0.000000E+000
 0.752312E-005 -0.764421E-005  0.000000E+000
 0.806522E-005 -0.749442E-005  0.000000E+000
 0.901595E-005 -0.724474E-005  0.000000E+000
 0.345626E-004 -0.643848E-005  0.000000E+000
 0.338881E-004 -0.624272E-005  0.000000E+000
 0.332178E-004 -0.604644E-005  0.000000E+000
 0.325521E-004 -0.584963E-005  0.000000E+000
 0.318915E-004 -0.565229E-005  0.000000E+000
 0.312363E-004 -0.545439E-005  0.000000E+000
 0.305870E-004 -0.525595E-005  0.000000E+000
 0.299442E-004 -0.505695E-005  0.000000E+000
 0.293084E-004 -0.485741E-005  0.000000E+000
 0.286804E-004 -0.465735E-005  0.000000E+000
 0.280608E-004 -0.445679E-005  0.000000E+000
 0.274506E-004 -0.425579E-005  0.000000E+000
 0.268506E-004 -0.405442E-005  0.000000E+000
 0.262621E-004 -0.385280E-005  0.000000E+000
 0.256863E-004 -0.365109E-005  0.000000E+000
 0.251246E-004 -0.344949E-005  0.000000E+000
 0.245787E-004 -0.324833E-005  0.000000E+000
 0.240507E-004 -0.304802E-005  0.000000E+000
 0.235427E-004 -0.284913E-005  0.000000E+000
 0.230575E-004 -0.265247E-005  0.000000E+000
 0.225983E-004 -0.245914E-005  0.000000E+000
 0.221688E-004 -0.227068E-005  0.000000E+000
 0.217735E-004 -0.208923E-005  0.000000E+000
 0.214178E-004 -0.191785E-005  0.000000E+000
 0.211081E-004 -0.176087E-005  0.000000E+000
 0.208523E-004 -0.162459E-005  0.000000E+000
 0.206596E-004 -0.151828E-005  0.000000E+000
 0.205414E-004 -0.145583E-005  0.000000E+000
 0.205108E-004 -0.145850E-005  0.000000E+000
 0.205828E-004 -0.155962E-005  0.000000E+000
 0.207722E-004 -0.181280E-005  0.000000E+000
 0.210887E-004 -0.230643E-005  0.000000E+000
 0.215232E-004 -0.318976E-005  0.000000E+000
 0.171251E-004 -0.144466E-004  0.000000E+000
 0.167166E-004 -0.141489E-004  0.000000E+000
 0.163088E-004 -0.138527E-004  0.000000E+000
 0.159020E-004 -0.135580E-004  0.000000E+000
 0.154962E-004 -0.132650E-004  0.000000E+000
 0.150916E-004 -0.129738E-004  0.000000E+000
 0.146883E-004 -0.126847E-004  0.000000E+000
 0.142864E-004 -0.123976E-004  0.000000E+000
 0.138861E-004 -0.121130E-004  0.000000E+000
 0.134877E-004 -0.118309E-004  0.000000E+000
 0.130913E-004 -0.115517E-004  0.000000E+000
 0.126974E-004 -0.112756E-004  0.000000E+000
 0.123062E-004 -0.110030E-004  0.000000E+000
 0.119181E-004 -0.107342E-004  0.000000E+000
 0.115337E-004 -0.104696E-004  0.000000E+000
 0.111536E-004 -0.102098E-004  0.000000E+000
 0.107786E-004 -0.995525E-005  0.000000E+000
 0.104096E-004 -0.970659E-005  0.000000E+000
 0.100478E-004 -0.946455E-005  0.000000E+000
 0.969470E-005 -0.922996E-005  0.000000E+000
 0.935233E-005 -0.900377E-005  0.000000E+000
 0.902318E-005 -0.878709E-005  0.000000E+000
 0.871056E-005 -0.858115E-005  0.000000E+000
 0.841894E-005 -0.838736E-005  0.000000E+000
 0.815433E-005 -0.820727E-005  0.000000E+000
 0.792508E-005 -0.804249E-005  0.000000E+000
 0.774295E-005 -0.789459E-005  0.000000E+000
 0.762485E-005 -0.776468E-005  0.000000E+000
 0.759579E-005 -0.765270E-005  0.000000E+000
 0.769369E-005 -0.755576E-005  0.000000E+000
 0.797772E-005 -0.746449E-005  0.000000E+000
 0.854303E-005 -0.735474E-005  0.000000E+000
 0.954697E-005 -0.716881E-005  0.000000E+000
 0.343980E-004 -0.688119E-005  0.000000E+000
 0.337173E-004 -0.667496E-005  0.000000E+000
 0.330407E-004 -0.646821E-005  0.000000E+000
 0.323686E-004 -0.626092E-005  0.000000E+000
 0.317013E-004 -0.605309E-005  0.000000E+000
 0.310393E-004 -0.584470E-005  0.000000E+000
 0.303830E-004 -0.563575E-005  0.000000E+000
 0.297329E-004 -0.542624E-005  0.000000E+000
 0.290897E-004 -0.521618E-005  0.000000E+000
 0.284540E-004 -0.500557E-005  0.000000E+000
 0.278266E-004 -0.479445E-005  0.000000E+000
 0.272082E-004 -0.458287E-005  0.000000E+000
 0.265998E-004 -0.437090E-005  0.000000E+000
 0.260027E-004 -0.415864E-005  0.000000E+000
 0.254179E-004 -0.394624E-005  0.000000E+000
 0.248470E-004 -0.373392E-005  0.000000E+000
 0.242916E-004 -0.352198E-005  0.000000E+000
 0.237538E-004 -0.331081E-005  0.000000E+000
 0.232358E-004 -0.310099E-005  0.000000E+000
 0.227404E-004 -0.289331E-005  0.000000E+000
 0.222708E-004 -0.268885E-005  0.000000E+000
 0.218308E-004 -0.248915E-005  0.000000E+000
 0.214252E-004 -0.229635E-005  0.000000E+000
 0.210594E-004 -0.211349E-005  0.000000E+000
 0.207403E-004 -0.194497E-005  0.000000E+000
 0.204761E-004 -0.179715E-005  0.000000E+000
 0.202770E-004 -0.167948E-005  0.000000E+000
 0.201554E-004 -0.160619E-005  0.000000E+000
 0.201263E-004 -0.159924E-005  0.000000E+000
 0.202075E-004 -0.169333E-005  0.000000E+000
 0.204185E-004 -0.194493E-005  0.000000E+000
 0.207762E-004 -0.244835E-005  0.000000E+000
 0.212824E-004 -0.336503E-005  0.000000E+000
 0.181646E-004 -0.143387E-004  0.000000E+000
 0.177322E-004 -0.140375E-004  0.000000E+000
 0.173007E-004 -0.137377E-004  0.000000E+000
 0.168702E-004 -0.134393E-004  0.000000E+000
 0.164409E-004 -0.131425E-004  0.000000E+000
 0.160127E-004 -0.128474E-004  0.000000E+000
 0.155859E-004 -0.125541E-004  0.000000E+000
 0.151607E-004 -0.122629E-004  0.000000E+000
 0.147372E-004 -0.119739E-004  0.000000E+000
 0.143156E-004 -0.116873E-004  0.000000E+000
 0.138963E-004 -0.114034E-004  0.000000E+000
 0.134794E-004 -0.111225E-004  0.000000E+000
 0.130654E-004 -0.108449E-004  0.000000E+000
 0.126547E-004 -0.105710E-004  0.000000E+000
 0.122479E-004 -0.103011E-004  0.000000E+000
 0.118456E-004 -0.100358E-004  0.000000E+000
 0.114485E-004 -0.977558E-005  0.000000E+000
 0.110577E-004 -0.952113E-005  0.000000E+000
 0.106744E-004 -0.927319E-005  0.000000E+000
 0.103002E-004 -0.903260E-005  0.000000E+000
 0.993697E-005 -0.880041E-005  0.000000E+000
 0.958745E-005 -0.857777E-005  0.000000E+000
 0.925502E-005 -0.836609E-005  0.000000E+000
 0.894426E-005 -0.816697E-005  0.000000E+000
 0.866140E-005 -0.798224E-005  0.000000E+000
 0.841506E-005 -0.781399E-005  0.000000E+000
 0.821743E-005 -0.766445E-005  0.000000E+000
 0.808616E-005 -0.753576E-005  0.000000E+000
 0.804741E-005 -0.742946E-005  0.000000E+000
 0.814111E-005 -0.734516E-005  0.000000E+000
 0.843018E-005 -0.727737E-005  0.000000E+000
 0.901680E-005 -0.720803E-005  0.000000E+000
 0.100721E-004 -0.708849E-005  0.000000E+000
 0.342373E-004 -0.732878E-005  0.000000E+000
 0.335503E-004 -0.711218E-005  0.000000E+000
 0.328672E-004 -0.689505E-005  0.000000E+000
 0.321885E-004 -0.667739E-005  0.000000E+000
 0.315144E-004 -0.645919E-005  0.000000E+000
 0.308455E-004 -0.624043E-005  0.000000E+000
 0.301820E-004 -0.602111E-005  0.000000E+000
 0.295246E-004 -0.580123E-005  0.000000E+000
 0.288738E-004 -0.558078E-005  0.000000E+000
 0.282302E-004 -0.535979E-005  0.000000E+000
 0.275947E-004 -0.513828E-005  0.000000E+000
 0.269679E-004 -0.491629E-005  0.000000E+000
 0.263510E-004 -0.469390E-005  0.000000E+000
 0.257449E-004 -0.447119E-005  0.000000E+000
 0.251509E-004 -0.424832E-005  0.000000E+000
 0.245704E-004 -0.402548E-005  0.000000E+000
 0.240052E-004 -0.380296E-005  0.000000E+000
 0.234572E-004 -0.358117E-005  0.000000E+000
 0.229288E-004 -0.336065E-005  0.000000E+000
 0.224227E-004 -0.314217E-005  0.000000E+000
 0.219421E-004 -0.292682E-005  0.000000E+000
 0.214911E-004 -0.271609E-005  0.000000E+000
 0.210743E-004 -0.251213E-005  0.000000E+000
 0.206976E-004 -0.231796E-005  0.000000E+000
 0.203680E-004 -0.213798E-005  0.000000E+000
 0.200943E-004 -0.197861E-005  0.000000E+000
 0.198874E-004 -0.184941E-005  0.000000E+000
 0.197608E-004 -0.176489E-005  0.000000E+000
 0.197315E-004 -0.174758E-005  0.000000E+000
 0.198201E-004 -0.183339E-005  0.000000E+000
 0.200511E-004 -0.208144E-005  0.000000E+000
 0.204492E-004 -0.259177E-005  0.000000E+000
 0.210286E-004 -0.353821E-005  0.000000E+000
 0.192053E-004 -0.142348E-004  0.000000E+000
 0.187491E-004 -0.139301E-004  0.000000E+000
 0.182939E-004 -0.136266E-004  0.000000E+000
 0.178397E-004 -0.133245E-004  0.000000E+000
 0.173867E-004 -0.130238E-004  0.000000E+000
 0.169351E-004 -0.127247E-004  0.000000E+000
 0.164849E-004 -0.124273E-004  0.000000E+000
 0.160363E-004 -0.121318E-004  0.000000E+000
 0.155895E-004 -0.118384E-004  0.000000E+000
 0.151448E-004 -0.115472E-004  0.000000E+000
 0.147024E-004 -0.112587E-004  0.000000E+000
 0.142627E-004 -0.109729E-004  0.000000E+000
 0.138260E-004 -0.106902E-004  0.000000E+000
 0.133928E-004 -0.104110E-004  0.000000E+000
 0.129635E-004 -0.101357E-004  0.000000E+000
 0.125390E-004 -0.986471E-005  0.000000E+000
 0.121200E-004 -0.959868E-005  0.000000E+000
 0.117074E-004 -0.933824E-005  0.000000E+000
 0.113027E-004 -0.908413E-005  0.000000E+000
 0.109073E-004 -0.883726E-005  0.000000E+000
 0.105233E-004 -0.859869E-005  0.000000E+000
 0.101535E-004 -0.836970E-005  0.000000E+000
 0.980126E-005 -0.815177E-005  0.000000E+000
 0.947136E-005 -0.794672E-005  0.000000E+000
 0.917019E-005 -0.775666E-005  0.000000E+000
 0.890663E-005 -0.758410E-005  0.000000E+000
 0.869328E-005 -0.743195E-005  0.000000E+000
 0.854843E-005 -0.730338E-005  0.000000E+000
 0.849933E-005 -0.720156E-005  0.000000E+000
 0.858785E-005 -0.712869E-005  0.000000E+000
 0.888048E-005 -0.708348E-005  0.000000E+000
 0.948646E-005 -0.705460E-005  0.000000E+000
 0.105912E-004 -0.700384E-005  0.000000E+000
 0.340810E-004 -0.778056E-005  0.000000E+000
 0.333876E-004 -0.755367E-005  0.000000E+000
 0.326981E-004 -0.732627E-005  0.000000E+000
 0.320126E-004 -0.709834E-005  0.000000E+000
 0.313317E-004 -0.686988E-005  0.000000E+000
 0.306556E-004 -0.664086E-005  0.000000E+000
 0.299849E-004 -0.641129E-005  0.000000E+000
 0.293200E-004 -0.618117E-005  0.000000E+000
 0.286614E-004 -0.595048E-005  0.000000E+000
 0.280099E-004 -0.571926E-005  0.000000E+000
 0.273661E-004 -0.548751E-005  0.000000E+000
 0.267309E-004 -0.525528E-005  0.000000E+000
 0.261051E-004 -0.502264E-005  0.000000E+000
 0.254898E-004 -0.478967E-005  0.000000E+000
 0.248864E-004 -0.455652E-005  0.000000E+000
 0.242962E-004 -0.432337E-005  0.000000E+000
 0.237208E-004 -0.409051E-005  0.000000E+000
 0.231624E-004 -0.385832E-005  0.000000E+000
 0.226231E-004 -0.362734E-005  0.000000E+000
 0.221058E-004 -0.339832E-005  0.000000E+000
 0.216138E-004 -0.317232E-005  0.000000E+000
 0.211510E-004 -0.295081E-005  0.000000E+000
 0.207224E-004 -0.273592E-005  0.000000E+000
 0.203339E-004 -0.253064E-005  0.000000E+000
 0.199928E-004 -0.233936E-005  0.000000E+000
 0.197085E-004 -0.216852E-005  0.000000E+000
 0.194924E-004 -0.202774E-005  0.000000E+000
 0.193592E-004 -0.193172E-005  0.000000E+000
 0.193278E-004 -0.190345E-005  0.000000E+000
 0.194218E-004 -0.197988E-005  0.000000E+000
 0.196708E-004 -0.222249E-005  0.000000E+000
 0.201082E-004 -0.273683E-005  0.000000E+000
 0.207620E-004 -0.370918E-005  0.000000E+000
 0.202467E-004 -0.141353E-004  0.000000E+000
 0.197667E-004 -0.138270E-004  0.000000E+000
 0.192877E-004 -0.135199E-004  0.000000E+000
 0.188098E-004 -0.132140E-004  0.000000E+000
 0.183332E-004 -0.129095E-004  0.000000E+000
 0.178580E-004 -0.126064E-004  0.000000E+000
 0.173844E-004 -0.123048E-004  0.000000E+000
 0.169125E-004 -0.120050E-004  0.000000E+000
 0.164425E-004 -0.117072E-004  0.000000E+000
 0.159747E-004 -0.114115E-004  0.000000E+000
 0.155093E-004 -0.111181E-004  0.000000E+000
 0.150467E-004 -0.108273E-004  0.000000E+000
 0.145873E-004 -0.105395E-004  0.000000E+000
 0.141315E-004 -0.102550E-004  0.000000E+000
 0.136799E-004 -0.997411E-005  0.000000E+000
 0.132332E-004 -0.969741E-005  0.000000E+000
 0.127923E-004 -0.942543E-005  0.000000E+000
 0.123580E-004 -0.915880E-005  0.000000E+000
 0.119319E-004 -0.889832E-005  0.000000E+000
 0.115154E-004 -0.864491E-005  0.000000E+000
 0.111108E-004 -0.839967E-005  0.000000E+000
 0.107207E-004 -0.816392E-005  0.000000E+000
 0.103487E-004 -0.793930E-005  0.000000E+000
 0.999968E-005 -0.772775E-005  0.000000E+000
 0.968019E-005 -0.753168E-005  0.000000E+000
 0.939935E-005 -0.735401E-005  0.000000E+000
 0.917011E-005 -0.719827E-005  0.000000E+000
 0.901137E-005 -0.706869E-005  0.000000E+000
 0.895138E-005 -0.697007E-005  0.000000E+000
 0.903382E-005 -0.690729E-005  0.000000E+000
 0.932861E-005 -0.688351E-005  0.000000E+000
 0.995195E-005 -0.689481E-005  0.000000E+000
 0.111037E-004 -0.691490E-005  0.000000E+000
 0.339299E-004 -0.823590E-005  0.000000E+000
 0.332300E-004 -0.799880E-005  0.000000E+000
 0.325339E-004 -0.776120E-005  0.000000E+000
 0.318417E-004 -0.752309E-005  0.000000E+000
 0.311538E-004 -0.728445E-005  0.000000E+000
 0.304705E-004 -0.704529E-005  0.000000E+000
 0.297924E-004 -0.680558E-005  0.000000E+000
 0.291199E-004 -0.656533E-005  0.000000E+000
 0.284535E-004 -0.632453E-005  0.000000E+000
 0.277939E-004 -0.608320E-005  0.000000E+000
 0.271417E-004 -0.584137E-005  0.000000E+000
 0.264978E-004 -0.559906E-005  0.000000E+000
 0.258631E-004 -0.535633E-005  0.000000E+000
 0.252385E-004 -0.511329E-005  0.000000E+000
 0.246255E-004 -0.487005E-005  0.000000E+000
 0.240252E-004 -0.462680E-005  0.000000E+000
 0.234395E-004 -0.438382E-005  0.000000E+000
 0.228703E-004 -0.414147E-005  0.000000E+000
 0.223199E-004 -0.390028E-005  0.000000E+000
 0.217910E-004 -0.366097E-005  0.000000E+000
 0.212870E-004 -0.342459E-005  0.000000E+000
 0.208120E-004 -0.319258E-005  0.000000E+000
 0.203709E-004 -0.296701E-005  0.000000E+000
 0.199698E-004 -0.275089E-005  0.000000E+000
 0.196163E-004 -0.254853E-005  0.000000E+000
 0.193202E-004 -0.236637E-005  0.000000E+000
 0.190935E-004 -0.221404E-005  0.000000E+000
 0.189522E-004 -0.210639E-005  0.000000E+000
 0.189167E-004 -0.206672E-005  0.000000E+000
 0.190140E-004 -0.213282E-005  0.000000E+000
 0.192788E-004 -0.236823E-005  0.000000E+000
 0.197539E-004 -0.288369E-005  0.000000E+000
 0.204828E-004 -0.387783E-005  0.000000E+000
 0.212883E-004 -0.140405E-004  0.000000E+000
 0.207844E-004 -0.137288E-004  0.000000E+000
 0.202816E-004 -0.134180E-004  0.000000E+000
 0.197801E-004 -0.131084E-004  0.000000E+000
 0.192798E-004 -0.127999E-004  0.000000E+000
 0.187811E-004 -0.124928E-004  0.000000E+000
 0.182840E-004 -0.121871E-004  0.000000E+000
 0.177887E-004 -0.118831E-004  0.000000E+000
 0.172955E-004 -0.115808E-004  0.000000E+000
 0.168045E-004 -0.112804E-004  0.000000E+000
 0.163162E-004 -0.109823E-004  0.000000E+000
 0.158307E-004 -0.106865E-004  0.000000E+000
 0.153486E-004 -0.103935E-004  0.000000E+000
 0.148703E-004 -0.101036E-004  0.000000E+000
 0.143964E-004 -0.981713E-005  0.000000E+000
 0.139276E-004 -0.953460E-005  0.000000E+000
 0.134647E-004 -0.925654E-005  0.000000E+000
 0.130089E-004 -0.898361E-005  0.000000E+000
 0.125614E-004 -0.871659E-005  0.000000E+000
 0.121239E-004 -0.845641E-005  0.000000E+000
 0.116986E-004 -0.820422E-005  0.000000E+000
 0.112883E-004 -0.796140E-005  0.000000E+000
 0.108967E-004 -0.772966E-005  0.000000E+000
 0.105286E-004 -0.751111E-005  0.000000E+000
 0.101909E-004 -0.730839E-005  0.000000E+000
 0.989273E-005 -0.712481E-005  0.000000E+000
 0.964752E-005 -0.696454E-005  0.000000E+000
 0.947466E-005 -0.683280E-005  0.000000E+000
 0.940335E-005 -0.673604E-005  0.000000E+000
 0.947892E-005 -0.668187E-005  0.000000E+000
 0.977455E-005 -0.667816E-005  0.000000E+000
 0.104132E-004 -0.672904E-005  0.000000E+000
 0.116094E-004 -0.682171E-005  0.000000E+000
 0.337843E-004 -0.869416E-005  0.000000E+000
 0.330780E-004 -0.844691E-005  0.000000E+000
 0.323751E-004 -0.819918E-005  0.000000E+000
 0.316761E-004 -0.795096E-005  0.000000E+000
 0.309811E-004 -0.770224E-005  0.000000E+000
 0.302907E-004 -0.745302E-005  0.000000E+000
 0.296051E-004 -0.720327E-005  0.000000E+000
 0.289249E-004 -0.695300E-005  0.000000E+000
 0.282506E-004 -0.670220E-005  0.000000E+000
 0.275828E-004 -0.645090E-005  0.000000E+000
 0.269222E-004 -0.619911E-005  0.000000E+000
 0.262695E-004 -0.594686E-005  0.000000E+000
 0.256257E-004 -0.569422E-005  0.000000E+000
 0.249918E-004 -0.544126E-005  0.000000E+000
 0.243689E-004 -0.518812E-005  0.000000E+000
 0.237585E-004 -0.493498E-005  0.000000E+000
 0.231622E-004 -0.468209E-005  0.000000E+000
 0.225820E-004 -0.442981E-005  0.000000E+000
 0.220201E-004 -0.417865E-005  0.000000E+000
 0.214793E-004 -0.392932E-005  0.000000E+000
 0.209630E-004 -0.368283E-005  0.000000E+000
 0.204753E-004 -0.344061E-005  0.000000E+000
 0.200211E-004 -0.320468E-005  0.000000E+000
 0.196067E-004 -0.297799E-005  0.000000E+000
 0.192399E-004 -0.276484E-005  0.000000E+000
 0.189308E-004 -0.257158E-005  0.000000E+000
 0.186923E-004 -0.240785E-005  0.000000E+000
 0.185412E-004 -0.228853E-005  0.000000E+000
 0.184998E-004 -0.223716E-005  0.000000E+000
 0.185980E-004 -0.229215E-005  0.000000E+000
 0.188762E-004 -0.251877E-005  0.000000E+000
 0.193869E-004 -0.303248E-005  0.000000E+000
 0.201911E-004 -0.404406E-005  0.000000E+000
 0.223297E-004 -0.139507E-004  0.000000E+000
 0.218019E-004 -0.136355E-004  0.000000E+000
 0.212753E-004 -0.133211E-004  0.000000E+000
 0.207500E-004 -0.130078E-004  0.000000E+000
 0.202260E-004 -0.126955E-004  0.000000E+000
 0.197037E-004 -0.123844E-004  0.000000E+000
 0.191831E-004 -0.120746E-004  0.000000E+000
 0.186644E-004 -0.117662E-004  0.000000E+000
 0.181479E-004 -0.114595E-004  0.000000E+000
 0.176339E-004 -0.111545E-004  0.000000E+000
 0.171225E-004 -0.108516E-004  0.000000E+000
 0.166142E-004 -0.105509E-004  0.000000E+000
 0.161094E-004 -0.102527E-004  0.000000E+000
 0.156086E-004 -0.995735E-005  0.000000E+000
 0.151123E-004 -0.966524E-005  0.000000E+000
 0.146214E-004 -0.937681E-005  0.000000E+000
 0.141367E-004 -0.909261E-005  0.000000E+000
 0.136593E-004 -0.881328E-005  0.000000E+000
 0.131905E-004 -0.853959E-005  0.000000E+000
 0.127321E-004 -0.827248E-005  0.000000E+000
 0.122863E-004 -0.801312E-005  0.000000E+000
 0.118559E-004 -0.776294E-005  0.000000E+000
 0.114446E-004 -0.752372E-005  0.000000E+000
 0.110576E-004 -0.729770E-005  0.000000E+000
 0.107016E-004 -0.708775E-005  0.000000E+000
 0.103863E-004 -0.689753E-005  0.000000E+000
 0.101251E-004 -0.673179E-005  0.000000E+000
 0.993796E-005 -0.659675E-005  0.000000E+000
 0.985498E-005 -0.650048E-005  0.000000E+000
 0.992302E-005 -0.645338E-005  0.000000E+000
 0.102183E-004 -0.646817E-005  0.000000E+000
 0.108702E-004 -0.655770E-005  0.000000E+000
 0.121081E-004 -0.672432E-005  0.000000E+000
 0.336446E-004 -0.915475E-005  0.000000E+000
 0.329317E-004 -0.889740E-005  0.000000E+000
 0.322221E-004 -0.863960E-005  0.000000E+000
 0.315162E-004 -0.838134E-005  0.000000E+000
 0.308142E-004 -0.812261E-005  0.000000E+000
 0.301165E-004 -0.786339E-005  0.000000E+000
 0.294234E-004 -0.760369E-005  0.000000E+000
 0.287355E-004 -0.734349E-005  0.000000E+000
 0.280533E-004 -0.708280E-005  0.000000E+000
 0.273772E-004 -0.682163E-005  0.000000E+000
 0.267081E-004 -0.656001E-005  0.000000E+000
 0.260466E-004 -0.629796E-005  0.000000E+000
 0.253936E-004 -0.603554E-005  0.000000E+000
 0.247501E-004 -0.577283E-005  0.000000E+000
 0.241174E-004 -0.550996E-005  0.000000E+000
 0.234967E-004 -0.524711E-005  0.000000E+000
 0.228896E-004 -0.498452E-005  0.000000E+000
 0.222982E-004 -0.472253E-005  0.000000E+000
 0.217246E-004 -0.446165E-005  0.000000E+000
 0.211717E-004 -0.420257E-005  0.000000E+000
 0.206427E-004 -0.394627E-005  0.000000E+000
 0.201418E-004 -0.369413E-005  0.000000E+000
 0.196740E-004 -0.344816E-005  0.000000E+000
 0.192456E-004 -0.321124E-005  0.000000E+000
 0.188648E-004 -0.298760E-005  0.000000E+000
 0.185418E-004 -0.278354E-005  0.000000E+000
 0.182901E-004 -0.260863E-005  0.000000E+000
 0.181275E-004 -0.247773E-005  0.000000E+000
 0.180783E-004 -0.241449E-005  0.000000E+000
 0.181751E-004 -0.245779E-005  0.000000E+000
 0.184639E-004 -0.267418E-005  0.000000E+000
 0.190080E-004 -0.318331E-005  0.000000E+000
 0.198872E-004 -0.420773E-005  0.000000E+000
 0.233705E-004 -0.138662E-004  0.000000E+000
 0.228187E-004 -0.135474E-004  0.000000E+000
 0.222682E-004 -0.132295E-004  0.000000E+000
 0.217190E-004 -0.129124E-004  0.000000E+000
 0.211714E-004 -0.125963E-004  0.000000E+000
 0.206254E-004 -0.122812E-004  0.000000E+000
 0.200813E-004 -0.119673E-004  0.000000E+000
 0.195392E-004 -0.116547E-004  0.000000E+000
 0.189994E-004 -0.113436E-004  0.000000E+000
 0.184621E-004 -0.110341E-004  0.000000E+000
 0.179277E-004 -0.107264E-004  0.000000E+000
 0.173965E-004 -0.104207E-004  0.000000E+000
 0.168690E-004 -0.101173E-004  0.000000E+000
 0.163457E-004 -0.981659E-005  0.000000E+000
 0.158271E-004 -0.951884E-005  0.000000E+000
 0.153141E-004 -0.922451E-005  0.000000E+000
 0.148076E-004 -0.893412E-005  0.000000E+000
 0.143086E-004 -0.864832E-005  0.000000E+000
 0.138186E-004 -0.836787E-005  0.000000E+000
 0.133393E-004 -0.809372E-005  0.000000E+000
 0.128730E-004 -0.782702E-005  0.000000E+000
 0.124226E-004 -0.756924E-005  0.000000E+000
 0.119919E-004 -0.732223E-005  0.000000E+000
 0.115860E-004 -0.708834E-005  0.000000E+000
 0.112119E-004 -0.687062E-005  0.000000E+000
 0.108794E-004 -0.667307E-005  0.000000E+000
 0.106022E-004 -0.650100E-005  0.000000E+000
 0.104009E-004 -0.636153E-005  0.000000E+000
 0.103060E-004 -0.626438E-005  0.000000E+000
 0.103660E-004 -0.622272E-005  0.000000E+000
 0.106597E-004 -0.625429E-005  0.000000E+000
 0.113228E-004 -0.638124E-005  0.000000E+000
 0.125992E-004 -0.662277E-005  0.000000E+000
 0.335110E-004 -0.961713E-005  0.000000E+000
 0.327915E-004 -0.934972E-005  0.000000E+000
 0.320752E-004 -0.908190E-005  0.000000E+000
 0.313624E-004 -0.881364E-005  0.000000E+000
 0.306532E-004 -0.854495E-005  0.000000E+000
 0.299482E-004 -0.827581E-005  0.000000E+000
 0.292477E-004 -0.800622E-005  0.000000E+000
 0.285520E-004 -0.773617E-005  0.000000E+000
 0.278617E-004 -0.746567E-005  0.000000E+000
 0.271774E-004 -0.719473E-005  0.000000E+000
 0.264997E-004 -0.692338E-005  0.000000E+000
 0.258294E-004 -0.665164E-005  0.000000E+000
 0.251672E-004 -0.637958E-005  0.000000E+000
 0.245141E-004 -0.610727E-005  0.000000E+000
 0.238714E-004 -0.583483E-005  0.000000E+000
 0.232403E-004 -0.556244E-005  0.000000E+000
 0.226224E-004 -0.529034E-005  0.000000E+000
 0.220197E-004 -0.501887E-005  0.000000E+000
 0.214342E-004 -0.474851E-005  0.000000E+000
 0.208689E-004 -0.447993E-005  0.000000E+000
 0.203270E-004 -0.421409E-005  0.000000E+000
 0.198125E-004 -0.395236E-005  0.000000E+000
 0.193306E-004 -0.369667E-005  0.000000E+000
 0.188878E-004 -0.344986E-005  0.000000E+000
 0.184921E-004 -0.321610E-005  0.000000E+000
 0.181542E-004 -0.300159E-005  0.000000E+000
 0.178881E-004 -0.281581E-005  0.000000E+000
 0.177127E-004 -0.267352E-005  0.000000E+000
 0.176536E-004 -0.259839E-005  0.000000E+000
 0.177466E-004 -0.262956E-005  0.000000E+000
 0.180433E-004 -0.283448E-005  0.000000E+000
 0.186178E-004 -0.333629E-005  0.000000E+000
 0.195710E-004 -0.436874E-005  0.000000E+000
 0.244102E-004 -0.137868E-004  0.000000E+000
 0.238344E-004 -0.134646E-004  0.000000E+000
 0.232599E-004 -0.131431E-004  0.000000E+000
 0.226869E-004 -0.128224E-004  0.000000E+000
 0.221154E-004 -0.125025E-004  0.000000E+000
 0.215457E-004 -0.121835E-004  0.000000E+000
 0.209780E-004 -0.118656E-004  0.000000E+000
 0.204124E-004 -0.115488E-004  0.000000E+000
 0.198493E-004 -0.112333E-004  0.000000E+000
 0.192888E-004 -0.109192E-004  0.000000E+000
 0.187313E-004 -0.106068E-004  0.000000E+000
 0.181772E-004 -0.102962E-004  0.000000E+000
 0.176270E-004 -0.998771E-005  0.000000E+000
 0.170811E-004 -0.968159E-005  0.000000E+000
 0.165402E-004 -0.937821E-005  0.000000E+000
 0.160052E-004 -0.907799E-005  0.000000E+000
 0.154768E-004 -0.878142E-005  0.000000E+000
 0.149563E-004 -0.848913E-005  0.000000E+000
 0.144451E-004 -0.820187E-005  0.000000E+000
 0.139450E-004 -0.792058E-005  0.000000E+000
 0.134583E-004 -0.764642E-005  0.000000E+000
 0.129879E-004 -0.738086E-005  0.000000E+000
 0.125378E-004 -0.712581E-005  0.000000E+000
 0.121132E-004 -0.688370E-005  0.000000E+000
 0.117211E-004 -0.665775E-005  0.000000E+000
 0.113716E-004 -0.645226E-005  0.000000E+000
 0.110786E-004 -0.627303E-005  0.000000E+000
 0.108629E-004 -0.612808E-005  0.000000E+000
 0.107561E-004 -0.602868E-005  0.000000E+000
 0.108075E-004 -0.599081E-005  0.000000E+000
 0.110988E-004 -0.603731E-005  0.000000E+000
 0.117711E-004 -0.620012E-005  0.000000E+000
 0.130826E-004 -0.651712E-005  0.000000E+000
 0.333835E-004 -0.100808E-004  0.000000E+000
 0.326575E-004 -0.980335E-005  0.000000E+000
 0.319344E-004 -0.952553E-005  0.000000E+000
 0.312147E-004 -0.924732E-005  0.000000E+000
 0.304984E-004 -0.896871E-005  0.000000E+000
 0.297861E-004 -0.868969E-005  0.000000E+000
 0.290780E-004 -0.841027E-005  0.000000E+000
 0.283746E-004 -0.813043E-005  0.000000E+000
 0.276763E-004 -0.785020E-005  0.000000E+000
 0.269838E-004 -0.756957E-005  0.000000E+000
 0.262975E-004 -0.728858E-005  0.000000E+000
 0.256182E-004 -0.700725E-005  0.000000E+000
 0.249468E-004 -0.672566E-005  0.000000E+000
 0.242842E-004 -0.644387E-005  0.000000E+000
 0.236314E-004 -0.616201E-005  0.000000E+000
 0.229899E-004 -0.588025E-005  0.000000E+000
 0.223611E-004 -0.559882E-005  0.000000E+000
 0.217469E-004 -0.531807E-005  0.000000E+000
 0.211495E-004 -0.503845E-005  0.000000E+000
 0.205716E-004 -0.476063E-005  0.000000E+000
 0.200164E-004 -0.448554E-005  0.000000E+000
 0.194882E-004 -0.421451E-005  0.000000E+000
 0.189919E-004 -0.394945E-005  0.000000E+000
 0.185339E-004 -0.369313E-005  0.000000E+000
 0.181227E-004 -0.344962E-005  0.000000E+000
 0.177692E-004 -0.322505E-005  0.000000E+000
 0.174876E-004 -0.302877E-005  0.000000E+000
 0.172978E-004 -0.287538E-005  0.000000E+000
 0.172269E-004 -0.278846E-005  0.000000E+000
 0.173138E-004 -0.280724E-005  0.000000E+000
 0.176154E-004 -0.299967E-005  0.000000E+000
 0.182172E-004 -0.349152E-005  0.000000E+000
 0.192429E-004 -0.452695E-005  0.000000E+000
 0.254487E-004 -0.137127E-004  0.000000E+000
 0.248487E-004 -0.133871E-004  0.000000E+000
 0.242501E-004 -0.130621E-004  0.000000E+000
 0.236531E-004 -0.127377E-004  0.000000E+000
 0.230578E-004 -0.124141E-004  0.000000E+000
 0.224643E-004 -0.120913E-004  0.000000E+000
 0.218729E-004 -0.117694E-004  0.000000E+000
 0.212838E-004 -0.114484E-004  0.000000E+000
 0.206972E-004 -0.111286E-004  0.000000E+000
 0.201135E-004 -0.108101E-004  0.000000E+000
 0.195329E-004 -0.104930E-004  0.000000E+000
 0.189558E-004 -0.101775E-004  0.000000E+000
 0.183828E-004 -0.986396E-005  0.000000E+000
 0.178143E-004 -0.955252E-005  0.000000E+000
 0.172511E-004 -0.924356E-005  0.000000E+000
 0.166939E-004 -0.893747E-005  0.000000E+000
 0.161438E-004 -0.863475E-005  0.000000E+000
 0.156017E-004 -0.833598E-005  0.000000E+000
 0.150694E-004 -0.804190E-005  0.000000E+000
 0.145485E-004 -0.775343E-005  0.000000E+000
 0.140414E-004 -0.747173E-005  0.000000E+000
 0.135512E-004 -0.719827E-005  0.000000E+000
 0.130818E-004 -0.693498E-005  0.000000E+000
 0.126386E-004 -0.668437E-005  0.000000E+000
 0.122287E-004 -0.644979E-005  0.000000E+000
 0.118623E-004 -0.623580E-005  0.000000E+000
 0.115536E-004 -0.604868E-005  0.000000E+000
 0.113238E-004 -0.589723E-005  0.000000E+000
 0.112049E-004 -0.579426E-005  0.000000E+000
 0.112475E-004 -0.575852E-005  0.000000E+000
 0.115354E-004 -0.581799E-005  0.000000E+000
 0.122149E-004 -0.601485E-005  0.000000E+000
 0.135579E-004 -0.640741E-005  0.000000E+000
 0.332624E-004 -0.105453E-004  0.000000E+000
 0.325297E-004 -0.102578E-004  0.000000E+000
 0.317999E-004 -0.997002E-005  0.000000E+000
 0.310732E-004 -0.968188E-005  0.000000E+000
 0.303499E-004 -0.939338E-005  0.000000E+000
 0.296302E-004 -0.910452E-005  0.000000E+000
 0.289146E-004 -0.881530E-005  0.000000E+000
 0.282035E-004 -0.852573E-005  0.000000E+000
 0.274972E-004 -0.823581E-005  0.000000E+000
 0.267964E-004 -0.794556E-005  0.000000E+000
 0.261015E-004 -0.765501E-005  0.000000E+000
 0.254134E-004 -0.736419E-005  0.000000E+000
 0.247327E-004 -0.707316E-005  0.000000E+000
 0.240605E-004 -0.678200E-005  0.000000E+000
 0.233977E-004 -0.649085E-005  0.000000E+000
 0.227457E-004 -0.619986E-005  0.000000E+000
 0.221059E-004 -0.590927E-005  0.000000E+000
 0.214802E-004 -0.561941E-005  0.000000E+000
 0.208708E-004 -0.533075E-005  0.000000E+000
 0.202802E-004 -0.504392E-005  0.000000E+000
 0.197117E-004 -0.475985E-005  0.000000E+000
 0.191694E-004 -0.447984E-005  0.000000E+000
 0.186583E-004 -0.420573E-005  0.000000E+000
 0.181850E-004 -0.394027E-005  0.000000E+000
 0.177577E-004 -0.368743E-005  0.000000E+000
 0.173876E-004 -0.345323E-005  0.000000E+000
 0.170896E-004 -0.324687E-005  0.000000E+000
 0.168839E-004 -0.308276E-005  0.000000E+000
 0.167996E-004 -0.298427E-005  0.000000E+000
 0.168780E-004 -0.299056E-005  0.000000E+000
 0.171813E-004 -0.316969E-005  0.000000E+000
 0.178068E-004 -0.364907E-005  0.000000E+000
 0.189029E-004 -0.468222E-005  0.000000E+000
 0.264855E-004 -0.136437E-004  0.000000E+000
 0.258613E-004 -0.133148E-004  0.000000E+000
 0.252385E-004 -0.129863E-004  0.000000E+000
 0.246175E-004 -0.126584E-004  0.000000E+000
 0.239982E-004 -0.123311E-004  0.000000E+000
 0.233809E-004 -0.120045E-004  0.000000E+000
 0.227657E-004 -0.116786E-004  0.000000E+000
 0.221530E-004 -0.113536E-004  0.000000E+000
 0.215429E-004 -0.110296E-004  0.000000E+000
 0.209357E-004 -0.107067E-004  0.000000E+000
 0.203319E-004 -0.103850E-004  0.000000E+000
 0.197319E-004 -0.100647E-004  0.000000E+000
 0.191360E-004 -0.974613E-005  0.000000E+000
 0.185449E-004 -0.942944E-005  0.000000E+000
 0.179593E-004 -0.911497E-005  0.000000E+000
 0.173800E-004 -0.880308E-005  0.000000E+000
 0.168080E-004 -0.849426E-005  0.000000E+000
 0.162444E-004 -0.818905E-005  0.000000E+000
 0.156909E-004 -0.788818E-005  0.000000E+000
 0.151492E-004 -0.759253E-005  0.000000E+000
 0.146219E-004 -0.730326E-005  0.000000E+000
 0.141119E-004 -0.702182E-005  0.000000E+000
 0.136233E-004 -0.675015E-005  0.000000E+000
 0.131616E-004 -0.649082E-005  0.000000E+000
 0.127341E-004 -0.624729E-005  0.000000E+000
 0.123509E-004 -0.602432E-005  0.000000E+000
 0.120267E-004 -0.582863E-005  0.000000E+000
 0.117829E-004 -0.566978E-005  0.000000E+000
 0.116520E-004 -0.556195E-005  0.000000E+000
 0.116857E-004 -0.552669E-005  0.000000E+000
 0.119694E-004 -0.559712E-005  0.000000E+000
 0.126542E-004 -0.582596E-005  0.000000E+000
 0.140248E-004 -0.629370E-005  0.000000E+000
 0.331475E-004 -0.110102E-004  0.000000E+000
 0.324082E-004 -0.107127E-004  0.000000E+000
 0.316716E-004 -0.104149E-004  0.000000E+000
 0.309380E-004 -0.101169E-004  0.000000E+000
 0.302076E-004 -0.981850E-005  0.000000E+000
 0.294806E-004 -0.951982E-005  0.000000E+000
 0.287575E-004 -0.922084E-005  0.000000E+000
 0.280386E-004 -0.892157E-005  0.000000E+000
 0.273244E-004 -0.862201E-005  0.000000E+000
 0.266153E-004 -0.832218E-005  0.000000E+000
 0.259119E-004 -0.802212E-005  0.000000E+000
 0.252149E-004 -0.772187E-005  0.000000E+000
 0.245250E-004 -0.742149E-005  0.000000E+000
 0.238432E-004 -0.712106E-005  0.000000E+000
 0.231704E-004 -0.682072E-005  0.000000E+000
 0.225080E-004 -0.652063E-005  0.000000E+000
 0.218573E-004 -0.622102E-005  0.000000E+000
 0.212201E-004 -0.592224E-005  0.000000E+000
 0.205985E-004 -0.562472E-005  0.000000E+000
 0.199951E-004 -0.532912E-005  0.000000E+000
 0.194132E-004 -0.503632E-005  0.000000E+000
 0.188567E-004 -0.474761E-005  0.000000E+000
 0.183306E-004 -0.446480E-005  0.000000E+000
 0.178414E-004 -0.419056E-005  0.000000E+000
 0.173976E-004 -0.392882E-005  0.000000E+000
 0.170104E-004 -0.368542E-005  0.000000E+000
 0.166949E-004 -0.346945E-005  0.000000E+000
 0.164723E-004 -0.329509E-005  0.000000E+000
 0.163725E-004 -0.318533E-005  0.000000E+000
 0.164402E-004 -0.317917E-005  0.000000E+000
 0.167423E-004 -0.334444E-005  0.000000E+000
 0.173876E-004 -0.380900E-005  0.000000E+000
 0.185513E-004 -0.483439E-005  0.000000E+000
 0.275204E-004 -0.135798E-004  0.000000E+000
 0.268719E-004 -0.132476E-004  0.000000E+000
 0.262249E-004 -0.129158E-004  0.000000E+000
 0.255797E-004 -0.125843E-004  0.000000E+000
 0.249363E-004 -0.122534E-004  0.000000E+000
 0.242950E-004 -0.119231E-004  0.000000E+000
 0.236560E-004 -0.115934E-004  0.000000E+000
 0.230195E-004 -0.112643E-004  0.000000E+000
 0.223858E-004 -0.109362E-004  0.000000E+000
 0.217553E-004 -0.106089E-004  0.000000E+000
 0.211282E-004 -0.102827E-004  0.000000E+000
 0.205050E-004 -0.995774E-005  0.000000E+000
 0.198862E-004 -0.963422E-005  0.000000E+000
 0.192725E-004 -0.931236E-005  0.000000E+000
 0.186644E-004 -0.899246E-005  0.000000E+000
 0.180629E-004 -0.867486E-005  0.000000E+000
 0.174690E-004 -0.836001E-005  0.000000E+000
 0.168839E-004 -0.804844E-005  0.000000E+000
 0.163092E-004 -0.774082E-005  0.000000E+000
 0.157468E-004 -0.743804E-005  0.000000E+000
 0.151991E-004 -0.714118E-005  0.000000E+000
 0.146694E-004 -0.685175E-005  0.000000E+000
 0.141618E-004 -0.657162E-005  0.000000E+000
 0.136817E-004 -0.630341E-005  0.000000E+000
 0.132366E-004 -0.605068E-005  0.000000E+000
 0.128369E-004 -0.581832E-005  0.000000E+000
 0.124974E-004 -0.561348E-005  0.000000E+000
 0.122398E-004 -0.544641E-005  0.000000E+000
 0.120971E-004 -0.533253E-005  0.000000E+000
 0.121216E-004 -0.529610E-005  0.000000E+000
 0.124007E-004 -0.537549E-005  0.000000E+000
 0.130889E-004 -0.563402E-005  0.000000E+000
 0.144830E-004 -0.617605E-005  0.000000E+000
 0.330387E-004 -0.114752E-004  0.000000E+000
 0.322928E-004 -0.111677E-004  0.000000E+000
 0.315495E-004 -0.108599E-004  0.000000E+000
 0.308090E-004 -0.105519E-004  0.000000E+000
 0.300714E-004 -0.102437E-004  0.000000E+000
 0.293372E-004 -0.993519E-005  0.000000E+000
 0.286066E-004 -0.962646E-005  0.000000E+000
 0.278800E-004 -0.931749E-005  0.000000E+000
 0.271578E-004 -0.900832E-005  0.000000E+000
 0.264405E-004 -0.869895E-005  0.000000E+000
 0.257287E-004 -0.838943E-005  0.000000E+000
 0.250228E-004 -0.807980E-005  0.000000E+000
 0.243238E-004 -0.777012E-005  0.000000E+000
 0.236324E-004 -0.746051E-005  0.000000E+000
 0.229497E-004 -0.715106E-005  0.000000E+000
 0.222768E-004 -0.684198E-005  0.000000E+000
 0.216152E-004 -0.653348E-005  0.000000E+000
 0.209665E-004 -0.622592E-005  0.000000E+000
 0.203328E-004 -0.591972E-005  0.000000E+000
 0.197167E-004 -0.561554E-005  0.000000E+000
 0.191212E-004 -0.531426E-005  0.000000E+000
 0.185504E-004 -0.501711E-005  0.000000E+000
 0.180091E-004 -0.472594E-005  0.000000E+000
 0.175039E-004 -0.444328E-005  0.000000E+000
 0.170432E-004 -0.417305E-005  0.000000E+000
 0.166382E-004 -0.392094E-005  0.000000E+000
 0.163045E-004 -0.369583E-005  0.000000E+000
 0.160637E-004 -0.351175E-005  0.000000E+000
 0.159469E-004 -0.339118E-005  0.000000E+000
 0.160015E-004 -0.337268E-005  0.000000E+000
 0.162994E-004 -0.352373E-005  0.000000E+000
 0.169605E-004 -0.397134E-005  0.000000E+000
 0.181881E-004 -0.498327E-005  0.000000E+000
 0.285533E-004 -0.135209E-004  0.000000E+000
 0.278803E-004 -0.131854E-004  0.000000E+000
 0.272090E-004 -0.128502E-004  0.000000E+000
 0.265394E-004 -0.125153E-004  0.000000E+000
 0.258719E-004 -0.121809E-004  0.000000E+000
 0.252065E-004 -0.118469E-004  0.000000E+000
 0.245436E-004 -0.115134E-004  0.000000E+000
 0.238833E-004 -0.111804E-004  0.000000E+000
 0.232259E-004 -0.108482E-004  0.000000E+000
 0.225717E-004 -0.105167E-004  0.000000E+000
 0.219213E-004 -0.101861E-004  0.000000E+000
 0.212749E-004 -0.985649E-005  0.000000E+000
 0.206331E-004 -0.952813E-005  0.000000E+000
 0.199966E-004 -0.920121E-005  0.000000E+000
 0.193660E-004 -0.887598E-005  0.000000E+000
 0.187422E-004 -0.855277E-005  0.000000E+000
 0.181264E-004 -0.823199E-005  0.000000E+000
 0.175197E-004 -0.791414E-005  0.000000E+000
 0.169238E-004 -0.759988E-005  0.000000E+000
 0.163406E-004 -0.729001E-005  0.000000E+000
 0.157727E-004 -0.698567E-005  0.000000E+000
 0.152233E-004 -0.668820E-005  0.000000E+000
 0.146966E-004 -0.639963E-005  0.000000E+000
 0.141983E-004 -0.612241E-005  0.000000E+000
 0.137358E-004 -0.586030E-005  0.000000E+000
 0.133198E-004 -0.561827E-005  0.000000E+000
 0.129652E-004 -0.540373E-005  0.000000E+000
 0.126940E-004 -0.522773E-005  0.000000E+000
 0.125397E-004 -0.510673E-005  0.000000E+000
 0.125552E-004 -0.506750E-005  0.000000E+000
 0.128291E-004 -0.515382E-005  0.000000E+000
 0.135190E-004 -0.543961E-005  0.000000E+000
 0.149319E-004 -0.605451E-005  0.000000E+000
 0.329360E-004 -0.119399E-004  0.000000E+000
 0.321835E-004 -0.116223E-004  0.000000E+000
 0.314334E-004 -0.113046E-004  0.000000E+000
 0.306860E-004 -0.109867E-004  0.000000E+000
 0.299414E-004 -0.106685E-004  0.000000E+000
 0.291999E-004 -0.103502E-004  0.000000E+000
 0.284619E-004 -0.100318E-004  0.000000E+000
 0.277276E-004 -0.971311E-005  0.000000E+000
 0.269975E-004 -0.939433E-005  0.000000E+000
 0.262721E-004 -0.907544E-005  0.000000E+000
 0.255517E-004 -0.875648E-005  0.000000E+000
 0.248372E-004 -0.843751E-005  0.000000E+000
 0.241290E-004 -0.811859E-005  0.000000E+000
 0.234282E-004 -0.779983E-005  0.000000E+000
 0.227355E-004 -0.748137E-005  0.000000E+000
 0.220523E-004 -0.716337E-005  0.000000E+000
 0.213798E-004 -0.684610E-005  0.000000E+000
 0.207196E-004 -0.652987E-005  0.000000E+000
 0.200739E-004 -0.621516E-005  0.000000E+000
 0.194450E-004 -0.590258E-005  0.000000E+000
 0.188360E-004 -0.559303E-005  0.000000E+000
 0.182508E-004 -0.528773E-005  0.000000E+000
 0.176943E-004 -0.498846E-005  0.000000E+000
 0.171728E-004 -0.469778E-005  0.000000E+000
 0.166948E-004 -0.441941E-005  0.000000E+000
 0.162716E-004 -0.415912E-005  0.000000E+000
 0.159189E-004 -0.392536E-005  0.000000E+000
 0.156590E-004 -0.373209E-005  0.000000E+000
 0.155237E-004 -0.360128E-005  0.000000E+000
 0.155629E-004 -0.357067E-005  0.000000E+000
 0.158538E-004 -0.370737E-005  0.000000E+000
 0.165263E-004 -0.413612E-005  0.000000E+000
 0.178135E-004 -0.512860E-005  0.000000E+000
 0.295840E-004 -0.134666E-004  0.000000E+000
 0.288864E-004 -0.131279E-004  0.000000E+000
 0.281906E-004 -0.127895E-004  0.000000E+000
 0.274967E-004 -0.124512E-004  0.000000E+000
 0.268048E-004 -0.121133E-004  0.000000E+000
 0.261153E-004 -0.117757E-004  0.000000E+000
 0.254282E-004 -0.114385E-004  0.000000E+000
 0.247439E-004 -0.111017E-004  0.000000E+000
 0.240627E-004 -0.107655E-004  0.000000E+000
 0.233849E-004 -0.104298E-004  0.000000E+000
 0.227110E-004 -0.100949E-004  0.000000E+000
 0.220413E-004 -0.976083E-005  0.000000E+000
 0.213764E-004 -0.942776E-005  0.000000E+000
 0.207170E-004 -0.909588E-005  0.000000E+000
 0.200638E-004 -0.876544E-005  0.000000E+000
 0.194177E-004 -0.843673E-005  0.000000E+000
 0.187798E-004 -0.811014E-005  0.000000E+000
 0.181514E-004 -0.778613E-005  0.000000E+000
 0.175342E-004 -0.746531E-005  0.000000E+000
 0.169303E-004 -0.714849E-005  0.000000E+000
 0.163421E-004 -0.683669E-005  0.000000E+000
 0.157731E-004 -0.653133E-005  0.000000E+000
 0.152274E-004 -0.623422E-005  0.000000E+000
 0.147109E-004 -0.594809E-005  0.000000E+000
 0.142312E-004 -0.567634E-005  0.000000E+000
 0.137990E-004 -0.542454E-005  0.000000E+000
 0.134296E-004 -0.519982E-005  0.000000E+000
 0.131450E-004 -0.501424E-005  0.000000E+000
 0.129794E-004 -0.488523E-005  0.000000E+000
 0.129859E-004 -0.484161E-005  0.000000E+000
 0.132544E-004 -0.493279E-005  0.000000E+000
 0.139443E-004 -0.524339E-005  0.000000E+000
 0.153714E-004 -0.592917E-005  0.000000E+000
 0.328390E-004 -0.124041E-004  0.000000E+000
 0.320800E-004 -0.120765E-004  0.000000E+000
 0.313232E-004 -0.117487E-004  0.000000E+000
 0.305689E-004 -0.114208E-004  0.000000E+000
 0.298173E-004 -0.110928E-004  0.000000E+000
 0.290686E-004 -0.107646E-004  0.000000E+000
 0.283232E-004 -0.104364E-004  0.000000E+000
 0.275813E-004 -0.101081E-004  0.000000E+000
 0.268433E-004 -0.977969E-005  0.000000E+000
 0.261098E-004 -0.945128E-005  0.000000E+000
 0.253810E-004 -0.912290E-005  0.000000E+000
 0.246578E-004 -0.879460E-005  0.000000E+000
 0.239406E-004 -0.846647E-005  0.000000E+000
 0.232303E-004 -0.813861E-005  0.000000E+000
 0.225279E-004 -0.781117E-005  0.000000E+000
 0.218343E-004 -0.748434E-005  0.000000E+000
 0.211510E-004 -0.715836E-005  0.000000E+000
 0.204795E-004 -0.683359E-005  0.000000E+000
 0.198218E-004 -0.651048E-005  0.000000E+000
 0.191802E-004 -0.618968E-005  0.000000E+000
 0.185577E-004 -0.587203E-005  0.000000E+000
 0.179581E-004 -0.555883E-005  0.000000E+000
 0.173862E-004 -0.525173E-005  0.000000E+000
 0.168484E-004 -0.495337E-005  0.000000E+000
 0.163529E-004 -0.466731E-005  0.000000E+000
 0.159112E-004 -0.439920E-005  0.000000E+000
 0.155389E-004 -0.415749E-005  0.000000E+000
 0.152587E-004 -0.395542E-005  0.000000E+000
 0.151039E-004 -0.381512E-005  0.000000E+000
 0.151252E-004 -0.377271E-005  0.000000E+000
 0.154065E-004 -0.389504E-005  0.000000E+000
 0.160861E-004 -0.430339E-005  0.000000E+000
 0.174277E-004 -0.526997E-005  0.000000E+000
 0.306124E-004 -0.134169E-004  0.000000E+000
 0.298901E-004 -0.130751E-004  0.000000E+000
 0.291696E-004 -0.127334E-004  0.000000E+000
 0.284512E-004 -0.123919E-004  0.000000E+000
 0.277349E-004 -0.120505E-004  0.000000E+000
 0.270210E-004 -0.117094E-004  0.000000E+000
 0.263097E-004 -0.113686E-004  0.000000E+000
 0.256014E-004 -0.110281E-004  0.000000E+000
 0.248962E-004 -0.106879E-004  0.000000E+000
 0.241946E-004 -0.103482E-004  0.000000E+000
 0.234970E-004 -0.100091E-004  0.000000E+000
 0.228039E-004 -0.967059E-005  0.000000E+000
 0.221158E-004 -0.933291E-005  0.000000E+000
 0.214334E-004 -0.899620E-005  0.000000E+000
 0.207574E-004 -0.866067E-005  0.000000E+000
 0.200889E-004 -0.832659E-005  0.000000E+000
 0.194289E-004 -0.799432E-005  0.000000E+000
 0.187788E-004 -0.766428E-005  0.000000E+000
 0.181403E-004 -0.733705E-005  0.000000E+000
 0.175155E-004 -0.701339E-005  0.000000E+000
 0.169071E-004 -0.669427E-005  0.000000E+000
 0.163183E-004 -0.638106E-005  0.000000E+000
 0.157538E-004 -0.607558E-005  0.000000E+000
 0.152191E-004 -0.578040E-005  0.000000E+000
 0.147223E-004 -0.549921E-005  0.000000E+000
 0.142740E-004 -0.523711E-005  0.000000E+000
 0.138901E-004 -0.500236E-005  0.000000E+000
 0.135924E-004 -0.480614E-005  0.000000E+000
 0.134158E-004 -0.466874E-005  0.000000E+000
 0.134136E-004 -0.461909E-005  0.000000E+000
 0.136763E-004 -0.471301E-005  0.000000E+000
 0.143647E-004 -0.504596E-005  0.000000E+000
 0.158007E-004 -0.580020E-005  0.000000E+000
 0.327478E-004 -0.128676E-004  0.000000E+000
 0.319822E-004 -0.125298E-004  0.000000E+000
 0.312187E-004 -0.121920E-004  0.000000E+000
 0.304575E-004 -0.118541E-004  0.000000E+000
 0.296989E-004 -0.115162E-004  0.000000E+000
 0.289431E-004 -0.111782E-004  0.000000E+000
 0.281903E-004 -0.108401E-004  0.000000E+000
 0.274408E-004 -0.105021E-004  0.000000E+000
 0.266951E-004 -0.101641E-004  0.000000E+000
 0.259534E-004 -0.982614E-005  0.000000E+000
 0.252164E-004 -0.948833E-005  0.000000E+000
 0.244845E-004 -0.915071E-005  0.000000E+000
 0.237584E-004 -0.881337E-005  0.000000E+000
 0.230388E-004 -0.847644E-005  0.000000E+000
 0.223266E-004 -0.814006E-005  0.000000E+000
 0.216229E-004 -0.780443E-005  0.000000E+000
 0.209289E-004 -0.746983E-005  0.000000E+000
 0.202461E-004 -0.713659E-005  0.000000E+000
 0.195765E-004 -0.680520E-005  0.000000E+000
 0.189223E-004 -0.647628E-005  0.000000E+000
 0.182864E-004 -0.615076E-005  0.000000E+000
 0.176724E-004 -0.582980E-005  0.000000E+000
 0.170852E-004 -0.551523E-005  0.000000E+000
 0.165309E-004 -0.520938E-005  0.000000E+000
 0.160179E-004 -0.491614E-005  0.000000E+000
 0.155571E-004 -0.464057E-005  0.000000E+000
 0.151650E-004 -0.439149E-005  0.000000E+000
 0.148636E-004 -0.418121E-005  0.000000E+000
 0.146880E-004 -0.403202E-005  0.000000E+000
 0.146900E-004 -0.397835E-005  0.000000E+000
 0.149578E-004 -0.408647E-005  0.000000E+000
 0.156414E-004 -0.447315E-005  0.000000E+000
 0.170306E-004 -0.540677E-005  0.000000E+000
 0.316384E-004 -0.133714E-004  0.000000E+000
 0.308913E-004 -0.130266E-004  0.000000E+000
 0.301460E-004 -0.126817E-004  0.000000E+000
 0.294029E-004 -0.123370E-004  0.000000E+000
 0.286620E-004 -0.119923E-004  0.000000E+000
 0.279236E-004 -0.116478E-004  0.000000E+000
 0.271880E-004 -0.113034E-004  0.000000E+000
 0.264554E-004 -0.109592E-004  0.000000E+000
 0.257262E-004 -0.106152E-004  0.000000E+000
 0.250007E-004 -0.102716E-004  0.000000E+000
 0.242793E-004 -0.992834E-005  0.000000E+000
 0.235626E-004 -0.958557E-005  0.000000E+000
 0.228511E-004 -0.924339E-005  0.000000E+000
 0.221456E-004 -0.890197E-005  0.000000E+000
 0.214468E-004 -0.856148E-005  0.000000E+000
 0.207557E-004 -0.822218E-005  0.000000E+000
 0.200734E-004 -0.788437E-005  0.000000E+000
 0.194015E-004 -0.754845E-005  0.000000E+000
 0.187416E-004 -0.721496E-005  0.000000E+000
 0.180959E-004 -0.688459E-005  0.000000E+000
 0.174671E-004 -0.655831E-005  0.000000E+000
 0.168587E-004 -0.623737E-005  0.000000E+000
 0.162751E-004 -0.592363E-005  0.000000E+000
 0.157224E-004 -0.561951E-005  0.000000E+000
 0.152086E-004 -0.532877E-005  0.000000E+000
 0.147446E-004 -0.505655E-005  0.000000E+000
 0.143460E-004 -0.481107E-005  0.000000E+000
 0.140359E-004 -0.460457E-005  0.000000E+000
 0.138481E-004 -0.445680E-005  0.000000E+000
 0.138379E-004 -0.440159E-005  0.000000E+000
 0.140947E-004 -0.449430E-005  0.000000E+000
 0.147802E-004 -0.484838E-005  0.000000E+000
 0.162190E-004 -0.566753E-005  0.000000E+000
 0.326620E-004 -0.133301E-004  0.000000E+000
 0.318898E-004 -0.129822E-004  0.000000E+000
 0.311196E-004 -0.126343E-004  0.000000E+000
 0.303517E-004 -0.122863E-004  0.000000E+000
 0.295861E-004 -0.119384E-004  0.000000E+000
 0.288231E-004 -0.115905E-004  0.000000E+000
 0.280630E-004 -0.112426E-004  0.000000E+000
 0.273060E-004 -0.108949E-004  0.000000E+000
 0.265525E-004 -0.105472E-004  0.000000E+000
 0.258029E-004 -0.101997E-004  0.000000E+000
 0.250576E-004 -0.985247E-005  0.000000E+000
 0.243172E-004 -0.950552E-005  0.000000E+000
 0.235822E-004 -0.915898E-005  0.000000E+000
 0.228534E-004 -0.881297E-005  0.000000E+000
 0.221316E-004 -0.846767E-005  0.000000E+000
 0.214178E-004 -0.812328E-005  0.000000E+000
 0.207132E-004 -0.778009E-005  0.000000E+000
 0.200193E-004 -0.743845E-005  0.000000E+000
 0.193379E-004 -0.709886E-005  0.000000E+000
 0.186711E-004 -0.676197E-005  0.000000E+000
 0.180219E-004 -0.642866E-005  0.000000E+000
 0.173938E-004 -0.610020E-005  0.000000E+000
 0.167913E-004 -0.577827E-005  0.000000E+000
 0.162205E-004 -0.546541E-005  0.000000E+000
 0.156897E-004 -0.516509E-005  0.000000E+000
 0.152100E-004 -0.488284E-005  0.000000E+000
 0.147972E-004 -0.462645E-005  0.000000E+000
 0.144746E-004 -0.440922E-005  0.000000E+000
 0.142764E-004 -0.425091E-005  0.000000E+000
 0.142579E-004 -0.418789E-005  0.000000E+000
 0.145092E-004 -0.427995E-005  0.000000E+000
 0.151916E-004 -0.464773E-005  0.000000E+000
 0.166243E-004 -0.553496E-005  0.000000E+000
CELL_DATA  8192
SCALARS region_id INT     1
LOOKUP_TABLE default
    1
    1
    1
    1
    1
    1
    1
    1
    1
    1
    1
    1
    1
    1
    1
    1
    1
    1
    1
    1
    1
    1
    1
    1
    1
    1
    1
    1
    1
    1
    1
    1
    1
    1
    1
    1
    1
    1
    1
    1
    1
    1
    1
    1
    1
    1
    1
    1
    1
    1
    1
    1
    1
    1
    1
    1
    1
    1
    1
    1
    1
    1
    1
    1
    1
    1
    1
    1
    1
    1
    1
    1
    1
    1
    1
    1
    1
    1
    1
    1
    1
    1
    1
    1
    1
    1
    1
    1
    1
    1
    1
    1
    1
    1
    1
    1
    1
    1
    1
    1
    1
    1
    1
    1
    1
    1
    1
    1
    1
    1
    1
    1
    1
    1
    1
    1
    1
    1
    1
    1
    1
    1
    1
    1
    1
    1
    1
    1
    1
    1
    1
    1
    1
    1
    1
    1
    1
    1
    1
    1
    1
    1
    1
    1
    1
    1
    1
    1
    1
    1
    1
    1
    1
    1
    1
    1
    1
    1
    1
    1
    1
    1
    1
    1
    1
    1
    1
    1
    1
    1
    1
    1
    1
    1
    1
    1
    1
    1
    1
    1
    1
    1
    1
    1
    1
    1
    1
    1
    1
    1
    1
    1
    1
    1
    1
    1
    1
    1
    1
    1
    1
    1
    1
    1
    1
    1
    1
    1
    1
    1
    1
    1
    1
    1
    1
    1
    1
    1
    1
    1
    1
    1
    1
    1
    1
    1
    1
    1
    1
    1
    1
    1
    1
    1
    1
    1
    1
    1
    1
    1
    1
    1
    1
    1
    1
    1
    1
    1
    1
    1
    1
    1
    1
    1
    1
    1
    1
    1
    1
    1
    1
    1
    1
    1
    1
    1
    1
    1
    1
    1
    1
    1
    1
    1
    1
    1
    1
    1
    1
    1
    1
    1
    1
    1
    1
    1
    1
    1
    1
    1
    1
    1
    1
    1
    1
    1
    1
    1
    1
    1
    1
    1
    1
    1
    1
    1
    1
    1
    1
    1
    1
    1
    1
    1
    1
    1
    1
    1
    1
    1
    1
    1
    1
    1
    1
    1
    1
    1
    1
    1
    1
    1
    1
    1
    1
    1
    1
    1
    1
    1
    1
    1
    1
    1
    1
    1
    1
    1
    1
    1
    1
    1
    1
    1
    1
    1
    1
    1
    1
    1
    1
    1
    1
    1
    1
    1
    1
    1
    1
    1
    1
    1
    1
    1
    1
    1
    1
    1
    1
    1
    1
    1
    1
    1
    1
    1
    1
    1
    1
    1
    1
    1
    1
    1
    1
    1
    1
    1
    1
    1
    1
    1
    1
    1
    1
    1
    1
    1
    1
    1
    1
    1
    1
    1
    1
    1
    1
    1
    1
    1
    1
    1
    1
    1
    1
    1
    1
    1
    1
    1
    1
    1
    1
    1
    1
    1
    1
    1
    1
    1
    1
    1
    1
    1
    1
    1
    1
    1
    1
    1
    1
    1
    1
    1
    1
    1
    1
    1
    1
    1
    1
    1
    1
    1
    1
    1
    1
    1
    1
    1
    1
    1
    1
    1
    1
    1
    1
    1
    1
    1
    1
    1
    1
    1
    1
    1
    1
    1
    1
    1
    1
    1
    1
    1
    1
    1
    1
    1
    1
    1
    1
    1
    1
    1
    1
    1
    1
    1
    1
    1
    1
    1
    1
    1
    1
    1
    1
    1
    1
    1
    1
    1
    1
    1
    1
    1
    1
    1
    1
    1
    1
    1
    1
    1
    1
    1
    1
    1
    1
    1
    1
    1
    1
    1
    1
    1
    1
    1
    1
    1
    1
    1
    1
    1
    1
    1
    1
    1
    1
    1
    1
    1
    1
    1
    1
    1
    1
    1
    1
    1
    1
    1
    1
    1
    1
    1
    1
    1
    1
    1
    1
    1
    1
    1
    1
    1
    1
    1
    1
    1
    1
    1
    1
    1
    1
    1
    1
    1
    1
    1
    1
    1
    1
    1
    1
    1
    1
    1
    1
    1
    1
    1
    1
    1
    1
    1
    1
    1
    1
    1
    1
    1
    1
    1
    1
    1
    1
    1
    1
    1
    1
    1
    1
    1
    1
    1
    1
    1
    1
    1
    1
    1
    1
    1
    1
    1
    1
    1
    1
    1
    1
    1
    1
    1
    1
    1
    1
    1
    1
    1
    1
    1
    1
    1
    1
    1
    1
    1
    1
    1
    1
    1
    1
    1
    1
    1
    1
    1
    1
    1
    1
    1
    1
    1
    1
    1
    1
    1
    1
    1
    1
    1
    1
    1
    1
    1
    1
    1
    1
    1
    1
    1
    1
    1
    1
    1
    1
    1
    1
    1
    1
    1
    1
    1
    1
    1
    1
    1
    1
    1
    1
    1
    1
    1
    1
    1
    1
    1
    1
    1
    1
    1
    1
    1
    1
    1
    1
    1
    1
    1
    1
    1
    1
    1
    1
    1
    1
    1
    1
    1
    1
    1
    1
    1
    1
    1
    1
    1
    1
    1
    1
    1
    1
    1
    1
    1
    1
    1
    1
    1
    1
    1
    1
    1
    1
    1
    1
    1
    1
    1
    1
    1
    1
    1
    1
    1
    1
    1
    1
    1
    1
    1
    1
    1
    1
    1
    1
    1
    1
    1
    1
    1
    1
    1
    1
    1
    1
    1
    1
    1
    1
    1
    1
    1
    1
    1
    1
    1
    1
    1
    1
    1
    1
    1
    1
    1
    1
    1
    1
    1
    1
    1
    1
    1
    1
    1
    1
    1
    1
    1
    1
    1
    1
    1
    1
    1
    1
    1
    1
    1
    1
    1
    1
    1
    1
    1
    1
    1
    1
    1
    1
    1
    1
    1
    1
    1
    1
    1
    1
    1
    1
    1
    1
    1
    1
    1
    1
    1
    1
    1
    1
    1
    1
    1
    1
    1
    1
    1
    1
    1
    1
    1
    1
    1
    1
    1
    1
    1
    1
    1
    1
    1
    1
    1
    1
    1
    1
    1
    1
    1
    1
    1
    1
    1
    1
    1
    1
    1
    1
    1
    1
    1
    1
    1
    1
    1
    1
    1
    1
    1
    1
    1
    1
    1
    1
    1
    1
    1
    1
    1
    1
    1
    1
    1
    1
    1
    1
    1
    1
    1
    1
    1
    1
    1
    1
    1
    1
    1
    1
    1
    1
    1
    1
    1
    1
    1
    1
    1
    1
    1
    1
    1
    1
    1
    1
    1
    1
    1
    1
    1
    1
    1
    1
    1
    1
    1
    1
    1
    1
    1
    1
    1
    1
    1
    1
    1
    1
    1
    1
    1
    1
    1
    1
    1
    1
    1
    1
    1
    1
    1
    1
    1
    1
    1
    1
    1
    1
    1
    1
    1
    1
    1
    1
    1
    1
    1
    1
    1
    1
    1
    1
    1
    1
    1
    1
    1
    1
    1
    1
    1
    1
    1
    1
    1
    1
    1
    1
    1
    1
    1
    1
    1
    1
    1
    1
    1
    1
    1
    1
    1
    1
    1
    1
    1
    1
    1
    1
    1
    1
    1
    1
    1
    1
    1
    1
    1
    1
    1
    1
    1
    1
    1
    1
    1
    1
    1
    1
    1
    1
    1
    1
    1
    1
    1
    1
    1
    1
    1
    1
    1
    1
    1
    1
    1
    1
    1
    1
    1
    1
    1
    1
    1
    1
    1
    1
    1
    1
    1
    1
    1
    1
    1
    1
    1
    1
    1
    1
    1
    1
    1
    1
    1
    1
    1
    1
    1
    1
    1
    1
    1
    1
    1
    1
    1
    1
    1
    1
    1
    1
    1
    1
    1
    1
    1
    1
    1
    1
    1
    1
    1
    1
    1
    1
    1
    1
    1
    1
    1
    1
    1
    1
    1
    1
    1
    1
    1
    1
    1
    1
    1
    1
    1
    1
    1
    1
    1
    1
    1
    1
    1
    1
    1
    1
    1
    1
    1
    1
    1
    1
    1
    1
    1
    1
    1
    1
    1
    1
    1
    1
    1
    1
    1
    1
    1
    1
    1
    1
    1
    1
    1
    1
    1
    1
    1
    1
    1
    1
    1
    1
    1
    1
    1
    1
    1
    1
    1
    1
    1
    1
    1
    1
    1
    1
    1
    1
    1
    1
    1
    1
    1
    1
    1
    1
    1
    1
    1
    1
    1
    1
    1
    1
    1
    1
    1
    1
    1
    1
    1
    1
    1
    1
    1
    1
    1
    1
    1
    1
    1
    1
    1
    1
    1
    1
    1
    1
    1
    1
    1
    1
    1
    1
    1
    1
    1
    1
    1
    1
    1
    1
    1
    1
    1
    1
    1
    1
    1
    1
    1
    1
    1
    1
    1
    1
    1
    1
    1
    1
    1
    1
    1
    1
    1
    1
    1
    1
    1
    1
    1
    1
    1
    1
    1
    1
    1
    1
    1
    1
    1
    1
    1
    1
    1
    1
    1
    1
    1
    1
    1
    1
    1
    1
    1
    1
    1
    1
    1
    1
    1
    1
    1
    1
    1
    1
    1
    1
    1
    1
    1
    1
    1
    1
    1
    1
    1
    1
    1
    1
    1
    1
    1
    1
    1
    1
    1
    1
    1
    1
    1
    1
    1
    1
    1
    1
    1
    1
    1
    1
    1
    1
    1
    1
    1
    1
    1
    1
    1
    1
    1
    1
    1
    1
    1
    1
    1
    1
    1
    1
    1
    1
    1
    1
    1
    1
    1
    1
    1
    1
    1
    1
    1
    1
    1
    1
    1
    1
    1
    1
    1
    1
    1
    1
    1
    1
    1
    1
    1
    1
    1
    1
    1
    1
    1
    1
    1
    1
    1
    1
    1
    1
    1
    1
    1
    1
    1
    1
    1
    1
    1
    1
    1
    1
    1
    1
    1
    1
    1
    1
    1
    1
    1
    1
    1
    1
    1
    1
    1
    1
    1
    1
    1
    1
    1
    1
    1
    1
    1
    1
    1
    1
    1
    1
    1
    1
    1
    1
    1
    1
    1
    1
    1
    1
    1
    1
    1
    1
    1
    1
    1
    1
    1
    1
    1
    1
    1
    1
    1
    1
    1
    1
    1
    1
    1
    1
    1
    1
    1
    1
    1
    1
    1
    1
    1
    1
    1
    1
    1
    1
    1
    1
    1
    1
    1
    1
    1
    1
    1
    1
    1
    1
    1
    1
    1
    1
    1
    1
    1
    1
    1
    1
    1
    1
    1
    1
    1
    1
    1
    1
    1
    1
    1
    1
    1
    1
    1
    1
    1
    1
    1
    1
    1
    1
    1
    1
    1
    1
    1
    1
    1
    1
    1
    1
    1
    1
    1
    1
    1
    1
    1
    1
    1
    1
    1
    1
    1
    1
    1
    1
    1
    1
    1
    1
    1
    1
    1
    1
    1
    1
    1
    1
    1
    1
    1
    1
    1
    1
    1
    1
    1
    1
    1
    1
    1
    1
    1
    1
    1
    1
    1
    1
    1
    1
    1
    1
    1
    1
    1
    1
    1
    1
    1
    1
    1
    1
    1
    1
    1
    1
    1
    1
    1
    1
    1
    1
    1
    1
    1
    1
    1
    1
    1
    1
    1
    1
    1
    1
    1
    1
    1
    1
    1
    1
    1
    1
    1
    1
    1
    1
    1
    1
    1
    1
    1
    1
    1
    1
    1
    1
    1
    1
    1
    1
    1
    1
    1
    1
    1
    1
    1
    1
    1
    1
    1
    1
    1
    1
    1
    1
    1
    1
    1
    1
    1
    1
    1
    1
    1
    1
    1
    1
    1
    1
    1
    1
    1
    1
    1
    1
    1
    1
    1
    1
    1
    1
    1
    1
    1
    1
    1
    1
    1
    1
    1
    1
    1
    1
    1
    1
    1
    1
    1
    1
    1
    1
    1
    1
    1
    1
    1
    1
    1
    1
    1
    1
    1
    1
    1
    1
    1
    1
    1
    1
    1
    1
    1
    1
    1
    1
    1
    1
    1
    1
    1
    1
    1
    1
    1
    1
    1
    1
    1
    1
    1
    1
    1
    1
    1
    1
    1
    1
    1
    1
    1
    1
    1
    1
    1
    1
    1
    1
    1
    1
    1
    1
    1
    1
    1
    1
    1
    1
    1
    1
    1
    1
    1
    1
    1
    1
    1
    1
    1
    1
    1
    1
    1
    1
    1
    1
    1
    1
    1
    1
    1
    1
    1
    1
    1
    1
    1
    1
    1
    1
    1
    1
    1
    1
    1
    1
    1
    1
    1
    1
    1
    1
    1
    1
    1
    1
    1
    1
    1
    1
    1
    1
    1
    1
    1
    1
    1
    1
    1
    1
    1
    1
    1
    1
    1
    1
    1
    1
    1
    1
    1
    1
    1
    1
    1
    1
    1
    1
    1
    1
    1
    1
    1
    1
    1
    1
    1
    1
    1
    1
    1
    1
    1
    1
    1
    1
    1
    1
    1
    1
    1
    1
    1
    1
    1
    1
    1
    1
    1
    1
    1
    1
    1
    1
    1
    1
    1
    1
    1
    1
    1
    1
    1
    1
    1
    1
    1
    1
    1
    1
    1
    1
    1
    1
    1
    1
    1
    1
    1
    1
    1
    1
    1
    1
    1
    1
    1
    1
    1
    1
    1
    1
    1
    1
    1
    1
    1
    1
    1
    1
    1
    1
    1
    1
    1
    1
    1
    1
    1
    1
    1
    1
    1
    1
    1
    1
    1
    1
    1
    1
    1
    1
    1
    1
    1
    1
    1
    1
    1
    1
    1
    1
    1
    1
    1
    1
    1
    1
    1
    1
    1
    1
    1
    1
    1
    1
    1
    1
    1
    1
    1
    1
    1
    1
    1
    1
    1
    1
    1
    1
    1
    1
    1
    1
    1
    1
    1
    1
    1
    1
    1
    1
    1
    1
    1
    1
    1
    1
    1
    1
    1
    1
    1
    1
    1
    1
    1
    1
    1
    1
    1
    1
    1
    1
    1
    1
    1
    1
    1
    1
    1
    1
    1
    1
    1
    1
    1
    1
    1
    1
    1
    1
    1
    1
    1
    1
    1
    1
    1
    1
    1
    1
    1
    1
    1
    1
    1
    1
    1
    1
    1
    1
    1
    1
    1
    1
    1
    1
    1
    1
    1
    1
    1
    1
    1
    1
    1
    1
    1
    1
    1
    1
    1
    1
    1
    1
    1
    1
    1
    1
    1
    1
    1
    1
    1
    1
    1
    1
    1
    1
    1
    1
    1
    1
    1
    1
    1
    1
    1
    1
    1
    1
    1
    1
    1
    1
    1
    1
    1
    1
    1
    1
    1
    1
    1
    1
    1
    1
    1
    1
    1
    1
    1
    1
    1
    1
    1
    1
    1
    1
    1
    1
    1
    1
    1
    1
    1
    1
    1
    1
    1
    1
    1
    1
    1
    1
    1
    1
    1
    1
    1
    1
    1
    1
    1
    1
    1
    1
    1
    1
    1
    1
    1
    1
    1
    1
    1
    1
    1
    1
    1
    1
    1
    1
    1
    1
    1
    1
    1
    1
    1
    1
    1
    1
    1
    1
    1
    1
    1
    1
    1
    1
    1
    1
    1
    1
    1
    1
    1
    1
    1
    1
    1
    1
    1
    1
    1
    1
    1
    1
    1
    1
    1
    1
    1
    1
    1
    1
    1
    1
    1
    1
    1
    1
    1
    1
    1
    1
    1
    1
    1
    1
    1
    1
    1
    1
    1
    1
    1
    1
    1
    1
    1
    1
    1
    1
    1
    1
    1
    1
    1
    1
    1
    1
    1
    1
    1
    1
    1
    1
    1
    1
    1
    1
    1
    1
    1
    1
    1
    1
    1
    1
    1
    1
    1
    1
    1
    1
    1
    1
    1
    1
    1
    1
    1
    1
    1
    1
    1
    1
    1
    1
    1
    1
    1
    1
    1
    1
    1
    1
    1
    1
    1
    1
    1
    1
    1
    1
    1
    1
    1
    1
    1
    1
    1
    1
    1
    1
    1
    1
    1
    1
    1
    1
    1
    1
    1
    1
    1
    1
    1
    1
    1
    1
    1
    1
    1
    1
    1
    1
    1
    1
    1
    1
    1
    1
    1
    1
    1
    1
    1
    1
    1
    1
    1
    1
    1
    1
    1
    1
    1
    1
    1
    1
    1
    1
    1
    1
    1
    1
    1
    1
    1
    1
    1
    1
    1
    1
    1
    1
    1
    1
    1
    1
    1
    1
    1
    1
    1
    1
    1
    1
    1
    1
    1
    1
    1
    1
    1
    1
    1
    1
    1
    1
    1
    1
    1
    1
    1
    1
    1
    1
    1
    1
    1
    1
    1
    1
    1
    1
    1
    1
    1
    1
    1
    1
    1
    1
    1
    1
    1
    1
    1
    1
    1
    1
    1
    1
    1
    1
    1
    1
    1
    1
    1
    1
    1
    1
    1
    1
    1
    1
    1
    1
    1
    1
    1
    1
    1
    1
    1
    1
    1
    1
    1
    1
    1
    1
    1
    1
    1
    1
    1
    1
    1
    1
    1
    1
    1
    1
    1
    1
    1
    1
    1
    1
    1
    1
    1
    1
    1
    1
    1
    1
    1
    1
    1
    1
    1
    1
    1
    1
    1
    1
    1
    1
    1
    1
    1
    1
    1
    1
    1
    1
    1
    1
    1
    1
    1
    1
    1
    1
    1
    1
    1
    1
    1
    1
    1
    1
    1
    1
    1
    1
    1
    1
    1
    1
    1
    1
    1
    1
    1
    1
    1
    1
    1
    1
    1
    1
    1
    1
    1
    1
    1
    1
    1
    1
    1
    1
    1
    1
    1
    1
    1
    1
    1
    1
    1
    1
    1
    1
    1
    1
    1
    1
    1
    1
    1
    1
    1
    1
    1
    1
    1
    1
    1
    1
    1
    1
    1
    1
    1
    1
    1
    1
    1
    1
    1
    1
    1
    1
    1
    1
    1
    1
    1
    1
    1
    1
    1
    1
    1
    1
    1
    1
    1
    1
    1
    1
    1
    1
    1
    1
    1
    1
    1
    1
    1
    1
    1
    1
    1
    1
    1
    1
    1
    1
    1
    1
    1
    1
    1
    1
    1
    1
    1
    1
    1
    1
    1
    1
    1
    1
    1
    1
    1
    1
    1
    1
    1
    1
    1
    1
    1
    1
    1
    1
    1
    1
    1
    1
    1
    1
    1
    1
    1
    1
    1
    1
    1
    1
    1
    1
    1
    1
    1
    1
    1
    1
    1
    1
    1
    1
    1
    1
    1
    1
    1
    1
    1
    1
    1
    1
    1
    1
    1
    1
    1
    1
    1
    1
    1
    1
    1
    1
    1
    1
    1
    1
    1
    1
    1
    1
    1
    1
    1
    1
    1
    1
    1
    1
    1
    1
    1
    1
    1
    1
    1
    1
    1
    1
    1
    1
    1
    1
    1
    1
    1
    1
    1
    1
    1
    1
    1
    1
    1
    1
    1
    1
    1
    1
    1
    1
    1
    1
    1
    1
    1
    1
    1
    1
    1
    1
    1
    1
    1
    1
    1
    1
    1
    1
    1
    1
    1
    1
    1
    1
    1
    1
    1
    1
    1
    1
    1
    1
    1
    1
    1
    1
    1
    1
    1
    1
    1
    1
    1
    1
    1
    1
    1
    1
    1
    1
    1
    1
    1
    1
    1
    1
    1
    1
    1
    1
    1
    1
    1
    1
    1
    1
    1
    1
    1
    1
    1
    1
    1
    1
    1
    1
    1
    1
    1
    1
    1
    1
    1
    1
    1
    1
    1
    1
    1
    1
    1
    1
    1
    1
    1
    1
    1
    1
    1
    1
    1
    1
    1
    1
    1
    1
    1
    1
    1
    1
    1
    1
    1
    1
    1
    1
    1
    1
    1
    1
    1
    1
    1
    1
    1
    1
    1
    1
    1
    1
    1
    1
    1
    1
    1
    1
    1
    1
    1
    1
    1
    1
    1
    1
    1
    1
    1
    1
    1
    1
    1
    1
    1
    1
    1
    1
    1
    1
    1
    1
    1
    1
    1
    1
    1
    1
    1
    1
    1
    1
    1
    1
    1
    1
    1
    1
    1
    1
    1
    1
    1
    1
    1
    1
    1
    1
    1
    1
    1
    1
    1
    1
    1
    1
    1
    1
    1
    1
    1
    1
    1
    1
    1
    1
    1
    1
    1
    1
    1
    1
    1
    1
    1
    1
    1
    1
    1
    1
    1
    1
    1
    1
    1
    1
    1
    1
    1
    1
    1
    1
    1
    1
    1
    1
    1
    1
    1
    1
    1
    1
    1
    1
    1
    1
    1
    1
    1
    1
    1
    1
    1
    1
    1
    1
    1
    1
    1
    1
    1
    1
    1
    1
    1
    1
    1
    1
    1
    1
    1
    1
    1
    1
    1
    1
    1
    1
    1
    1
    1
    1
    1
    1
    1
    1
    1
    1
    1
    1
    1
    1
    1
    1
    1
    1
    1
    1
    1
    1
    1
    1
    1
    1
    1
    1
    1
    1
    1
    1
    1
    1
    1
    1
    1
    1
    1
    1
    1
    1
    1
    1
    1
    1
    1
    1
    1
    1
    1
    1
    1
    1
    1
    1
    1
    1
    1
    1
    1
    1
    1
    1
    1
    1
    1
    1
    1
    1
    1
    1
    1
    1
    1
    1
    1
    1
    1
    1
    1
    1
    1
    1
    1
    1
    1
    1
    1
    1
    1
    1
    1
    1
    1
    1
    1
    1
    1
    1
    1
    1
    1
    1
    1
    1
    1
    1
    1
    1
    1
    1
    1
    1
    1
    1
    1
    1
    1
    1
    1
    1
    1
    1
    1
    1
    1
    1
    1
    1
    1
    1
    1
    1
    1
    1
    1
    1
    1
    1
    1
    1
    1
    1
    1
    1
    1
    1
    1
    1
    1
    1
    1
    1
    1
    1
    1
    1
    1
    1
    1
    1
    1
    1
    1
    1
    1
    1
    1
    1
    1
    1
    1
    1
    1
    1
    1
    1
    1
    1
    1
    1
    1
    1
    1
    1
    1
    1
    1
    1
    1
    1
    1
    1
    1
    1
    1
    1
    1
    1
    1
    1
    1
    1
    1
    1
    1
    1
    1
    1
    1
    1
    1
    1
    1
    1
    1
    1
    1
    1
    1
    1
    1
    1
    1
    1
    1
    1
    1
    1
    1
    1
    1
    1
    1
    1
    1
    1
    1
    1
    1
    1
    1
    1
    1
    1
    1
    1
    1
    1
    1
    1
    1
    1
    1
    1
    1
    1
    1
    1
    1
    1
    1
    1
    1
    1
    1
    1
    1
    1
    1
    1
    1
    1
    1
    1
    1
    1
    1
    1
    1
    1
    1
    1
    1
    1
    1
    1
    1
    1
    1
    1
    1
    1
    1
    1
    1
    1
    1
    1
    1
    1
    1
    1
    1
    1
    1
    1
    1
    1
    1
    1
    1
    1
    1
    1
    1
    1
    1
    1
    1
    1
    1
    1
    1
    1
    1
    1
    1
    1
    1
    1
    1
    1
    1
    1
    1
    1
    1
    1
    1
    1
    1
    1
    1
    1
    1
    1
    1
    1
    1
    1
    1
    1
    1
    1
    1
    1
    1
    1
    1
    1
    1
    1
    1
    1
    1
    1
    1
    1
    1
    1
    1
    1
    1
    1
    1
    1
    1
    1
    1
    1
    1
    1
    1
    1
    1
    1
    1
    1
    1
    1
    1
    1
    1
    1
    1
    1
    1
    1
    1
    1
    1
    1
    1
    1
    1
    1
    1
    1
    1
    1
    1
    1
    1
    1
    1
    1
    1
    1
    1
    1
    1
    1
    1
    1
    1
    1
    1
    1
    1
    1
    1
    1
    1
    1
    1
    1
    1
    1
    1
    1
    1
    1
    1
    1
    1
    1
    1
    1
    1
    1
    1
    1
    1
    1
    1
    1
    1
    1
    1
    1
    1
    1
    1
    1
    1
    1
    1
    1
    1
    1
    1
    1
    1
    1
    1
    1
    1
    1
    1
    1
    1
    1
    1
    1
    1
    1
    1
    1
    1
    1
    1
    1
    1
    1
    1
    1
    1
    1
    1
    1
    1
    1
    1
    1
    1
    1
    1
    1
    1
    1
    1
    1
    1
    1
    1
    1
    1
    1
    1
    1
    1
    1
    1
    1
    1
    1
    1
    1
    1
    1
    1
    1
    1
    1
    1
    1
    1
    1
    1
    1
    1
    1
    1
    1
    1
    1
    1
    1
    1
    1
    1
    1
    1
    1
    1
    1
    1
    1
    1
    1
    1
    1
    1
    1
    1
    1
    1
    1
    1
    1
    1
    1
    1
    1
    1
    1
    1
    1
    1
    1
    1
    1
    1
    1
    1
    1
    1
    1
    1
    1
    1
    1
    1
    1
    1
    1
    1
    1
    1
    1
    1
    1
    1
    1
    1
    1
    1
    1
    1
    1
    1
    1
    1
    1
    1
    1
    1
    1
    1
    1
    1
    1
    1
    1
    1
    1
    1
    1
    1
    1
    1
    1
    1
    1
    1
    1
    1
    1
    1
    1
    1
    1
    1
    1
    1
    1
    1
    1
    1
    1
    1
    1
    1
    1
    1
    1
    1
    1
    1
    1
    1
    1
    1
    1
    1
    1
    1
    1
    1
    1
    1
    1
    1
    1
    1
    1
    1
    1
    1
    1
    1
    1
    1
    1
    1
    1
    1
    1
    1
    1
    1
    1
    1
    1
    1
    1
    1
    1
    1
    1
    1
    1
    1
    1
    1
    1
    1
    1
    1
    1
    1
    1
    1
    1
    1
    1
    1
    1
    1
    1
    1
    1
    1
    1
    1
    1
    1
    1
    1
    1
    1
    1
    1
    1
    1
    1
    1
    1
    1
    1
    1
    1
    1
    1
    1
    1
    1
    1
    1
    1
    1
    1
    1
    1
    1
    1
    1
    1
    1
    1
    1
    1
    1
    1
    1
    1
    1
    1
    1
    1
    1
    1
    1
    1
    1
    1
    1
    1
    1
    1
    1
    1
    1
    1
    1
    1
    1
    1
    1
    1
    1
    1
    1
    1
    1
    1
    1
    1
    1
    1
    1
    1
    1
    1
    1
    1
    1
    1
    1
    1
    1
    1
    1
    1
    1
    1
    1
    1
    1
    1
    1
    1
    1
    1
    1
    1
    1
    1
    1
    1
    1
    1
    1
    1
    1
    1
    1
    1
    1
    1
    1
    1
    1
    1
    1
    1
    1
    1
    1
    1
    1
    1
    1
    1
    1
    1
    1
    1
    1
    1
    1
    1
    1
    1
    1
    1
    1
    1
    1
    1
    1
    1
    1
    1
    1
    1
    1
    1
    1
    1
    1
    1
    1
    1
    1
    1
    1
    1
    1
    1
    1
    1
    1
    1
    1
    1
    1
    1
    1
    1
    1
    1
    1
    1
    1
    1
    1
    1
    1
    1
    1
    1
    1
    1
    1
    1
    1
    1
    1
    1
    1
    1
    1
    1
    1
    1
    1
    1
    1
    1
    1
    1
    1
    1
    1
    1
    1
    1
    1
    1
    1
    1
    1
    1
    1
    1
    1
    1
    1
    1
    1
    1
    1
    1
    1
    1
    1
    1
    1
    1
    1
    1
    1
    1
    1
    1
    1
    1
    1
    1
    1
    1
    1
    1
    1
    1
    1
    1
    1
    1
    1
    1
    1
    1
    1
    1
    1
    1
    1
    1
    1
    1
    1
    1
    1
    1
    1
    1
    1
    1
    1
    1
    1
    1
    1
    1
    1
    1
    1
    1
    1
    1
    1
    1
    1
    1
    1
    1
    1
    1
    1
    1
    1
    1
    1
    1
    1
    1
    1
    1
    1
    1
    1
    1
    1
    1
    1
    1
    1
    1
    1
    1
    1
    1
    1
    1
    1
    1
    1
    1
    1
    1
    1
    1
    1
    1
    1
    1
    1
    1
    1
    1
    1
    1
    1
    1
    1
    1
    1
    1
    1
    1
    1
    1
    1
    1
    1
    1
    1
    1
    1
    1
    1
    1
    1
    1
    1
    1
    1
    1
    1
    1
    1
    1
    1
    1
    1
    1
    1
    1
    1
    1
    1
    1
    1
    1
    1
    1
    1
    1
    1
    1
    1
    1
    1
    1
    1
    1
    1
    1
    1
    1
    1
    1
    1
    1
    1
    1
    1
    1
    1
    1
    1
    1
    1
    1
    1
    1
    1
    1
    1
    1
    1
    1
    1
    1
    1
    1
    1
    1
    1
    1
    1
    1
    1
    1
    1
    1
    1
    1
    1
    1
    1
    1
    1
    1
    1
    1
    1
    1
    1
    1
    1
    1
    1
    1
    1
    1
    1
    1
    1
    1
    1
    1
    1
    1
    1
    1
    1
    1
    1
    1
    1
    1
    1
    1
    1
    1
    1
    1
    1
    1
    1
    1
    1
    1
    1
    1
    1
    1
    1
    1
    1
    1
    1
    1
    1
    1
    1
    1
    1
    1
    1
    1
    1
    1
    1
    1
    1
    1
    1
    1
    1
    1
    1
    1
    1
    1
    1
    1
    1
    1
    1
    1
    1
    1
    1
    1
    1
    1
    1
    1
    1
    1
    1
    1
    1
    1
    1
    1
    1
    1
    1
    1
    1
    1
    1
    1
    1
    1
    1
    1
    1
    1
    1
    1
    1
    1
    1
    1
    1
    1
    1
    1
    1
    1
    1
    1
    1
    1
    1
    1
    1
    1
    1
    1
    1
    1
    1
    1
    1
    1
    1
    1
    1
    1
    1
    1
    1
    1
    1
    1
    1
    1
    1
    1
    1
    1
    1
    1
    1
    1
    1
    1
    1
    1
    1
    1
    1
    1
    1
    1
    1
    1
    1
    1
    1
    1
    1
    1
    1
    1
    1
    1
    1
    1
    1
    1
    1
    1
    1
    1
    1
    1
    1
    1
    1
    1
    1
    1
    1
    1
    1
    1
    1
    1
    1
    1
    1
    1
    1
    1
    1
    1
    1
    1
    1
    1
    1
    1
    1
    1
    1
    1
    1
    1
    1
    1
    1
    1
    1
    1
    1
    1
    1
    1
    1
    1
    1
    1
    1
    1
    1
    1
    1
    1
    1
    1
    1
    1
    1
    1
    1
    1
    1
    1
    1
    1
    1
    1
    1
    1
    1
    1
    1
    1
    1
    1
    1
    1
    1
    1
    1
    1
    1
    1
    1
    1
    1
    1
    1
    1
    1
    1
    1
    1
    1
    1
    1
    1
    1
    1
    1
    1
    1
    1
    1
    1
    1
    1
    1
    1
    1
    1
    1
    1
    1
    1
    1
    1
    1
    1
    1
    1
    1
    1
    1
    1
    1
    1
    1
    1
    1
    1
    1
    1
    1
    1
    1
    1
    1
    1
    1
    1
    1
    1
    1
    1
    1
    1
    1
    1
    1
    1
    1
    1
    1
    1
    1
    1
    1
    1
    1
    1
    1
    1
    1
    1
    1
    1
    1
    1
    1
    1
    1
    1
    1
    1
    1
    1
    1
    1
    1
    1
    1
    1
    1
    1
    1
    1
    1
    1
    1
    1
    1
    1
    1
    1
    1
    1
    1
    1
    1
    1
    1
    1
    1
    1
    1
    1
    1
    1
    1
    1
    1
    1
    1
    1
    1
    1
    1
    1
    1
    1
    1
    1
    1
    1
    1
    1
    1
    1
    1
    1
    1
    1
    1
    1
    1
    1
    1
    1
    1
    1
    1
    1
    1
    1
    1
    1
    1
    1
    1
    1
    1
    1
    1
    1
    1
    1
    1
    1
    1
    1
    1
    1
    1
    1
    1
    1
    1
    1
    1
    1
    1
    1
    1
    1
    1
    1
    1
    1
    1
    1
    1
    1
    1
    1
    1
    1
    1
    1
    1
    1
    1
    1
    1
    1
    1
    1
    1
    1
    1
    1
    1
    1
    1
    1
    1
    1
    1
    1
    1
    1
    1
    1
    1
    1
    1
    1
    1
    1
    1
    1
    1
    1
    1
    1
    1
    1
    1
    1
    1
    1
    1
    1
    1
    1
    1
    1
    1
    1
    1
    1
    1
    1
    1
    1
    1
    1
    1
    1
    1
    1
    1
    1
    1
    1
    1
    1
    1
    1
    1
    1
    1
    1
    1
    1
    1
    1
    1
    1
    1
    1
    1
    1
    1
    1
    1
    1
    1
    1
    1
    1
    1
    1
    1
    1
    1
    1
    1
    1
    1
    1
    1
    1
    1
    1
    1
    1
    1
    1
    1
    1
    1
    1
    1
    1
    1
    1
    1
    1
    1
    1
    1
    1
    1
    1
    1
    1
    1
    1
    1
    1
    1
    1
    1
    1
    1
    1
    1
    1
    1
    1
    1
    1
    1
    1
    1
    1
    1
    1
    1
    1
    1
    1
    1
    1
    1
    1
    1
    1
    1
    1
    1
    1
    1
    1
    1
    1
    1
    1
    1
    1
    1
    1
    1
    1
    1
    1
    1
    1
    1
    1
    1
    1
    1
    1
    1
    1
    1
    1
    1
    1
    1
    1
    1
    1
    1
    1
    1
    1
    1
    1
    1
    1
    1
    1
    1
    1
    1
    1
    1
    1
    1
    1
    1
    1
    1
    1
    1
    1
    1
    1
    1
    1
    1
    1
    1
    1
    1
    1
    1
    1
    1
    1
    1
    1
    1
    1
    1
    1
    1
    1
    1
    1
    1
    1
    1
    1
    1
    1
    1
    1
    1
    1
    1
    1
    1
    1
    1
    1
    1
    1
    1
    1
    1
    1
    1
    1
    1
    1
    1
    1
    1
    1
    1
    1
    1
    1
    1
    1
    1
    1
    1
    1
    1
    1
    1
    1
    1
    1
    1
    1
    1
    1
    1
    1
    1
    1
    1
    1
    1
    1
    1
    1
    1
    1
    1
    1
    1
    1
    1
    1
    1
    1
    1
    1
    1
    1
    1
    1
    1
    1
    1
    1
    1
    1
    1
    1
    1
    1
    1
    1
    1
    1
    1
    1
    1
    1
    1
    1
    1
    1
    1
    1
    1
    1
    1
    1
    1
    1
    1
    1
    1
    1
    1
    1
    1
    1
    1
    1
    1
    1
    1
    1
    1
    1
    1
    1
    1
    1
    1
    1
    1
    1
    1
    1
    1
    1
    1
    1
    1
    1
    1
    1
    1
    1
    1
    1
    1
    1
    1
    1
    1
    1
    1
    1
    1
    1
    1
    1
    1
    1
    1
    1
    1
    1
    1
    1
    1
    1
    1
    1
    1
    1
    1
    1
    1
    1
    1
    1
    1
    1
    1
    1
    1
    1
    1
    1
    1
    1
    1
    1
    1
    1
    1
    1
    1
    1
    1
    1
    1
    1
    1
    1
    1
    1
    1
    1
    1
    1
    1
    1
    1
    1
    1
    1
    1
    1
    1
    1
    1
    1
    1
    1
    1
    1
    1
    1
    1
    1
    1
    1
    1
    1
    1
    1
    1
    1
    1
    1
    1
    1
    1
    1
    1
    1
    1
    1
    1
    1
    1
    1
    1
    1
    1
    1
    1
    1
    1
    1
    1
    1
    1
    1
    1
    1
    1
    1
    1
    1
    1
    1
    1
    1
    1
    1
    1
    1
    1
    1
    1
    1
    1
    1
    1
    1
    1
    1
    1
    1
    1
    1
    1
    1
    1
    1
    1
    1
    1
    1
    1
    1
    1
    1
    1
    1
    1
    1
    1
    1
    1
    1
    1
    1
    1
    1
    1
    1
    1
    1
    1
    1
    1
    1
    1
    1
    1
    1
    1
    1
    1
    1
    1
    1
    1
    1
    1
    1
    1
    1
    1
    1
    1
    1
    1
    1
    1
    1
    1
    1
    1
    1
    1
    1
    1
    1
    1
    1
    1
    1
    1
    1
    1
    1
    1
    1
    1
    1
    1
    1
    1
    1
    1
    1
    1
    1
    1
    1
    1
    1
    1
    1
    1
    1
    1
    1
    1
    1
    1
    1
    1
    1
    1
    1
    1
    1
    1
    1
    1
    1
    1
    1
    1
    1
    1
    1
    1
    1
    1
    1
    1
    1
    1
    1
    1
    1
    1
    1
    1
    1
    1
    1
    1
    1
    1
    1
    1
    1
    1
    1
    1
    1
    1
    1
    1
    1
    1
    1
    1
    1
    1
    1
    1
    1
    1
    1
    1
    1
    1
    1
    1
    1
    1
    1
    1
    1
    1
    1
    1
    1
    1
    1
    1
    1
    1
    1
    1
    1
    1
    1
    1
    1
    1
    1
    1
    1
    1
    1
    1
    1
    1
    1
    1
    1
    1
    1
    1
    1
    1
    1
    1
    1
    1
    1
    1
    1
    1
    1
    1
    1
    1
    1
    1
    1
    1
    1
    1
    1
    1
    1
    1
    1
    1
    1
    1
    1
    1
    1
    1
    1
    1
    1
    1
    1
    1
    1
    1
    1
    1
    1
    1
    1
    1
    1
    1
    1
    1
    1
    1
    1
    1
    1
    1
    1
    1
    1
    1
    1
    1
    1
    1
    1
    1
    1
    1
    1
    1
    1
    1
    1
    1
    1
    1
    1
    1
    1
    1
    1
    1
    1
    1
    1
    1
    1
    1
    1
    1
    1
    1
    1
    1
    1
    1
    1
    1
    1
    1
    1
    1
    1
    1
    1
    1
    1
    1
    1
    1
    1
    1
    1
    1
    1
    1
    1
    1
    1
    1
    1
    1
    1
    1
    1
    1
    1
    1
    1
    1
    1
    1
    1
    1
    1
    1
    1
    1
    1
    1
    1
    1
    1
    1
    1
    1
    1
    1
    1
    1
    1
    1
    1
    1
    1
    1
    1
    1
    1
    1
    1
    1
    1
    1
    1
    1
    1
    1
    1
    1
    1
    1
    1
    1
    1
    1
    1
    1
    1
    1
    1
    1
    1
    1
    1
    1
    1
    1
    1
    1
    1
    1
    1
    1
    1
    1
    1
    1
    1
    1
    1
    1
    1
    1
    1
    1
    1
    1
    1
    1
    1
    1
    1
    1
    1
    1
    1
    1
    1
    1
    1
    1
    1
    1
    1
    1
    1
    1
    1
    1
    1
    1
    1
    1
    1
    1
    1
    1
    1
    1
    1
    1
    1
    1
    1
    1
    1
    1
    1
    1
    1
    1
    1
    1
    1
    1
    1
    1
    1
    1
    1
    1
    1
    1
    1
    1
    1
    1
    1
    1
    1
    1
    1
    1
    1
    1
    1
    1
    1
    1
    1
    1
    1
    1
    1
    1
    1
    1
    1
    1
    1
    1
    1
    1
    1
    1
    1
    1
    1
    1
    1
    1
    1
    1
    1
    1
    1
    1
    1
    1
    1
    1
    1
    1
    1
    1
    1
    1
    1
    1
    1
    1
    1
    1
    1
    1
    1
    1
    1
    1
    1
    1
    1
    1
    1
    1
    1
    1
    1
    1
    1
    1
    1
    1
    1
    1
    1
    1
    1
    1
    1
    1
    1
    1
    1
    1
    1
    1
    1
    1
    1
    1
    1
    1
    1
    1
    1
    1
    1
    1
    1
    1
    1
    1
    1
    1
    1
    1
    1
    1
    1
    1
    1
    1
    1
    1
    1
    1
    1
    1
    1
    1
    1
    1
    1
    1
    1
    1
    1
    1
    1
    1
    1
    1
    1
    1
    1
    1
    1
    1
    1
    1
    1
    1
    1
    1
    1
    1
    1
    1
    1
    1
    1
    1
    1
    1
    1
    1
    1
    1
    1
    1
    1
    1
    1
    1
    1
    1
    1
    1
    1
    1
    1
    1
    1
    1
    1
    1
    1
    1
    1
    1
    1
    1
    1
    1
    1
    1
    1
    1
    1
    1
    1
    1
    1
    1
    1
    1
    1
    1
    1
    1
    1
    1
    1
    1
    1
    1
    1
    1
    1
    1
    1
    1
    1
    1
    1
    1
    1
    1
    1
    1
    1
    1
    1
    1
    1
    1
    1
    1
    1
    1
    1
    1
    1
    1
    1
    1
    1
    1
    1
    1
    1
    1
    1
    1
    1
    1
    1
    1
    1
    1
    1
    1
    1
    1
    1
    1
    1
    1
    1
    1
    1
    1
    1
    1
    1
    1
    1
    1
    1
    1
    1
    1
    1
    1
    1
    1
    1
    1
    1
    1
    1
    1
    1
    1
    1
    1
    1
    1
    1
    1
    1
    1
    1
    1
    1
    1
    1
    1
    1
    1
    1
    1
    1
    1
    1
    1
    1
    1
    1
    1
    1
    1
    1
    1
    1
    1
    1
    1
    1
    1
    1
    1
    1
    1
    1
    1
    1
    1
    1
    1
    1
    1
    1
    1
    1
    1
    1
    1
    1
    1
    1
    1
    1
    1
    1
    1
    1
    1
    1
    1
    1
    1
    1
    1
    1
    1
    1
    1
    1
    1
    1
    1
    1
    1
    1
    1
    1
    1
    1
    1
    1
    1
    1
    1
    1
    1
    1
    1
    1
    1
    1
    1
    1
    1
    1
    1
    1
    1
    1
    1
    1
    1
    1
    1
    1
    1
    1
    1
    1
    1
    1
    1
    1
    1
    1
    1
    1
    1
    1
    1
    1
    1
    1
    1
    1
    1
    1
    1
    1
    1
    1
    1
    1
    1
    1
    1
    1
    1
    1
    1
    1
    1
    1
    1
    1
    1
    1
    1
    1
    1
    1
    1
    1
    1
    1
    1
    1
    1
    1
    1
    1
    1
    1
    1
    1
    1
    1
    1
    1
    1
    1
    1
    1
    1
    1
    1
    1
    1
    1
    1
    1
    1
    1
    1
    1
    1
    1
    1
    1
    1
    1
    1
    1
    1
    1
    1
    1
    1
    1
    1
    1
    1
    1
    1
    1
    1
    1
    1
    1
    1
    1
    1
    1
    1
    1
    1
    1
    1
    1
    1
    1
    1
    1
    1
    1
    1
    1
    1
    1
    1
    1
    1
    1
    1
    1
    1
    1
    1
    1
    1
    1
    1
    1
    1
    1
    1
    1
    1
    1
    1
    1
    1
    1
    1
    1
    1
    1
    1
    1
    1
    1
    1
    1
    1
    1
    1
    1
    1
    1
    1
    1
    1
    1
    1
    1
    1
    1
    1
    1
    1
    1
    1
    1
    1
    1
    1
    1
    1
    1
    1
    1
    1
    1
    1
    1
    1
    1
    1
    1
    1
    1
    1
    1
    1
    1
    1
    1
    1
    1
    1
    1
    1
    1
    1
    1
    1
    1
    1
    1
    1
    1
    1
    1
    1
    1
    1
    1
    1
    1
    1
    1
    1
    1
    1
    1
    1
    1
    1
    1
    1
    1
    1
    1
    1
    1
    1
    1
    1
    1
    1
    1
    1
    1
    1
    1
    1
    1
    1
    1
    1
    1
    1
    1
    1
    1
    1
    1
    1
    1
    1
    1
    1
    1
    1
    1
    1
    1
    1
    1
    1
    1
    1
    1
    1
    1
    1
    1
    1
    1
    1
    1
    1
    1
    1
    1
    1
    1
    1
    1
    1
    1
    1
    1
    1
    1
    1
    1
    1
    1
    1
    1
    1
    1
    1
    1
    1
    1
    1
    1
    1
    1
    1
    1
    1
    1
    1
    1
    1
    1
    1
    1
    1
    1
    1
    1
    1
    1
    1
    1
    1
    1
    1
    1
    1
    1
    1
    1
    1
    1
    1
    1
    1
    1
    1
    1
    1
    1
    1
    1
    1
    1
    1
    1
    1
    1
    1
    1
    1
    1
    1
    1
    1
    1
    1
    1
    1
    1
    1
    1
    1
    1
    1
    1
    1
    1
    1
    1
    1
    1
    1
    1
    1
    1
    1
    1
    1
    1
    1
    1
    1
    1
    1
    1
    1
    1
    1
    1
    1
    1
    1
    1
    1
    1
    1
    1
    1
    1
    1
    1
    1
    1
    1
    1
    1
    1
    1
    1
    1
    1
    1
    1
    1
    1
    1
    1
    1
    1
    1
    1
    1
    1
    1
    1
    1
    1
    1
    1
    1
    1
    1
    1
    1
    1
    1
    1
    1
    1
    1
    1
    1
    1
    1
    1
    1
    1
    1
    1
    1
    1
    1
    1
    1
    1
    1
    1
    1
    1
    1
    1
    1
    1
    1
    1
    1
    1
    1
    1
    1
    1
    1
    1
    1
    1
    1
    1
    1
    1
    1
    1
    1
    1
    1
    1
    1
    1
    1
    1
    1
    1
    1
    1
    1
    1
    1
    1
    1
    1
    1
    1
    1
    1
    1
    1
    1
    1
    1
    1
    1
    1
    1
    1
    1
    1
    1
    1
    1
    1
    1
    1
    1
    1
    1
    1
    1
    1
    1
    1
    1
    1
    1
    1
    1
    1
    1
    1
    1
    1
    1
    1
    1
    1
    1
    1
    1
    1
    1
    1
    1
    1
    1
    1
    1
    1
    1
    1
    1
    1
    1
    1
    1
    1
    1
    1
    1
    1
    1
    1
    1
    1
    1
    1
    1
    1
    1
    1
    1
    1
    1
    1
    1
    1
    1
    1
    1
    1
    1
    1
    1
    1
    1
    1
    1
    1
    1
    1
    1
    1
    1
    1
    1
    1
    1
    1
    1
    1
    1
    1
    1
    1
    1
    1
    1
    1
    1
    1
    1
    1
    1
    1
    1
    1
    1
    1
    1
    1
    1
    1
    1
    1
    1
    1
    1
    1
    1
    1
    1
    1
    1
    1
    1
    1
    1
    1
    1
    1
    1
    1
    1
    1
    1
    1
    1
    1
    1
    1
    1
    1
    1
    1
    1
    1
    1
    1
    1
    1
    1
    1
    1
    1
    1
    1
    1
    1
    1
    1
    1
    1
    1
    1
    1
    1
    1
    1
    1
    1
    1
    1
    1
    1
    1
    1
    1
    1
    1
    1
    1
    1
    1
    1
    1
    1
    1
    1
    1
    1
    1
    1
    1
    1
    1
    1
    1
    1
    1
    1
    1
    1
    1
    1
    1
    1
    1
    1
    1
    1
    1
    1
    1
    1
    1
    1
    1
    1
    1
    1
    1
    1
    1
    1
    1
    1
    1
    1
    1
    1
    1
    1
    1
    1
    1
    1
    1
    1
    1
    1
    1
    1
    1
    1
    1
    1
    1
    1
    1
    1
    1
    1
    1
    1
    1
    1
    1
    1
    1
    1
    1
    1
    1
    1
    1
    1
    1
    1
    1
    1
    1
    1
    1
    1
    1
    1
    1
    1
    1
    1
    1
    1
    1
    1
    1
    1
    1
    1
    1
    1
    1
    1
    1
    1
    1
    1
    1
    1
    1
    1
    1
    1
    1
    1
    1
    1
    1
    1
    1
    1
    1
    1
    1
    1
    1
    1
    1
    1
    1
    1
    1
    1
    1
    1
    1
    1
    1
    1
    1
    1
    1
    1
    1
    1
    1
    1
    1
    1
    1
    1
    1
    1
    1
    1
    1
    1
    1
    1
    1
    1
    1
    1
    1
    1
    1
    1
    1
    1
    1
    1
    1
    1
    1
    1
    1
    1
    1
    1
    1
    1
    1
    1
    1
    1
    1
    1
    1
    1
    1
    1
    1
    1
    1
    1
    1
    1
    1
    1
    1
    1
    1
    1
    1
    1
    1
    1
    1
    1
    1
    1
    1
    1
    1
    1
    1
    1
    1
    1
    1
    1
    1
    1
    1
    1
    1
    1
    1
    1
    1
    1
    1
    1
    1
    1
    1
    1
    1
    1
    1
    1
    1
    1
    1
    1
    1
    1
    1
    1
    1
    1
    1
    1
    1
    1
    1
    1
    1
    1
    1
    1
    1
    1
    1
    1
    1
    1
    1
    1
    1
    1
    1
    1
    1
    1
    1
    1
    1
    1
    1
    1
    1
    1
    1
    1
    1
    1
    1
    1
    1
    1
    1
    1
    1
    1
    1
    1
    1
    1
    1
    1
    1
    1
    1
    1
    1
    1
    1
    1
    1
    1
    1
    1
    1
    1
    1
    1
    1
    1
    1
    1
    1
    1
    1
    1
    1
    1
    1
    1
    1
    1
    1
    1
    1
    1
    1
    1
    1
    1
    1
    1
    1
    1
    1
    1
    1
    1
    1
    1
    1
    1
    1
    1
    1
    1
    1
    1
    1
    1
    1
    1
    1
    1
    1
    1
    1
    1
    1
    1
    1
    1
    1
    1
    1
    1
    1
    1
    1
    1
    1
    1
    1
    1
    1
    1
    1
    1
    1
    1
    1
    1
    1
    1
    1
    1
    1
    1
    1
    1
    1
    1
    1
    1
    1
    1
    1
    1
    1
    1
    1
    1
    1
    1
    1
    1
    1
    1
    1
    1
    1
    1
    1
    1
    1
    1
    1
    1
    1
    1
    1
    1
    1
    1
    1
    1
    1
    1
    1
    1
    1
    1
    1
    1
    1
    1
    1
    1
    1
    1
    1
    1
    1
    1
    1
    1
    1
    1
    1
    1
    1
    1
    1
    1
    1
    1
    1
    1
    1
    1
    1
    1
    1
    1
    1
    1
    1
    1
    1
    1
    1
    1
    1
    1
    1
    1
    1
    1
    1
    1
    1
    1
    1
    1
    1
    1
    1
    1
    1
    1
    1
    1
    1
    1
    1
    1
    1
    1
    1
    1
    1
    1
    1
    1
    1
    1
    1
    1
    1
    1
    1
    1
    1
    1
    1
    1
    1
    1
    1
    1
    1
    1
    1
    1
    1
    1
    1
    1
    1
    1
    1
    1
    1
    1
    1
    1
    1
    1
    1
    1
    1
    1
    1
    1
    1
    1
    1
    1
    1
    1
    1
    1
    1
    1
    1
    1
    1
    1
    1
    1
    1
    1
    1
    1
    1
    1
    1
    1
    1
    1
    1
    1
    1
    1
    1
    1
    1
    1
    1
    1
    1
    1
    1
    1
    1
    1
    1
    1
    1
    1
    1
    1
    1
    1
    1
    1
    1
    1
    1
    1
    1
    1
    1
    1
    1
    1
    1
    1
    1
    1
    1
    1
    1
    1
    1
    1
    1
    1
    1
    1
    1
    1
    1
    1
    1
    1
    1
    1
    1
    1
    1
    1
    1
    1
    1
    1
    1
    1
    1
    1
    1
    1
    1
    1
    1
    1
    1
    1
    1
    1
    1
    1
    1
    1
    1
    1
    1
    1
    1
    1
    1
    1
    1
    1
    1
    1
    1
    1
    1
    1
    1
    1
    1
    1
    1
    1
    1
    1
    1
    1
    1
    1
    1
    1
    1
    1
    1
    1
    1
    1
    1
    1
    1
    1
    1
    1
    1
    1
    1
    1
    1
    1
    1
    1
    1
    1
    1
    1
    1
    1
    1
    1
    1
    1
    1
    1
    1
    1
    1
    1
    1
    1
    1
    1
    1
    1
    1
    1
    1
    1
    1
    1
    1
    1
    1
    1
    1
    1
    1
    1
    1
    1
    1
    1
    1
    1
    1
    1
    1
    1
    1
    1
    1
    1
    1
    1
    1
    1
    1
    1
    1
    1
    1
    1
    1
    1
    1
    1
    1
    1
    1
    1
    1
    1
    1
    1
    1
    1
    1
    1
    1
    1
    1
    1
    1
    1
    1
    1
    1
    1
    1
    1
    1
    1
    1
    1
    1
    1
    1
    1
    1
    1
    1
    1
    1
    1
    1
    1
    1
    1
    1
    1
    1
    1
    1
    1
    1
    1
    1
    1
    1
    1
    1
    1
    1
    1
    1
    1
    1
    1
    1
    1
    1
    1
    1
    1
    1
    1
    1
    1
    1
    1
    1
    1
    1
    1
    1
    1
    1
    1
    1
    1
    1
    1
    1
    1
    1
    1
    1
    1
    1
    1
    1
    1
    1
    1
    1
    1
    1
    1
    1
    1
    1
    1
    1
    1
    1
    1
    1
    1
    1
    1
    1
    1
    1
    1
    1
    1
    1
    1
    1
    1
    1
    1
    1
    1
    1
    1
    1
    1
    1
    1
    1
    1
    1
    1
    1
    1
    1
    1
    1
    1
    1
    1
    1
    1
    1
    1
    1
    1
    1
    1
    1
    1
    1
    1
    1
    1
    1
    1
    1
    1
    1
    1
    1
    1
    1
    1
    1
    1
    1
    1
    1
    1
    1
    1
    1
    1
    1
    1
    1
    1
    1
    1
    1
    1
    1
    1
    1
    1
    1
    1
    1
    1
    1
    1
    1
    1
    1
    1
    1
    1
    1
    1
    1
    1
    1
    1
    1
    1
    1
    1
    1
    1
    1
    1
    1
    1
    1
    1
    1
    1
    1
    1
    1
    1
    1
    1
    1
    1
    1
    1
    1
    1
    1
    1
    1
    1
    1
    1
    1
    1
    1
    1
    1
    1
    1
    1
    1
    1
    1
    1
    1
    1
    1
    1
    1
    1
    1
    1
    1
    1
    1
    1
    1
    1
    1
    1
    1
    1
    1
    1
    1
    1
    1
    1
    1
    1
    1
    1
    1
    1
    1
    1
    1
    1
    1
    1
    1
    1
    1
    1
    1
    1
    1
    1
    1
    1
    1
    1
    1
    1
    1
    1
    1
    1
    1
    1
    1
    1
    1
    1
    1
    1
    1
    1
    1
    1
    1
    1
    1
    1
    1
    1
    1
    1
    1
    1
    1
    1
    1
    1
    1
    1
    1
    1
    1
    1
    1
    1
    1
    1
    1
    1
    1
    1
    1
    1
    1
    1
    1
    1
    1
    1
    1
    1
    1
    1
    1
    1
    1
    1
    1
    1
    1
    1
    1
    1
    1
    1
    1
    1
    1
    1
    1
    1
    1
    1
    1
    1
    1
    1
    1
    1
    1
    1
    1
    1
    1
    1
    1
    1
    1
    1
    1
    1
    1
    1
    1
    1
    1
    1
    1
    1
    1
    1
    1
    1
    1
    1
    1
    1
    1
    1
    1
    1
    1
    1
    1
    1
    1
    1
    1
    1
    1
    1
    1
    1
    1
    1
    1
    1
    1
    1
    1
    1
    1
    1
    1
    1
    1
    1
    1
    1
    1
    1
    1
    1
    1
    1
    1
    1
    1
    1
    1
    1
    1
    1
    1
    1
    1
    1
    1
    1
    1
    1
    1
    1
    1
    1
    1
    1
    1
    1
    1
    1
    1
    1
    1
    1
    1
    1
    1
    1
    1
    1
    1
    1
    1
    1
    1
    1
    1
    1
    1
    1
    1
    1
    1
    1
    1
    1
    1
    1
    1
    1
    1
    1
    1
    1
    1
    1
    1
    1
    1
    1
    1
    1
    1
    1
    1
    1
    1
    1
    1
    1
    1
    1
    1
    1
    1
    1
    1
    1
    1
SCALARS element_id INT     1
LOOKUP_TABLE default
    1
    2
    3
    4
    5
    6
    7
    8
    9
   10
   11
   12
   13
   14
   15
   16
   17
   18
   19
   20
   21
   22
   23
   24
   25
   26
   27
   28
   29
   30
   31
   32
   33
   34
   35
   36
   37
   38
   39
   40
   41
   42
   43
   44
   45
   46
   47
   48
   49
   50
   51
   52
   53
   54
   55
   56
   57
   58
   59
   60
   61
   62
   63
   64
   65
   66
   67
   68
   69
   70
   71
   72
   73
   74
   75
   76
   77
   78
   79
   80
   81
   82
   83
   84
   85
   86
   87
   88
   89
   90
   91
   92
   93
   94
   95
   96
   97
   98
   99
  100
  101
  102
  103
  104
  105
  106
  107
  108
  109
  110
  111
  112
  113
  114
  115
  116
  117
  118
  119
  120
  121
  122
  123
  124
  125
  126
  127
  128
  129
  130
  131
  132
  133
  134
  135
  136
  137
  138
  139
  140
  141
  142
  143
  144
  145
  146
  147
  148
  149
  150
  151
  152
  153
  154
  155
  156
  157
  158
  159
  160
  161
  162
  163
  164
  165
  166
  167
  168
  169
  170
  171
  172
  173
  174
  175
  176
  177
  178
  179
  180
  181
  182
  183
  184
  185
  186
  187
  188
  189
  190
  191
  192
  193
  194
  195
  196
  197
  198
  199
  200
  201
  202
  203
  204
  205
  206
  207
  208
  209
  210
  211
  212
  213
  214
  215
  216
  217
  218
  219
  220
  221
  222
  223
  224
  225
  226
  227
  228
  229
  230
  231
  232
  233
  234
  235
  236
  237
  238
  239
  240
  241
  242
  243
  244
  245
  246
  247
  248
  249
  250
  251
  252
  253
  254
  255
  256
  257
  258
  259
  260
  261
  262
  263
  264
  265
  266
  267
  268
  269
  270
  271
  272
  273
  274
  275
  276
  277
  278
  279
  280
  281
  282
  283
  284
  285
  286
  287
  288
  289
  290
  291
  292
  293
  294
  295
  296
  297
  298
  299
  300
  301
  302
  303
  304
  305
  306
  307
  308
  309
  310
  311
  312
  313
  314
  315
  316
  317
  318
  319
  320
  321
  322
  323
  324
  325
  326
  327
  328
  329
  330
  331
  332
  333
  334
  335
  336
  337
  338
  339
  340
  341
  342
  343
  344
  345
  346
  347
  348
  349
  350
  351
  352
  353
  354
  355
  356
  357
  358
  359
  360
  361
  362
  363
  364
  365
  366
  367
  368
  369
  370
  371
  372
  373
  374
  375
  376
  377
  378
  379
  380
  381
  382
  383
  384
  385
  386
  387
  388
  389
  390
  391
  392
  393
  394
  395
  396
  397
  398
  399
  400
  401
  402
  403
  404
  405
  406
  407
  408
  409
  410
  411
  412
  413
  414
  415
  416
  417
  418
  419
  420
  421
  422
  423
  424
  425
  426
  427
  428
  429
  430
  431
  432
  433
  434
  435
  436
  437
  438
  439
  440
  441
  442
  443
  444
  445
  446
  447
  448
  449
  450
  451
  452
  453
  454
  455
  456
  457
  458
  459
  460
  461
  462
  463
  464
  465
  466
  467
  468
  469
  470
  471
  472
  473
  474
  475
  476
  477
  478
  479
  480
  481
  482
  483
  484
  485
  486
  487
  488
  489
  490
  491
  492
  493
  494
  495
  496
  497
  498
  499
  500
  501
  502
  503
  504
  505
  506
  507
  508
  509
  510
  511
  512
  513
  514
  515
  516
  517
  518
  519
  520
  521
  522
  523
  524
  525
  526
  527
  528
  529
  530
  531
  532
  533
  534
  535
  536
  537
  538
  539
  540
  541
  542
  543
  544
  545
  546
  547
  548
  549
  550
  551
  552
  553
  554
  555
  556
  557
  558
  559
  560
  561
  562
  563
  564
  565
  566
  567
  568
  569
  570
  571
  572
  573
  574
  575
  576
  577
  578
  579
  580
  581
  582
  583
  584
  585
  586
  587
  588
  589
  590
  591
  592
  593
  594
  595
  596
  597
  598
  599
  600
  601
  602
  603
  604
  605
  606
  607
  608
  609
  610
  611
  612
  613
  614
  615
  616
  617
  618
  619
  620
  621
  622
  623
  624
  625
  626
  627
  628
  629
  630
  631
  632
  633
  634
  635
  636
  637
  638
  639
  640
  641
  642
  643
  644
  645
  646
  647
  648
  649
  650
  651
  652
  653
  654
  655
  656
  657
  658
  659
  660
  661
  662
  663
  664
  665
  666
  667
  668
  669
  670
  671
  672
  673
  674
  675
  676
  677
  678
  679
  680
  681
  682
  683
  684
  685
  686
  687
  688
  689
  690
  691
  692
  693
  694
  695
  696
  697
  698
  699
  700
  701
  702
  703
  704
  705
  706
  707
  708
  709
  710
  711
  712
  713
  714
  715
  716
  717
  718
  719
  720
  721
  722
  723
  724
  725
  726
  727
  728
  729
  730
  731
  732
  733
  734
  735
  736
  737
  738
  739
  740
  741
  742
  743
  744
  745
  746
  747
  748
  749
  750
  751
  752
  753
  754
  755
  756
  757
  758
  759
  760
  761
  762
  763
  764
  765
  766
  767
  768
  769
  770
  771
  772
  773
  774
  775
  776
  777
  778
  779
  780
  781
  782
  783
  784
  785
  786
  787
  788
  789
  790
  791
  792
  793
  794
  795
  796
  797
  798
  799
  800
  801
  802
  803
  804
  805
  806
  807
  808
  809
  810
  811
  812
  813
  814
  815
  816
  817
  818
  819
  820
  821
  822
  823
  824
  825
  826
  827
  828
  829
  830
  831
  832
  833
  834
  835
  836
  837
  838
  839
  840
  841
  842
  843
  844
  845
  846
  847
  848
  849
  850
  851
  852
  853
  854
  855
  856
  857
  858
  859
  860
  861
  862
  863
  864
  865
  866
  867
  868
  869
  870
  871
  872
  873
  874
  875
  876
  877
  878
  879
  880
  881
  882
  883
  884
  885
  886
  887
  888
  889
  890
  891
  892
  893
  894
  895
  896
  897
  898
  899
  900
  901
  902
  903
  904
  905
  906
  907
  908
  909
  910
  911
  912
  913
  914
  915
  916
  917
  918
  919
  920
  921
  922
  923
  924
  925
  926
  927
  928
  929
  930
  931
  932
  933
  934
  935
  936
  937
  938
  939
  940
  941
  942
  943
  944
  945
  946
  947
  948
  949
  950
  951
  952
  953
  954
  955
  956
  957
  958
  959
  960
  961
  962
  963
  964
  965
  966
  967
  968
  969
  970
  971
  972
  973
  974
  975
  976
  977
  978
  979
  980
  981
  982
  983
  984
  985
  986
  987
  988
  989
  990
  991
  992
  993
  994
  995
  996
  997
  998
  999
 1000
 1001
 1002
 1003
 1004
 1005
 1006
 1007
 1008
 1009
 1010
 1011
 1012
 1013
 1014
 1015
 1016
 1017
 1018
 1019
 1020
 1021
 1022
 1023
 1024
 1025
 1026
 1027
 1028
 1029
 1030
 1031
 1032
 1033
 1034
 1035
 1036
 1037
 1038
 1039
 1040
 1041
 1042
 1043
 1044
 1045
 1046
 1047
 1048
 1049
 1050
 1051
 1052
 1053
 1054
 1055
 1056
 1057
 1058
 1059
 1060
 1061
 1062
 1063
 1064
 1065
 1066
 1067
 1068
 1069
 1070
 1071
 1072
 1073
 1074
 1075
 1076
 1077
 1078
 1079
 1080
 1081
 1082
 1083
 1084
 1085
 1086
 1087
 1088
 1089
 1090
 1091
 1092
 1093
 1094
 1095
 1096
 1097
 1098
 1099
 1100
 1101
 1102
 1103
 1104
 1105
 1106
 1107
 1108
 1109
 1110
 1111
 1112
 1113
 1114
 1115
 1116
 1117
 1118
 1119
 1120
 1121
 1122
 1123
 1124
 1125
 1126
 1127
 1128
 1129
 1130
 1131
 1132
 1133
 1134
 1135
 1136
 1137
 1138
 1139
 1140
 1141
 1142
 1143
 1144
 1145
 1146
 1147
 1148
 1149
 1150
 1151
 1152
 1153
 1154
 1155
 1156
 1157
 1158
 1159
 1160
 1161
 1162
 1163
 1164
 1165
 1166
 1167
 1168
 1169
 1170
 1171
 1172
 1173
 1174
 1175
 1176
 1177
 1178
 1179
 1180
 1181
 1182
 1183
 1184
 1185
 1186
 1187
 1188
 1189
 1190
 1191
 1192
 1193
 1194
 1195
 1196
 1197
 1198
 1199
 1200
 1201
 1202
 1203
 1204
 1205
 1206
 1207
 1208
 1209
 1210
 1211
 1212
 1213
 1214
 1215
 1216
 1217
 1218
 1219
 1220
 1221
 1222
 1223
 1224
 1225
 1226
 1227
 1228
 1229
 1230
 1231
 1232
 1233
 1234
 1235
 1236
 1237
 1238
 1239
 1240
 1241
 1242
 1243
 1244
 1245
 1246
 1247
 1248
 1249
 1250
 1251
 1252
 1253
 1254
 1255
 1256
 1257
 1258
 1259
 1260
 1261
 1262
 1263
 1264
 1265
 1266
 1267
 1268
 1269
 1270
 1271
 1272
 1273
 1274
 1275
 1276
 1277
 1278
 1279
 1280
 1281
 1282
 1283
 1284
 1285
 1286
 1287
 1288
 1289
 1290
 1291
 1292
 1293
 1294
 1295
 1296
 1297
 1298
 1299
 1300
 1301
 1302
 1303
 1304
 1305
 1306
 1307
 1308
 1309
 1310
 1311
 1312
 1313
 1314
 1315
 1316
 1317
 1318
 1319
 1320
 1321
 1322
 1323
 1324
 1325
 1326
 1327
 1328
 1329
 1330
 1331
 1332
 1333
 1334
 1335
 1336
 1337
 1338
 1339
 1340
 1341
 1342
 1343
 1344
 1345
 1346
 1347
 1348
 1349
 1350
 1351
 1352
 1353
 1354
 1355
 1356
 1357
 1358
 1359
 1360
 1361
 1362
 1363
 1364
 1365
 1366
 1367
 1368
 1369
 1370
 1371
 1372
 1373
 1374
 1375
 1376
 1377
 1378
 1379
 1380
 1381
 1382
 1383
 1384
 1385
 1386
 1387
 1388
 1389
 1390
 1391
 1392
 1393
 1394
 1395
 1396
 1397
 1398
 1399
 1400
 1401
 1402
 1403
 1404
 1405
 1406
 1407
 1408
 1409
 1410
 1411
 1412
 1413
 1414
 1415
 1416
 1417
 1418
 1419
 1420
 1421
 1422
 1423
 1424
 1425
 1426
 1427
 1428
 1429
 1430
 1431
 1432
 1433
 1434
 1435
 1436
 1437
 1438
 1439
 1440
 1441
 1442
 1443
 1444
 1445
 1446
 1447
 1448
 1449
 1450
 1451
 1452
 1453
 1454
 1455
 1456
 1457
 1458
 1459
 1460
 1461
 1462
 1463
 1464
 1465
 1466
 1467
 1468
 1469
 1470
 1471
 1472
 1473
 1474
 1475
 1476
 1477
 1478
 1479
 1480
 1481
 1482
 1483
 1484
 1485
 1486
 1487
 1488
 1489
 1490
 1491
 1492
 1493
 1494
 1495
 1496
 1497
 1498
 1499
 1500
 1501
 1502
 1503
 1504
 1505
 1506
 1507
 1508
 1509
 1510
 1511
 1512
 1513
 1514
 1515
 1516
 1517
 1518
 1519
 1520
 1521
 1522
 1523
 1524
 1525
 1526
 1527
 1528
 1529
 1530
 1531
 1532
 1533
 1534
 1535
 1536
 1537
 1538
 1539
 1540
 1541
 1542
 1543
 1544
 1545
 1546
 1547
 1548
 1549
 1550
 1551
 1552
 1553
 1554
 1555
 1556
 1557
 1558
 1559
 1560
 1561
 1562
 1563
 1564
 1565
 1566
 1567
 1568
 1569
 1570
 1571
 1572
 1573
 1574
 1575
 1576
 1577
 1578
 1579
 1580
 1581
 1582
 1583
 1584
 1585
 1586
 1587
 1588
 1589
 1590
 1591
 1592
 1593
 1594
 1595
 1596
 1597
 1598
 1599
 1600
 1601
 1602
 1603
 1604
 1605
 1606
 1607
 1608
 1609
 1610
 1611
 1612
 1613
 1614
 1615
 1616
 1617
 1618
 1619
 1620
 1621
 1622
 1623
 1624
 1625
 1626
 1627
 1628
 1629
 1630
 1631
 1632
 1633
 1634
 1635
 1636
 1637
 1638
 1639
 1640
 1641
 1642
 1643
 1644
 1645
 1646
 1647
 1648
 1649
 1650
 1651
 1652
 1653
 1654
 1655
 1656
 1657
 1658
 1659
 1660
 1661
 1662
 1663
 1664
 1665
 1666
 1667
 1668
 1669
 1670
 1671
 1672
 1673
 1674
 1675
 1676
 1677
 1678
 1679
 1680
 1681
 1682
 1683
 1684
 1685
 1686
 1687
 1688
 1689
 1690
 1691
 1692
 1693
 1694
 1695
 1696
 1697
 1698
 1699
 1700
 1701
 1702
 1703
 1704
 1705
 1706
 1707
 1708
 1709
 1710
 1711
 1712
 1713
 1714
 1715
 1716
 1717
 1718
 1719
 1720
 1721
 1722
 1723
 1724
 1725
 1726
 1727
 1728
 1729
 1730
 1731
 1732
 1733
 1734
 1735
 1736
 1737
 1738
 1739
 1740
 1741
 1742
 1743
 1744
 1745
 1746
 1747
 1748
 1749
 1750
 1751
 1752
 1753
 1754
 1755
 1756
 1757
 1758
 1759
 1760
 1761
 1762
 1763
 1764
 1765
 1766
 1767
 1768
 1769
 1770
 1771
 1772
 1773
 1774
 1775
 1776
 1777
 1778
 1779
 1780
 1781
 1782
 1783
 1784
 1785
 1786
 1787
 1788
 1789
 1790
 1791
 1792
 1793
 1794
 1795
 1796
 1797
 1798
 1799
 1800
 1801
 1802
 1803
 1804
 1805
 1806
 1807
 1808
 1809
 1810
 1811
 1812
 1813
 1814
 1815
 1816
 1817
 1818
 1819
 1820
 1821
 1822
 1823
 1824
 1825
 1826
 1827
 1828
 1829
 1830
 1831
 1832
 1833
 1834
 1835
 1836
 1837
 1838
 1839
 1840
 1841
 1842
 1843
 1844
 1845
 1846
 1847
 1848
 1849
 1850
 1851
 1852
 1853
 1854
 1855
 1856
 1857
 1858
 1859
 1860
 1861
 1862
 1863
 1864
 1865
 1866
 1867
 1868
 1869
 1870
 1871
 1872
 1873
 1874
 1875
 1876
 1877
 1878
 1879
 1880
 1881
 1882
 1883
 1884
 1885
 1886
 1887
 1888
 1889
 1890
 1891
 1892
 1893
 1894
 1895
 1896
 1897
 1898
 1899
 1900
 1901
 1902
 1903
 1904
 1905
 1906
 1907
 1908
 1909
 1910
 1911
 1912
 1913
 1914
 1915
 1916
 1917
 1918
 1919
 1920
 1921
 1922
 1923
 1924
 1925
 1926
 1927
 1928
 1929
 1930
 1931
 1932
 1933
 1934
 1935
 1936
 1937
 1938
 1939
 1940
 1941
 1942
 1943
 1944
 1945
 1946
 1947
 1948
 1949
 1950
 1951
 1952
 1953
 1954
 1955
 1956
 1957
 1958
 1959
 1960
 1961
 1962
 1963
 1964
 1965
 1966
 1967
 1968
 1969
 1970
 1971
 1972
 1973
 1974
 1975
 1976
 1977
 1978
 1979
 1980
 1981
 1982
 1983
 1984
 1985
 1986
 1987
 1988
 1989
 1990
 1991
 1992
 1993
 1994
 1995
 1996
 1997
 1998
 1999
 2000
 2001
 2002
 2003
 2004
 2005
 2006
 2007
 2008
 2009
 2010
 2011
 2012
 2013
 2014
 2015
 2016
 2017
 2018
 2019
 2020
 2021
 2022
 2023
 2024
 2025
 2026
 2027
 2028
 2029
 2030
 2031
 2032
 2033
 2034
 2035
 2036
 2037
 2038
 2039
 2040
 2041
 2042
 2043
 2044
 2045
 2046
 2047
 2048
 2049
 2050
 2051
 2052
 2053
 2054
 2055
 2056
 2057
 2058
 2059
 2060
 2061
 2062
 2063
 2064
 2065
 2066
 2067
 2068
 2069
 2070
 2071
 2072
 2073
 2074
 2075
 2076
 2077
 2078
 2079
 2080
 2081
 2082
 2083
 2084
 2085
 2086
 2087
 2088
 2089
 2090
 2091
 2092
 2093
 2094
 2095
 2096
 2097
 2098
 2099
 2100
 2101
 2102
 2103
 2104
 2105
 2106
 2107
 2108
 2109
 2110
 2111
 2112
 2113
 2114
 2115
 2116
 2117
 2118
 2119
 2120
 2121
 2122
 2123
 2124
 2125
 2126
 2127
 2128
 2129
 2130
 2131
 2132
 2133
 2134
 2135
 2136
 2137
 2138
 2139
 2140
 2141
 2142
 2143
 2144
 2145
 2146
 2147
 2148
 2149
 2150
 2151
 2152
 2153
 2154
 2155
 2156
 2157
 2158
 2159
 2160
 2161
 2162
 2163
 2164
 2165
 2166
 2167
 2168
 2169
 2170
 2171
 2172
 2173
 2174
 2175
 2176
 2177
 2178
 2179
 2180
 2181
 2182
 2183
 2184
 2185
 2186
 2187
 2188
 2189
 2190
 2191
 2192
 2193
 2194
 2195
 2196
 2197
 2198
 2199
 2200
 2201
 2202
 2203
 2204
 2205
 2206
 2207
 2208
 2209
 2210
 2211
 2212
 2213
 2214
 2215
 2216
 2217
 2218
 2219
 2220
 2221
 2222
 2223
 2224
 2225
 2226
 2227
 2228
 2229
 2230
 2231
 2232
 2233
 2234
 2235
 2236
 2237
 2238
 2239
 2240
 2241
 2242
 2243
 2244
 2245
 2246
 2247
 2248
 2249
 2250
 2251
 2252
 2253
 2254
 2255
 2256
 2257
 2258
 2259
 2260
 2261
 2262
 2263
 2264
 2265
 2266
 2267
 2268
 2269
 2270
 2271
 2272
 2273
 2274
 2275
 2276
 2277
 2278
 2279
 2280
 2281
 2282
 2283
 2284
 2285
 2286
 2287
 2288
 2289
 2290
 2291
 2292
 2293
 2294
 2295
 2296
 2297
 2298
 2299
 2300
 2301
 2302
 2303
 2304
 2305
 2306
 2307
 2308
 2309
 2310
 2311
 2312
 2313
 2314
 2315
 2316
 2317
 2318
 2319
 2320
 2321
 2322
 2323
 2324
 2325
 2326
 2327
 2328
 2329
 2330
 2331
 2332
 2333
 2334
 2335
 2336
 2337
 2338
 2339
 2340
 2341
 2342
 2343
 2344
 2345
 2346
 2347
 2348
 2349
 2350
 2351
 2352
 2353
 2354
 2355
 2356
 2357
 2358
 2359
 2360
 2361
 2362
 2363
 2364
 2365
 2366
 2367
 2368
 2369
 2370
 2371
 2372
 2373
 2374
 2375
 2376
 2377
 2378
 2379
 2380
 2381
 2382
 2383
 2384
 2385
 2386
 2387
 2388
 2389
 2390
 2391
 2392
 2393
 2394
 2395
 2396
 2397
 2398
 2399
 2400
 2401
 2402
 2403
 2404
 2405
 2406
 2407
 2408
 2409
 2410
 2411
 2412
 2413
 2414
 2415
 2416
 2417
 2418
 2419
 2420
 2421
 2422
 2423
 2424
 2425
 2426
 2427
 2428
 2429
 2430
 2431
 2432
 2433
 2434
 2435
 2436
 2437
 2438
 2439
 2440
 2441
 2442
 2443
 2444
 2445
 2446
 2447
 2448
 2449
 2450
 2451
 2452
 2453
 2454
 2455
 2456
 2457
 2458
 2459
 2460
 2461
 2462
 2463
 2464
 2465
 2466
 2467
 2468
 2469
 2470
 2471
 2472
 2473
 2474
 2475
 2476
 2477
 2478
 2479
 2480
 2481
 2482
 2483
 2484
 2485
 2486
 2487
 2488
 2489
 2490
 2491
 2492
 2493
 2494
 2495
 2496
 2497
 2498
 2499
 2500
 2501
 2502
 2503
 2504
 2505
 2506
 2507
 2508
 2509
 2510
 2511
 2512
 2513
 2514
 2515
 2516
 2517
 2518
 2519
 2520
 2521
 2522
 2523
 2524
 2525
 2526
 2527
 2528
 2529
 2530
 2531
 2532
 2533
 2534
 2535
 2536
 2537
 2538
 2539
 2540
 2541
 2542
 2543
 2544
 2545
 2546
 2547
 2548
 2549
 2550
 2551
 2552
 2553
 2554
 2555
 2556
 2557
 2558
 2559
 2560
 2561
 2562
 2563
 2564
 2565
 2566
 2567
 2568
 2569
 2570
 2571
 2572
 2573
 2574
 2575
 2576
 2577
 2578
 2579
 2580
 2581
 2582
 2583
 2584
 2585
 2586
 2587
 2588
 2589
 2590
 2591
 2592
 2593
 2594
 2595
 2596
 2597
 2598
 2599
 2600
 2601
 2602
 2603
 2604
 2605
 2606
 2607
 2608
 2609
 2610
 2611
 2612
 2613
 2614
 2615
 2616
 2617
 2618
 2619
 2620
 2621
 2622
 2623
 2624
 2625
 2626
 2627
 2628
 2629
 2630
 2631
 2632
 2633
 2634
 2635
 2636
 2637
 2638
 2639
 2640
 2641
 2642
 2643
 2644
 2645
 2646
 2647
 2648
 2649
 2650
 2651
 2652
 2653
 2654
 2655
 2656
 2657
 2658
 2659
 2660
 2661
 2662
 2663
 2664
 2665
 2666
 2667
 2668
 2669
 2670
 2671
 2672
 2673
 2674
 2675
 2676
 2677
 2678
 2679
 2680
 2681
 2682
 2683
 2684
 2685
 2686
 2687
 2688
 2689
 2690
 2691
 2692
 2693
 2694
 2695
 2696
 2697
 2698
 2699
 2700
 2701
 2702
 2703
 2704
 2705
 2706
 2707
 2708
 2709
 2710
 2711
 2712
 2713
 2714
 2715
 2716
 2717
 2718
 2719
 2720
 2721
 2722
 2723
 2724
 2725
 2726
 2727
 2728
 2729
 2730
 2731
 2732
 2733
 2734
 2735
 2736
 2737
 2738
 2739
 2740
 2741
 2742
 2743
 2744
 2745
 2746
 2747
 2748
 2749
 2750
 2751
 2752
 2753
 2754
 2755
 2756
 2757
 2758
 2759
 2760
 2761
 2762
 2763
 2764
 2765
 2766
 2767
 2768
 2769
 2770
 2771
 2772
 2773
 2774
 2775
 2776
 2777
 2778
 2779
 2780
 2781
 2782
 2783
 2784
 2785
 2786
 2787
 2788
 2789
 2790
 2791
 2792
 2793
 2794
 2795
 2796
 2797
 2798
 2799
 2800
 2801
 2802
 2803
 2804
 2805
 2806
 2807
 2808
 2809
 2810
 2811
 2812
 2813
 2814
 2815
 2816
 2817
 2818
 2819
 2820
 2821
 2822
 2823
 2824
 2825
 2826
 2827
 2828
 2829
 2830
 2831
 2832
 2833
 2834
 2835
 2836
 2837
 2838
 2839
 2840
 2841
 2842
 2843
 2844
 2845
 2846
 2847
 2848
 2849
 2850
 2851
 2852
 2853
 2854
 2855
 2856
 2857
 2858
 2859
 2860
 2861
 2862
 2863
 2864
 2865
 2866
 2867
 2868
 2869
 2870
 2871
 2872
 2873
 2874
 2875
 2876
 2877
 2878
 2879
 2880
 2881
 2882
 2883
 2884
 2885
 2886
 2887
 2888
 2889
 2890
 2891
 2892
 2893
 2894
 2895
 2896
 2897
 2898
 2899
 2900
 2901
 2902
 2903
 2904
 2905
 2906
 2907
 2908
 2909
 2910
 2911
 2912
 2913
 2914
 2915
 2916
 2917
 2918
 2919
 2920
 2921
 2922
 2923
 2924
 2925
 2926
 2927
 2928
 2929
 2930
 2931
 2932
 2933
 2934
 2935
 2936
 2937
 2938
 2939
 2940
 2941
 2942
 2943
 2944
 2945
 2946
 2947
 2948
 2949
 2950
 2951
 2952
 2953
 2954
 2955
 2956
 2957
 2958
 2959
 2960
 2961
 2962
 2963
 2964
 2965
 2966
 2967
 2968
 2969
 2970
 2971
 2972
 2973
 2974
 2975
 2976
 2977
 2978
 2979
 2980
 2981
 2982
 2983
 2984
 2985
 2986
 2987
 2988
 2989
 2990
 2991
 2992
 2993
 2994
 2995
 2996
 2997
 2998
 2999
 3000
 3001
 3002
 3003
 3004
 3005
 3006
 3007
 3008
 3009
 3010
 3011
 3012
 3013
 3014
 3015
 3016
 3017
 3018
 3019
 3020
 3021
 3022
 3023
 3024
 3025
 3026
 3027
 3028
 3029
 3030
 3031
 3032
 3033
 3034
 3035
 3036
 3037
 3038
 3039
 3040
 3041
 3042
 3043
 3044
 3045
 3046
 3047
 3048
 3049
 3050
 3051
 3052
 3053
 3054
 3055
 3056
 3057
 3058
 3059
 3060
 3061
 3062
 3063
 3064
 3065
 3066
 3067
 3068
 3069
 3070
 3071
 3072
 3073
 3074
 3075
 3076
 3077
 3078
 3079
 3080
 3081
 3082
 3083
 3084
 3085
 3086
 3087
 3088
 3089
 3090
 3091
 3092
 3093
 3094
 3095
 3096
 3097
 3098
 3099
 3100
 3101
 3102
 3103
 3104
 3105
 3106
 3107
 3108
 3109
 3110
 3111
 3112
 3113
 3114
 3115
 3116
 3117
 3118
 3119
 3120
 3121
 3122
 3123
 3124
 3125
 3126
 3127
 3128
 3129
 3130
 3131
 3132
 3133
 3134
 3135
 3136
 3137
 3138
 3139
 3140
 3141
 3142
 3143
 3144
 3145
 3146
 3147
 3148
 3149
 3150
 3151
 3152
 3153
 3154
 3155
 3156
 3157
 3158
 3159
 3160
 3161
 3162
 3163
 3164
 3165
 3166
 3167
 3168
 3169
 3170
 3171
 3172
 3173
 3174
 3175
 3176
 3177
 3178
 3179
 3180
 3181
 3182
 3183
 3184
 3185
 3186
 3187
 3188
 3189
 3190
 3191
 3192
 3193
 3194
 3195
 3196
 3197
 3198
 3199
 3200
 3201
 3202
 3203
 3204
 3205
 3206
 3207
 3208
 3209
 3210
 3211
 3212
 3213
 3214
 3215
 3216
 3217
 3218
 3219
 3220
 3221
 3222
 3223
 3224
 3225
 3226
 3227
 3228
 3229
 3230
 3231
 3232
 3233
 3234
 3235
 3236
 3237
 3238
 3239
 3240
 3241
 3242
 3243
 3244
 3245
 3246
 3247
 3248
 3249
 3250
 3251
 3252
 3253
 3254
 3255
 3256
 3257
 3258
 3259
 3260
 3261
 3262
 3263
 3264
 3265
 3266
 3267
 3268
 3269
 3270
 3271
 3272
 3273
 3274
 3275
 3276
 3277
 3278
 3279
 3280
 3281
 3282
 3283
 3284
 3285
 3286
 3287
 3288
 3289
 3290
 3291
 3292
 3293
 3294
 3295
 3296
 3297
 3298
 3299
 3300
 3301
 3302
 3303
 3304
 3305
 3306
 3307
 3308
 3309
 3310
 3311
 3312
 3313
 3314
 3315
 3316
 3317
 3318
 3319
 3320
 3321
 3322
 3323
 3324
 3325
 3326
 3327
 3328
 3329
 3330
 3331
 3332
 3333
 3334
 3335
 3336
 3337
 3338
 3339
 3340
 3341
 3342
 3343
 3344
 3345
 3346
 3347
 3348
 3349
 3350
 3351
 3352
 3353
 3354
 3355
 3356
 3357
 3358
 3359
 3360
 3361
 3362
 3363
 3364
 3365
 3366
 3367
 3368
 3369
 3370
 3371
 3372
 3373
 3374
 3375
 3376
 3377
 3378
 3379
 3380
 3381
 3382
 3383
 3384
 3385
 3386
 3387
 3388
 3389
 3390
 3391
 3392
 3393
 3394
 3395
 3396
 3397
 3398
 3399
 3400
 3401
 3402
 3403
 3404
 3405
 3406
 3407
 3408
 3409
 3410
 3411
 3412
 3413
 3414
 3415
 3416
 3417
 3418
 3419
 3420
 3421
 3422
 3423
 3424
 3425
 3426
 3427
 3428
 3429
 3430
 3431
 3432
 3433
 3434
 3435
 3436
 3437
 3438
 3439
 3440
 3441
 3442
 3443
 3444
 3445
 3446
 3447
 3448
 3449
 3450
 3451
 3452
 3453
 3454
 3455
 3456
 3457
 3458
 3459
 3460
 3461
 3462
 3463
 3464
 3465
 3466
 3467
 3468
 3469
 3470
 3471
 3472
 3473
 3474
 3475
 3476
 3477
 3478
 3479
 3480
 3481
 3482
 3483
 3484
 3485
 3486
 3487
 3488
 3489
 3490
 3491
 3492
 3493
 3494
 3495
 3496
 3497
 3498
 3499
 3500
 3501
 3502
 3503
 3504
 3505
 3506
 3507
 3508
 3509
 3510
 3511
 3512
 3513
 3514
 3515
 3516
 3517
 3518
 3519
 3520
 3521
 3522
 3523
 3524
 3525
 3526
 3527
 3528
 3529
 3530
 3531
 3532
 3533
 3534
 3535
 3536
 3537
 3538
 3539
 3540
 3541
 3542
 3543
 3544
 3545
 3546
 3547
 3548
 3549
 3550
 3551
 3552
 3553
 3554
 3555
 3556
 3557
 3558
 3559
 3560
 3561
 3562
 3563
 3564
 3565
 3566
 3567
 3568
 3569
 3570
 3571
 3572
 3573
 3574
 3575
 3576
 3577
 3578
 3579
 3580
 3581
 3582
 3583
 3584
 3585
 3586
 3587
 3588
 3589
 3590
 3591
 3592
 3593
 3594
 3595
 3596
 3597
 3598
 3599
 3600
 3601
 3602
 3603
 3604
 3605
 3606
 3607
 3608
 3609
 3610
 3611
 3612
 3613
 3614
 3615
 3616
 3617
 3618
 3619
 3620
 3621
 3622
 3623
 3624
 3625
 3626
 3627
 3628
 3629
 3630
 3631
 3632
 3633
 3634
 3635
 3636
 3637
 3638
 3639
 3640
 3641
 3642
 3643
 3644
 3645
 3646
 3647
 3648
 3649
 3650
 3651
 3652
 3653
 3654
 3655
 3656
 3657
 3658
 3659
 3660
 3661
 3662
 3663
 3664
 3665
 3666
 3667
 3668
 3669
 3670
 3671
 3672
 3673
 3674
 3675
 3676
 3677
 3678
 3679
 3680
 3681
 3682
 3683
 3684
 3685
 3686
 3687
 3688
 3689
 3690
 3691
 3692
 3693
 3694
 3695
 3696
 3697
 3698
 3699
 3700
 3701
 3702
 3703
 3704
 3705
 3706
 3707
 3708
 3709
 3710
 3711
 3712
 3713
 3714
 3715
 3716
 3717
 3718
 3719
 3720
 3721
 3722
 3723
 3724
 3725
 3726
 3727
 3728
 3729
 3730
 3731
 3732
 3733
 3734
 3735
 3736
 3737
 3738
 3739
 3740
 3741
 3742
 3743
 3744
 3745
 3746
 3747
 3748
 3749
 3750
 3751
 3752
 3753
 3754
 3755
 3756
 3757
 3758
 3759
 3760
 3761
 3762
 3763
 3764
 3765
 3766
 3767
 3768
 3769
 3770
 3771
 3772
 3773
 3774
 3775
 3776
 3777
 3778
 3779
 3780
 3781
 3782
 3783
 3784
 3785
 3786
 3787
 3788
 3789
 3790
 3791
 3792
 3793
 3794
 3795
 3796
 3797
 3798
 3799
 3800
 3801
 3802
 3803
 3804
 3805
 3806
 3807
 3808
 3809
 3810
 3811
 3812
 3813
 3814
 3815
 3816
 3817
 3818
 3819
 3820
 3821
 3822
 3823
 3824
 3825
 3826
 3827
 3828
 3829
 3830
 3831
 3832
 3833
 3834
 3835
 3836
 3837
 3838
 3839
 3840
 3841
 3842
 3843
 3844
 3845
 3846
 3847
 3848
 3849
 3850
 3851
 3852
 3853
 3854
 3855
 3856
 3857
 3858
 3859
 3860
 3861
 3862
 3863
 3864
 3865
 3866
 3867
 3868
 3869
 3870
 3871
 3872
 3873
 3874
 3875
 3876
 3877
 3878
 3879
 3880
 3881
 3882
 3883
 3884
 3885
 3886
 3887
 3888
 3889
 3890
 3891
 3892
 3893
 3894
 3895
 3896
 3897
 3898
 3899
 3900
 3901
 3902
 3903
 3904
 3905
 3906
 3907
 3908
 3909
 3910
 3911
 3912
 3913
 3914
 3915
 3916
 3917
 3918
 3919
 3920
 3921
 3922
 3923
 3924
 3925
 3926
 3927
 3928
 3929
 3930
 3931
 3932
 3933
 3934
 3935
 3936
 3937
 3938
 3939
 3940
 3941
 3942
 3943
 3944
 3945
 3946
 3947
 3948
 3949
 3950
 3951
 3952
 3953
 3954
 3955
 3956
 3957
 3958
 3959
 3960
 3961
 3962
 3963
 3964
 3965
 3966
 3967
 3968
 3969
 3970
 3971
 3972
 3973
 3974
 3975
 3976
 3977
 3978
 3979
 3980
 3981
 3982
 3983
 3984
 3985
 3986
 3987
 3988
 3989
 3990
 3991
 3992
 3993
 3994
 3995
 3996
 3997
 3998
 3999
 4000
 4001
 4002
 4003
 4004
 4005
 4006
 4007
 4008
 4009
 4010
 4011
 4012
 4013
 4014
 4015
 4016
 4017
 4018
 4019
 4020
 4021
 4022
 4023
 4024
 4025
 4026
 4027
 4028
 4029
 4030
 4031
 4032
 4033
 4034
 4035
 4036
 4037
 4038
 4039
 4040
 4041
 4042
 4043
 4044
 4045
 4046
 4047
 4048
 4049
 4050
 4051
 4052
 4053
 4054
 4055
 4056
 4057
 4058
 4059
 4060
 4061
 4062
 4063
 4064
 4065
 4066
 4067
 4068
 4069
 4070
 4071
 4072
 4073
 4074
 4075
 4076
 4077
 4078
 4079
 4080
 4081
 4082
 4083
 4084
 4085
 4086
 4087
 4088
 4089
 4090
 4091
 4092
 4093
 4094
 4095
 4096
 4097
 4098
 4099
 4100
 4101
 4102
 4103
 4104
 4105
 4106
 4107
 4108
 4109
 4110
 4111
 4112
 4113
 4114
 4115
 4116
 4117
 4118
 4119
 4120
 4121
 4122
 4123
 4124
 4125
 4126
 4127
 4128
 4129
 4130
 4131
 4132
 4133
 4134
 4135
 4136
 4137
 4138
 4139
 4140
 4141
 4142
 4143
 4144
 4145
 4146
 4147
 4148
 4149
 4150
 4151
 4152
 4153
 4154
 4155
 4156
 4157
 4158
 4159
 4160
 4161
 4162
 4163
 4164
 4165
 4166
 4167
 4168
 4169
 4170
 4171
 4172
 4173
 4174
 4175
 4176
 4177
 4178
 4179
 4180
 4181
 4182
 4183
 4184
 4185
 4186
 4187
 4188
 4189
 4190
 4191
 4192
 4193
 4194
 4195
 4196
 4197
 4198
 4199
 4200
 4201
 4202
 4203
 4204
 4205
 4206
 4207
 4208
 4209
 4210
 4211
 4212
 4213
 4214
 4215
 4216
 4217
 4218
 4219
 4220
 4221
 4222
 4223
 4224
 4225
 4226
 4227
 4228
 4229
 4230
 4231
 4232
 4233
 4234
 4235
 4236
 4237
 4238
 4239
 4240
 4241
 4242
 4243
 4244
 4245
 4246
 4247
 4248
 4249
 4250
 4251
 4252
 4253
 4254
 4255
 4256
 4257
 4258
 4259
 4260
 4261
 4262
 4263
 4264
 4265
 4266
 4267
 4268
 4269
 4270
 4271
 4272
 4273
 4274
 4275
 4276
 4277
 4278
 4279
 4280
 4281
 4282
 4283
 4284
 4285
 4286
 4287
 4288
 4289
 4290
 4291
 4292
 4293
 4294
 4295
 4296
 4297
 4298
 4299
 4300
 4301
 4302
 4303
 4304
 4305
 4306
 4307
 4308
 4309
 4310
 4311
 4312
 4313
 4314
 4315
 4316
 4317
 4318
 4319
 4320
 4321
 4322
 4323
 4324
 4325
 4326
 4327
 4328
 4329
 4330
 4331
 4332
 4333
 4334
 4335
 4336
 4337
 4338
 4339
 4340
 4341
 4342
 4343
 4344
 4345
 4346
 4347
 4348
 4349
 4350
 4351
 4352
 4353
 4354
 4355
 4356
 4357
 4358
 4359
 4360
 4361
 4362
 4363
 4364
 4365
 4366
 4367
 4368
 4369
 4370
 4371
 4372
 4373
 4374
 4375
 4376
 4377
 4378
 4379
 4380
 4381
 4382
 4383
 4384
 4385
 4386
 4387
 4388
 4389
 4390
 4391
 4392
 4393
 4394
 4395
 4396
 4397
 4398
 4399
 4400
 4401
 4402
 4403
 4404
 4405
 4406
 4407
 4408
 4409
 4410
 4411
 4412
 4413
 4414
 4415
 4416
 4417
 4418
 4419
 4420
 4421
 4422
 4423
 4424
 4425
 4426
 4427
 4428
 4429
 4430
 4431
 4432
 4433
 4434
 4435
 4436
 4437
 4438
 4439
 4440
 4441
 4442
 4443
 4444
 4445
 4446
 4447
 4448
 4449
 4450
 4451
 4452
 4453
 4454
 4455
 4456
 4457
 4458
 4459
 4460
 4461
 4462
 4463
 4464
 4465
 4466
 4467
 4468
 4469
 4470
 4471
 4472
 4473
 4474
 4475
 4476
 4477
 4478
 4479
 4480
 4481
 4482
 4483
 4484
 4485
 4486
 4487
 4488
 4489
 4490
 4491
 4492
 4493
 4494
 4495
 4496
 4497
 4498
 4499
 4500
 4501
 4502
 4503
 4504
 4505
 4506
 4507
 4508
 4509
 4510
 4511
 4512
 4513
 4514
 4515
 4516
 4517
 4518
 4519
 4520
 4521
 4522
 4523
 4524
 4525
 4526
 4527
 4528
 4529
 4530
 4531
 4532
 4533
 4534
 4535
 4536
 4537
 4538
 4539
 4540
 4541
 4542
 4543
 4544
 4545
 4546
 4547
 4548
 4549
 4550
 4551
 4552
 4553
 4554
 4555
 4556
 4557
 4558
 4559
 4560
 4561
 4562
 4563
 4564
 4565
 4566
 4567
 4568
 4569
 4570
 4571
 4572
 4573
 4574
 4575
 4576
 4577
 4578
 4579
 4580
 4581
 4582
 4583
 4584
 4585
 4586
 4587
 4588
 4589
 4590
 4591
 4592
 4593
 4594
 4595
 4596
 4597
 4598
 4599
 4600
 4601
 4602
 4603
 4604
 4605
 4606
 4607
 4608
 4609
 4610
 4611
 4612
 4613
 4614
 4615
 4616
 4617
 4618
 4619
 4620
 4621
 4622
 4623
 4624
 4625
 4626
 4627
 4628
 4629
 4630
 4631
 4632
 4633
 4634
 4635
 4636
 4637
 4638
 4639
 4640
 4641
 4642
 4643
 4644
 4645
 4646
 4647
 4648
 4649
 4650
 4651
 4652
 4653
 4654
 4655
 4656
 4657
 4658
 4659
 4660
 4661
 4662
 4663
 4664
 4665
 4666
 4667
 4668
 4669
 4670
 4671
 4672
 4673
 4674
 4675
 4676
 4677
 4678
 4679
 4680
 4681
 4682
 4683
 4684
 4685
 4686
 4687
 4688
 4689
 4690
 4691
 4692
 4693
 4694
 4695
 4696
 4697
 4698
 4699
 4700
 4701
 4702
 4703
 4704
 4705
 4706
 4707
 4708
 4709
 4710
 4711
 4712
 4713
 4714
 4715
 4716
 4717
 4718
 4719
 4720
 4721
 4722
 4723
 4724
 4725
 4726
 4727
 4728
 4729
 4730
 4731
 4732
 4733
 4734
 4735
 4736
 4737
 4738
 4739
 4740
 4741
 4742
 4743
 4744
 4745
 4746
 4747
 4748
 4749
 4750
 4751
 4752
 4753
 4754
 4755
 4756
 4757
 4758
 4759
 4760
 4761
 4762
 4763
 4764
 4765
 4766
 4767
 4768
 4769
 4770
 4771
 4772
 4773
 4774
 4775
 4776
 4777
 4778
 4779
 4780
 4781
 4782
 4783
 4784
 4785
 4786
 4787
 4788
 4789
 4790
 4791
 4792
 4793
 4794
 4795
 4796
 4797
 4798
 4799
 4800
 4801
 4802
 4803
 4804
 4805
 4806
 4807
 4808
 4809
 4810
 4811
 4812
 4813
 4814
 4815
 4816
 4817
 4818
 4819
 4820
 4821
 4822
 4823
 4824
 4825
 4826
 4827
 4828
 4829
 4830
 4831
 4832
 4833
 4834
 4835
 4836
 4837
 4838
 4839
 4840
 4841
 4842
 4843
 4844
 4845
 4846
 4847
 4848
 4849
 4850
 4851
 4852
 4853
 4854
 4855
 4856
 4857
 4858
 4859
 4860
 4861
 4862
 4863
 4864
 4865
 4866
 4867
 4868
 4869
 4870
 4871
 4872
 4873
 4874
 4875
 4876
 4877
 4878
 4879
 4880
 4881
 4882
 4883
 4884
 4885
 4886
 4887
 4888
 4889
 4890
 4891
 4892
 4893
 4894
 4895
 4896
 4897
 4898
 4899
 4900
 4901
 4902
 4903
 4904
 4905
 4906
 4907
 4908
 4909
 4910
 4911
 4912
 4913
 4914
 4915
 4916
 4917
 4918
 4919
 4920
 4921
 4922
 4923
 4924
 4925
 4926
 4927
 4928
 4929
 4930
 4931
 4932
 4933
 4934
 4935
 4936
 4937
 4938
 4939
 4940
 4941
 4942
 4943
 4944
 4945
 4946
 4947
 4948
 4949
 4950
 4951
 4952
 4953
 4954
 4955
 4956
 4957
 4958
 4959
 4960
 4961
 4962
 4963
 4964
 4965
 4966
 4967
 4968
 4969
 4970
 4971
 4972
 4973
 4974
 4975
 4976
 4977
 4978
 4979
 4980
 4981
 4982
 4983
 4984
 4985
 4986
 4987
 4988
 4989
 4990
 4991
 4992
 4993
 4994
 4995
 4996
 4997
 4998
 4999
 5000
 5001
 5002
 5003
 5004
 5005
 5006
 5007
 5008
 5009
 5010
 5011
 5012
 5013
 5014
 5015
 5016
 5017
 5018
 5019
 5020
 5021
 5022
 5023
 5024
 5025
 5026
 5027
 5028
 5029
 5030
 5031
 5032
 5033
 5034
 5035
 5036
 5037
 5038
 5039
 5040
 5041
 5042
 5043
 5044
 5045
 5046
 5047
 5048
 5049
 5050
 5051
 5052
 5053
 5054
 5055
 5056
 5057
 5058
 5059
 5060
 5061
 5062
 5063
 5064
 5065
 5066
 5067
 5068
 5069
 5070
 5071
 5072
 5073
 5074
 5075
 5076
 5077
 5078
 5079
 5080
 5081
 5082
 5083
 5084
 5085
 5086
 5087
 5088
 5089
 5090
 5091
 5092
 5093
 5094
 5095
 5096
 5097
 5098
 5099
 5100
 5101
 5102
 5103
 5104
 5105
 5106
 5107
 5108
 5109
 5110
 5111
 5112
 5113
 5114
 5115
 5116
 5117
 5118
 5119
 5120
 5121
 5122
 5123
 5124
 5125
 5126
 5127
 5128
 5129
 5130
 5131
 5132
 5133
 5134
 5135
 5136
 5137
 5138
 5139
 5140
 5141
 5142
 5143
 5144
 5145
 5146
 5147
 5148
 5149
 5150
 5151
 5152
 5153
 5154
 5155
 5156
 5157
 5158
 5159
 5160
 5161
 5162
 5163
 5164
 5165
 5166
 5167
 5168
 5169
 5170
 5171
 5172
 5173
 5174
 5175
 5176
 5177
 5178
 5179
 5180
 5181
 5182
 5183
 5184
 5185
 5186
 5187
 5188
 5189
 5190
 5191
 5192
 5193
 5194
 5195
 5196
 5197
 5198
 5199
 5200
 5201
 5202
 5203
 5204
 5205
 5206
 5207
 5208
 5209
 5210
 5211
 5212
 5213
 5214
 5215
 5216
 5217
 5218
 5219
 5220
 5221
 5222
 5223
 5224
 5225
 5226
 5227
 5228
 5229
 5230
 5231
 5232
 5233
 5234
 5235
 5236
 5237
 5238
 5239
 5240
 5241
 5242
 5243
 5244
 5245
 5246
 5247
 5248
 5249
 5250
 5251
 5252
 5253
 5254
 5255
 5256
 5257
 5258
 5259
 5260
 5261
 5262
 5263
 5264
 5265
 5266
 5267
 5268
 5269
 5270
 5271
 5272
 5273
 5274
 5275
 5276
 5277
 5278
 5279
 5280
 5281
 5282
 5283
 5284
 5285
 5286
 5287
 5288
 5289
 5290
 5291
 5292
 5293
 5294
 5295
 5296
 5297
 5298
 5299
 5300
 5301
 5302
 5303
 5304
 5305
 5306
 5307
 5308
 5309
 5310
 5311
 5312
 5313
 5314
 5315
 5316
 5317
 5318
 5319
 5320
 5321
 5322
 5323
 5324
 5325
 5326
 5327
 5328
 5329
 5330
 5331
 5332
 5333
 5334
 5335
 5336
 5337
 5338
 5339
 5340
 5341
 5342
 5343
 5344
 5345
 5346
 5347
 5348
 5349
 5350
 5351
 5352
 5353
 5354
 5355
 5356
 5357
 5358
 5359
 5360
 5361
 5362
 5363
 5364
 5365
 5366
 5367
 5368
 5369
 5370
 5371
 5372
 5373
 5374
 5375
 5376
 5377
 5378
 5379
 5380
 5381
 5382
 5383
 5384
 5385
 5386
 5387
 5388
 5389
 5390
 5391
 5392
 5393
 5394
 5395
 5396
 5397
 5398
 5399
 5400
 5401
 5402
 5403
 5404
 5405
 5406
 5407
 5408
 5409
 5410
 5411
 5412
 5413
 5414
 5415
 5416
 5417
 5418
 5419
 5420
 5421
 5422
 5423
 5424
 5425
 5426
 5427
 5428
 5429
 5430
 5431
 5432
 5433
 5434
 5435
 5436
 5437
 5438
 5439
 5440
 5441
 5442
 5443
 5444
 5445
 5446
 5447
 5448
 5449
 5450
 5451
 5452
 5453
 5454
 5455
 5456
 5457
 5458
 5459
 5460
 5461
 5462
 5463
 5464
 5465
 5466
 5467
 5468
 5469
 5470
 5471
 5472
 5473
 5474
 5475
 5476
 5477
 5478
 5479
 5480
 5481
 5482
 5483
 5484
 5485
 5486
 5487
 5488
 5489
 5490
 5491
 5492
 5493
 5494
 5495
 5496
 5497
 5498
 5499
 5500
 5501
 5502
 5503
 5504
 5505
 5506
 5507
 5508
 5509
 5510
 5511
 5512
 5513
 5514
 5515
 5516
 5517
 5518
 5519
 5520
 5521
 5522
 5523
 5524
 5525
 5526
 5527
 5528
 5529
 5530
 5531
 5532
 5533
 5534
 5535
 5536
 5537
 5538
 5539
 5540
 5541
 5542
 5543
 5544
 5545
 5546
 5547
 5548
 5549
 5550
 5551
 5552
 5553
 5554
 5555
 5556
 5557
 5558
 5559
 5560
 5561
 5562
 5563
 5564
 5565
 5566
 5567
 5568
 5569
 5570
 5571
 5572
 5573
 5574
 5575
 5576
 5577
 5578
 5579
 5580
 5581
 5582
 5583
 5584
 5585
 5586
 5587
 5588
 5589
 5590
 5591
 5592
 5593
 5594
 5595
 5596
 5597
 5598
 5599
 5600
 5601
 5602
 5603
 5604
 5605
 5606
 5607
 5608
 5609
 5610
 5611
 5612
 5613
 5614
 5615
 5616
 5617
 5618
 5619
 5620
 5621
 5622
 5623
 5624
 5625
 5626
 5627
 5628
 5629
 5630
 5631
 5632
 5633
 5634
 5635
 5636
 5637
 5638
 5639
 5640
 5641
 5642
 5643
 5644
 5645
 5646
 5647
 5648
 5649
 5650
 5651
 5652
 5653
 5654
 5655
 5656
 5657
 5658
 5659
 5660
 5661
 5662
 5663
 5664
 5665
 5666
 5667
 5668
 5669
 5670
 5671
 5672
 5673
 5674
 5675
 5676
 5677
 5678
 5679
 5680
 5681
 5682
 5683
 5684
 5685
 5686
 5687
 5688
 5689
 5690
 5691
 5692
 5693
 5694
 5695
 5696
 5697
 5698
 5699
 5700
 5701
 5702
 5703
 5704
 5705
 5706
 5707
 5708
 5709
 5710
 5711
 5712
 5713
 5714
 5715
 5716
 5717
 5718
 5719
 5720
 5721
 5722
 5723
 5724
 5725
 5726
 5727
 5728
 5729
 5730
 5731
 5732
 5733
 5734
 5735
 5736
 5737
 5738
 5739
 5740
 5741
 5742
 5743
 5744
 5745
 5746
 5747
 5748
 5749
 5750
 5751
 5752
 5753
 5754
 5755
 5756
 5757
 5758
 5759
 5760
 5761
 5762
 5763
 5764
 5765
 5766
 5767
 5768
 5769
 5770
 5771
 5772
 5773
 5774
 5775
 5776
 5777
 5778
 5779
 5780
 5781
 5782
 5783
 5784
 5785
 5786
 5787
 5788
 5789
 5790
 5791
 5792
 5793
 5794
 5795
 5796
 5797
 5798
 5799
 5800
 5801
 5802
 5803
 5804
 5805
 5806
 5807
 5808
 5809
 5810
 5811
 5812
 5813
 5814
 5815
 5816
 5817
 5818
 5819
 5820
 5821
 5822
 5823
 5824
 5825
 5826
 5827
 5828
 5829
 5830
 5831
 5832
 5833
 5834
 5835
 5836
 5837
 5838
 5839
 5840
 5841
 5842
 5843
 5844
 5845
 5846
 5847
 5848
 5849
 5850
 5851
 5852
 5853
 5854
 5855
 5856
 5857
 5858
 5859
 5860
 5861
 5862
 5863
 5864
 5865
 5866
 5867
 5868
 5869
 5870
 5871
 5872
 5873
 5874
 5875
 5876
 5877
 5878
 5879
 5880
 5881
 5882
 5883
 5884
 5885
 5886
 5887
 5888
 5889
 5890
 5891
 5892
 5893
 5894
 5895
 5896
 5897
 5898
 5899
 5900
 5901
 5902
 5903
 5904
 5905
 5906
 5907
 5908
 5909
 5910
 5911
 5912
 5913
 5914
 5915
 5916
 5917
 5918
 5919
 5920
 5921
 5922
 5923
 5924
 5925
 5926
 5927
 5928
 5929
 5930
 5931
 5932
 5933
 5934
 5935
 5936
 5937
 5938
 5939
 5940
 5941
 5942
 5943
 5944
 5945
 5946
 5947
 5948
 5949
 5950
 5951
 5952
 5953
 5954
 5955
 5956
 5957
 5958
 5959
 5960
 5961
 5962
 5963
 5964
 5965
 5966
 5967
 5968
 5969
 5970
 5971
 5972
 5973
 5974
 5975
 5976
 5977
 5978
 5979
 5980
 5981
 5982
 5983
 5984
 5985
 5986
 5987
 5988
 5989
 5990
 5991
 5992
 5993
 5994
 5995
 5996
 5997
 5998
 5999
 6000
 6001
 6002
 6003
 6004
 6005
 6006
 6007
 6008
 6009
 6010
 6011
 6012
 6013
 6014
 6015
 6016
 6017
 6018
 6019
 6020
 6021
 6022
 6023
 6024
 6025
 6026
 6027
 6028
 6029
 6030
 6031
 6032
 6033
 6034
 6035
 6036
 6037
 6038
 6039
 6040
 6041
 6042
 6043
 6044
 6045
 6046
 6047
 6048
 6049
 6050
 6051
 6052
 6053
 6054
 6055
 6056
 6057
 6058
 6059
 6060
 6061
 6062
 6063
 6064
 6065
 6066
 6067
 6068
 6069
 6070
 6071
 6072
 6073
 6074
 6075
 6076
 6077
 6078
 6079
 6080
 6081
 6082
 6083
 6084
 6085
 6086
 6087
 6088
 6089
 6090
 6091
 6092
 6093
 6094
 6095
 6096
 6097
 6098
 6099
 6100
 6101
 6102
 6103
 6104
 6105
 6106
 6107
 6108
 6109
 6110
 6111
 6112
 6113
 6114
 6115
 6116
 6117
 6118
 6119
 6120
 6121
 6122
 6123
 6124
 6125
 6126
 6127
 6128
 6129
 6130
 6131
 6132
 6133
 6134
 6135
 6136
 6137
 6138
 6139
 6140
 6141
 6142
 6143
 6144
 6145
 6146
 6147
 6148
 6149
 6150
 6151
 6152
 6153
 6154
 6155
 6156
 6157
 6158
 6159
 6160
 6161
 6162
 6163
 6164
 6165
 6166
 6167
 6168
 6169
 6170
 6171
 6172
 6173
 6174
 6175
 6176
 6177
 6178
 6179
 6180
 6181
 6182
 6183
 6184
 6185
 6186
 6187
 6188
 6189
 6190
 6191
 6192
 6193
 6194
 6195
 6196
 6197
 6198
 6199
 6200
 6201
 6202
 6203
 6204
 6205
 6206
 6207
 6208
 6209
 6210
 6211
 6212
 6213
 6214
 6215
 6216
 6217
 6218
 6219
 6220
 6221
 6222
 6223
 6224
 6225
 6226
 6227
 6228
 6229
 6230
 6231
 6232
 6233
 6234
 6235
 6236
 6237
 6238
 6239
 6240
 6241
 6242
 6243
 6244
 6245
 6246
 6247
 6248
 6249
 6250
 6251
 6252
 6253
 6254
 6255
 6256
 6257
 6258
 6259
 6260
 6261
 6262
 6263
 6264
 6265
 6266
 6267
 6268
 6269
 6270
 6271
 6272
 6273
 6274
 6275
 6276
 6277
 6278
 6279
 6280
 6281
 6282
 6283
 6284
 6285
 6286
 6287
 6288
 6289
 6290
 6291
 6292
 6293
 6294
 6295
 6296
 6297
 6298
 6299
 6300
 6301
 6302
 6303
 6304
 6305
 6306
 6307
 6308
 6309
 6310
 6311
 6312
 6313
 6314
 6315
 6316
 6317
 6318
 6319
 6320
 6321
 6322
 6323
 6324
 6325
 6326
 6327
 6328
 6329
 6330
 6331
 6332
 6333
 6334
 6335
 6336
 6337
 6338
 6339
 6340
 6341
 6342
 6343
 6344
 6345
 6346
 6347
 6348
 6349
 6350
 6351
 6352
 6353
 6354
 6355
 6356
 6357
 6358
 6359
 6360
 6361
 6362
 6363
 6364
 6365
 6366
 6367
 6368
 6369
 6370
 6371
 6372
 6373
 6374
 6375
 6376
 6377
 6378
 6379
 6380
 6381
 6382
 6383
 6384
 6385
 6386
 6387
 6388
 6389
 6390
 6391
 6392
 6393
 6394
 6395
 6396
 6397
 6398
 6399
 6400
 6401
 6402
 6403
 6404
 6405
 6406
 6407
 6408
 6409
 6410
 6411
 6412
 6413
 6414
 6415
 6416
 6417
 6418
 6419
 6420
 6421
 6422
 6423
 6424
 6425
 6426
 6427
 6428
 6429
 6430
 6431
 6432
 6433
 6434
 6435
 6436
 6437
 6438
 6439
 6440
 6441
 6442
 6443
 6444
 6445
 6446
 6447
 6448
 6449
 6450
 6451
 6452
 6453
 6454
 6455
 6456
 6457
 6458
 6459
 6460
 6461
 6462
 6463
 6464
 6465
 6466
 6467
 6468
 6469
 6470
 6471
 6472
 6473
 6474
 6475
 6476
 6477
 6478
 6479
 6480
 6481
 6482
 6483
 6484
 6485
 6486
 6487
 6488
 6489
 6490
 6491
 6492
 6493
 6494
 6495
 6496
 6497
 6498
 6499
 6500
 6501
 6502
 6503
 6504
 6505
 6506
 6507
 6508
 6509
 6510
 6511
 6512
 6513
 6514
 6515
 6516
 6517
 6518
 6519
 6520
 6521
 6522
 6523
 6524
 6525
 6526
 6527
 6528
 6529
 6530
 6531
 6532
 6533
 6534
 6535
 6536
 6537
 6538
 6539
 6540
 6541
 6542
 6543
 6544
 6545
 6546
 6547
 6548
 6549
 6550
 6551
 6552
 6553
 6554
 6555
 6556
 6557
 6558
 6559
 6560
 6561
 6562
 6563
 6564
 6565
 6566
 6567
 6568
 6569
 6570
 6571
 6572
 6573
 6574
 6575
 6576
 6577
 6578
 6579
 6580
 6581
 6582
 6583
 6584
 6585
 6586
 6587
 6588
 6589
 6590
 6591
 6592
 6593
 6594
 6595
 6596
 6597
 6598
 6599
 6600
 6601
 6602
 6603
 6604
 6605
 6606
 6607
 6608
 6609
 6610
 6611
 6612
 6613
 6614
 6615
 6616
 6617
 6618
 6619
 6620
 6621
 6622
 6623
 6624
 6625
 6626
 6627
 6628
 6629
 6630
 6631
 6632
 6633
 6634
 6635
 6636
 6637
 6638
 6639
 6640
 6641
 6642
 6643
 6644
 6645
 6646
 6647
 6648
 6649
 6650
 6651
 6652
 6653
 6654
 6655
 6656
 6657
 6658
 6659
 6660
 6661
 6662
 6663
 6664
 6665
 6666
 6667
 6668
 6669
 6670
 6671
 6672
 6673
 6674
 6675
 6676
 6677
 6678
 6679
 6680
 6681
 6682
 6683
 6684
 6685
 6686
 6687
 6688
 6689
 6690
 6691
 6692
 6693
 6694
 6695
 6696
 6697
 6698
 6699
 6700
 6701
 6702
 6703
 6704
 6705
 6706
 6707
 6708
 6709
 6710
 6711
 6712
 6713
 6714
 6715
 6716
 6717
 6718
 6719
 6720
 6721
 6722
 6723
 6724
 6725
 6726
 6727
 6728
 6729
 6730
 6731
 6732
 6733
 6734
 6735
 6736
 6737
 6738
 6739
 6740
 6741
 6742
 6743
 6744
 6745
 6746
 6747
 6748
 6749
 6750
 6751
 6752
 6753
 6754
 6755
 6756
 6757
 6758
 6759
 6760
 6761
 6762
 6763
 6764
 6765
 6766
 6767
 6768
 6769
 6770
 6771
 6772
 6773
 6774
 6775
 6776
 6777
 6778
 6779
 6780
 6781
 6782
 6783
 6784
 6785
 6786
 6787
 6788
 6789
 6790
 6791
 6792
 6793
 6794
 6795
 6796
 6797
 6798
 6799
 6800
 6801
 6802
 6803
 6804
 6805
 6806
 6807
 6808
 6809
 6810
 6811
 6812
 6813
 6814
 6815
 6816
 6817
 6818
 6819
 6820
 6821
 6822
 6823
 6824
 6825
 6826
 6827
 6828
 6829
 6830
 6831
 6832
 6833
 6834
 6835
 6836
 6837
 6838
 6839
 6840
 6841
 6842
 6843
 6844
 6845
 6846
 6847
 6848
 6849
 6850
 6851
 6852
 6853
 6854
 6855
 6856
 6857
 6858
 6859
 6860
 6861
 6862
 6863
 6864
 6865
 6866
 6867
 6868
 6869
 6870
 6871
 6872
 6873
 6874
 6875
 6876
 6877
 6878
 6879
 6880
 6881
 6882
 6883
 6884
 6885
 6886
 6887
 6888
 6889
 6890
 6891
 6892
 6893
 6894
 6895
 6896
 6897
 6898
 6899
 6900
 6901
 6902
 6903
 6904
 6905
 6906
 6907
 6908
 6909
 6910
 6911
 6912
 6913
 6914
 6915
 6916
 6917
 6918
 6919
 6920
 6921
 6922
 6923
 6924
 6925
 6926
 6927
 6928
 6929
 6930
 6931
 6932
 6933
 6934
 6935
 6936
 6937
 6938
 6939
 6940
 6941
 6942
 6943
 6944
 6945
 6946
 6947
 6948
 6949
 6950
 6951
 6952
 6953
 6954
 6955
 6956
 6957
 6958
 6959
 6960
 6961
 6962
 6963
 6964
 6965
 6966
 6967
 6968
 6969
 6970
 6971
 6972
 6973
 6974
 6975
 6976
 6977
 6978
 6979
 6980
 6981
 6982
 6983
 6984
 6985
 6986
 6987
 6988
 6989
 6990
 6991
 6992
 6993
 6994
 6995
 6996
 6997
 6998
 6999
 7000
 7001
 7002
 7003
 7004
 7005
 7006
 7007
 7008
 7009
 7010
 7011
 7012
 7013
 7014
 7015
 7016
 7017
 7018
 7019
 7020
 7021
 7022
 7023
 7024
 7025
 7026
 7027
 7028
 7029
 7030
 7031
 7032
 7033
 7034
 7035
 7036
 7037
 7038
 7039
 7040
 7041
 7042
 7043
 7044
 7045
 7046
 7047
 7048
 7049
 7050
 7051
 7052
 7053
 7054
 7055
 7056
 7057
 7058
 7059
 7060
 7061
 7062
 7063
 7064
 7065
 7066
 7067
 7068
 7069
 7070
 7071
 7072
 7073
 7074
 7075
 7076
 7077
 7078
 7079
 7080
 7081
 7082
 7083
 7084
 7085
 7086
 7087
 7088
 7089
 7090
 7091
 7092
 7093
 7094
 7095
 7096
 7097
 7098
 7099
 7100
 7101
 7102
 7103
 7104
 7105
 7106
 7107
 7108
 7109
 7110
 7111
 7112
 7113
 7114
 7115
 7116
 7117
 7118
 7119
 7120
 7121
 7122
 7123
 7124
 7125
 7126
 7127
 7128
 7129
 7130
 7131
 7132
 7133
 7134
 7135
 7136
 7137
 7138
 7139
 7140
 7141
 7142
 7143
 7144
 7145
 7146
 7147
 7148
 7149
 7150
 7151
 7152
 7153
 7154
 7155
 7156
 7157
 7158
 7159
 7160
 7161
 7162
 7163
 7164
 7165
 7166
 7167
 7168
 7169
 7170
 7171
 7172
 7173
 7174
 7175
 7176
 7177
 7178
 7179
 7180
 7181
 7182
 7183
 7184
 7185
 7186
 7187
 7188
 7189
 7190
 7191
 7192
 7193
 7194
 7195
 7196
 7197
 7198
 7199
 7200
 7201
 7202
 7203
 7204
 7205
 7206
 7207
 7208
 7209
 7210
 7211
 7212
 7213
 7214
 7215
 7216
 7217
 7218
 7219
 7220
 7221
 7222
 7223
 7224
 7225
 7226
 7227
 7228
 7229
 7230
 7231
 7232
 7233
 7234
 7235
 7236
 7237
 7238
 7239
 7240
 7241
 7242
 7243
 7244
 7245
 7246
 7247
 7248
 7249
 7250
 7251
 7252
 7253
 7254
 7255
 7256
 7257
 7258
 7259
 7260
 7261
 7262
 7263
 7264
 7265
 7266
 7267
 7268
 7269
 7270
 7271
 7272
 7273
 7274
 7275
 7276
 7277
 7278
 7279
 7280
 7281
 7282
 7283
 7284
 7285
 7286
 7287
 7288
 7289
 7290
 7291
 7292
 7293
 7294
 7295
 7296
 7297
 7298
 7299
 7300
 7301
 7302
 7303
 7304
 7305
 7306
 7307
 7308
 7309
 7310
 7311
 7312
 7313
 7314
 7315
 7316
 7317
 7318
 7319
 7320
 7321
 7322
 7323
 7324
 7325
 7326
 7327
 7328
 7329
 7330
 7331
 7332
 7333
 7334
 7335
 7336
 7337
 7338
 7339
 7340
 7341
 7342
 7343
 7344
 7345
 7346
 7347
 7348
 7349
 7350
 7351
 7352
 7353
 7354
 7355
 7356
 7357
 7358
 7359
 7360
 7361
 7362
 7363
 7364
 7365
 7366
 7367
 7368
 7369
 7370
 7371
 7372
 7373
 7374
 7375
 7376
 7377
 7378
 7379
 7380
 7381
 7382
 7383
 7384
 7385
 7386
 7387
 7388
 7389
 7390
 7391
 7392
 7393
 7394
 7395
 7396
 7397
 7398
 7399
 7400
 7401
 7402
 7403
 7404
 7405
 7406
 7407
 7408
 7409
 7410
 7411
 7412
 7413
 7414
 7415
 7416
 7417
 7418
 7419
 7420
 7421
 7422
 7423
 7424
 7425
 7426
 7427
 7428
 7429
 7430
 7431
 7432
 7433
 7434
 7435
 7436
 7437
 7438
 7439
 7440
 7441
 7442
 7443
 7444
 7445
 7446
 7447
 7448
 7449
 7450
 7451
 7452
 7453
 7454
 7455
 7456
 7457
 7458
 7459
 7460
 7461
 7462
 7463
 7464
 7465
 7466
 7467
 7468
 7469
 7470
 7471
 7472
 7473
 7474
 7475
 7476
 7477
 7478
 7479
 7480
 7481
 7482
 7483
 7484
 7485
 7486
 7487
 7488
 7489
 7490
 7491
 7492
 7493
 7494
 7495
 7496
 7497
 7498
 7499
 7500
 7501
 7502
 7503
 7504
 7505
 7506
 7507
 7508
 7509
 7510
 7511
 7512
 7513
 7514
 7515
 7516
 7517
 7518
 7519
 7520
 7521
 7522
 7523
 7524
 7525
 7526
 7527
 7528
 7529
 7530
 7531
 7532
 7533
 7534
 7535
 7536
 7537
 7538
 7539
 7540
 7541
 7542
 7543
 7544
 7545
 7546
 7547
 7548
 7549
 7550
 7551
 7552
 7553
 7554
 7555
 7556
 7557
 7558
 7559
 7560
 7561
 7562
 7563
 7564
 7565
 7566
 7567
 7568
 7569
 7570
 7571
 7572
 7573
 7574
 7575
 7576
 7577
 7578
 7579
 7580
 7581
 7582
 7583
 7584
 7585
 7586
 7587
 7588
 7589
 7590
 7591
 7592
 7593
 7594
 7595
 7596
 7597
 7598
 7599
 7600
 7601
 7602
 7603
 7604
 7605
 7606
 7607
 7608
 7609
 7610
 7611
 7612
 7613
 7614
 7615
 7616
 7617
 7618
 7619
 7620
 7621
 7622
 7623
 7624
 7625
 7626
 7627
 7628
 7629
 7630
 7631
 7632
 7633
 7634
 7635
 7636
 7637
 7638
 7639
 7640
 7641
 7642
 7643
 7644
 7645
 7646
 7647
 7648
 7649
 7650
 7651
 7652
 7653
 7654
 7655
 7656
 7657
 7658
 7659
 7660
 7661
 7662
 7663
 7664
 7665
 7666
 7667
 7668
 7669
 7670
 7671
 7672
 7673
 7674
 7675
 7676
 7677
 7678
 7679
 7680
 7681
 7682
 7683
 7684
 7685
 7686
 7687
 7688
 7689
 7690
 7691
 7692
 7693
 7694
 7695
 7696
 7697
 7698
 7699
 7700
 7701
 7702
 7703
 7704
 7705
 7706
 7707
 7708
 7709
 7710
 7711
 7712
 7713
 7714
 7715
 7716
 7717
 7718
 7719
 7720
 7721
 7722
 7723
 7724
 7725
 7726
 7727
 7728
 7729
 7730
 7731
 7732
 7733
 7734
 7735
 7736
 7737
 7738
 7739
 7740
 7741
 7742
 7743
 7744
 7745
 7746
 7747
 7748
 7749
 7750
 7751
 7752
 7753
 7754
 7755
 7756
 7757
 7758
 7759
 7760
 7761
 7762
 7763
 7764
 7765
 7766
 7767
 7768
 7769
 7770
 7771
 7772
 7773
 7774
 7775
 7776
 7777
 7778
 7779
 7780
 7781
 7782
 7783
 7784
 7785
 7786
 7787
 7788
 7789
 7790
 7791
 7792
 7793
 7794
 7795
 7796
 7797
 7798
 7799
 7800
 7801
 7802
 7803
 7804
 7805
 7806
 7807
 7808
 7809
 7810
 7811
 7812
 7813
 7814
 7815
 7816
 7817
 7818
 7819
 7820
 7821
 7822
 7823
 7824
 7825
 7826
 7827
 7828
 7829
 7830
 7831
 7832
 7833
 7834
 7835
 7836
 7837
 7838
 7839
 7840
 7841
 7842
 7843
 7844
 7845
 7846
 7847
 7848
 7849
 7850
 7851
 7852
 7853
 7854
 7855
 7856
 7857
 7858
 7859
 7860
 7861
 7862
 7863
 7864
 7865
 7866
 7867
 7868
 7869
 7870
 7871
 7872
 7873
 7874
 7875
 7876
 7877
 7878
 7879
 7880
 7881
 7882
 7883
 7884
 7885
 7886
 7887
 7888
 7889
 7890
 7891
 7892
 7893
 7894
 7895
 7896
 7897
 7898
 7899
 7900
 7901
 7902
 7903
 7904
 7905
 7906
 7907
 7908
 7909
 7910
 7911
 7912
 7913
 7914
 7915
 7916
 7917
 7918
 7919
 7920
 7921
 7922
 7923
 7924
 7925
 7926
 7927
 7928
 7929
 7930
 7931
 7932
 7933
 7934
 7935
 7936
 7937
 7938
 7939
 7940
 7941
 7942
 7943
 7944
 7945
 7946
 7947
 7948
 7949
 7950
 7951
 7952
 7953
 7954
 7955
 7956
 7957
 7958
 7959
 7960
 7961
 7962
 7963
 7964
 7965
 7966
 7967
 7968
 7969
 7970
 7971
 7972
 7973
 7974
 7975
 7976
 7977
 7978
 7979
 7980
 7981
 7982
 7983
 7984
 7985
 7986
 7987
 7988
 7989
 7990
 7991
 7992
 7993
 7994
 7995
 7996
 7997
 7998
 7999
 8000
 8001
 8002
 8003
 8004
 8005
 8006
 8007
 8008
 8009
 8010
 8011
 8012
 8013
 8014
 8015
 8016
 8017
 8018
 8019
 8020
 8021
 8022
 8023
 8024
 8025
 8026
 8027
 8028
 8029
 8030
 8031
 8032
 8033
 8034
 8035
 8036
 8037
 8038
 8039
 8040
 8041
 8042
 8043
 8044
 8045
 8046
 8047
 8048
 8049
 8050
 8051
 8052
 8053
 8054
 8055
 8056
 8057
 8058
 8059
 8060
 8061
 8062
 8063
 8064
 8065
 8066
 8067
 8068
 8069
 8070
 8071
 8072
 8073
 8074
 8075
 8076
 8077
 8078
 8079
 8080
 8081
 8082
 8083
 8084
 8085
 8086
 8087
 8088
 8089
 8090
 8091
 8092
 8093
 8094
 8095
 8096
 8097
 8098
 8099
 8100
 8101
 8102
 8103
 8104
 8105
 8106
 8107
 8108
 8109
 8110
 8111
 8112
 8113
 8114
 8115
 8116
 8117
 8118
 8119
 8120
 8121
 8122
 8123
 8124
 8125
 8126
 8127
 8128
 8129
 8130
 8131
 8132
 8133
 8134
 8135
 8136
 8137
 8138
 8139
 8140
 8141
 8142
 8143
 8144
 8145
 8146
 8147
 8148
 8149
 8150
 8151
 8152
 8153
 8154
 8155
 8156
 8157
 8158
 8159
 8160
 8161
 8162
 8163
 8164
 8165
 8166
 8167
 8168
 8169
 8170
 8171
 8172
 8173
 8174
 8175
 8176
 8177
 8178
 8179
 8180
 8181
 8182
 8183
 8184
 8185
 8186
 8187
 8188
 8189
 8190
 8191
 8192
SCALARS stress_11 FLOAT     1
LOOKUP_TABLE default
 0.103172E+001
 0.103333E+001
 0.103508E+001
 0.103697E+001
 0.103902E+001
 0.104123E+001
 0.104364E+001
 0.104625E+001
 0.104910E+001
 0.105220E+001
 0.105559E+001
 0.105931E+001
 0.106338E+001
 0.106786E+001
 0.107279E+001
 0.107823E+001
 0.108424E+001
 0.109087E+001
 0.109820E+001
 0.110628E+001
 0.111516E+001
 0.112483E+001
 0.113526E+001
 0.114622E+001
 0.115728E+001
 0.116747E+001
 0.117484E+001
 0.117570E+001
 0.116217E+001
 0.111837E+001
 0.100935E+001
 0.740800E+000
 0.103416E+001
 0.103590E+001
 0.103779E+001
 0.103983E+001
 0.104203E+001
 0.104442E+001
 0.104701E+001
 0.104983E+001
 0.105289E+001
 0.105624E+001
 0.105990E+001
 0.106390E+001
 0.106830E+001
 0.107314E+001
 0.107847E+001
 0.108435E+001
 0.109085E+001
 0.109804E+001
 0.110600E+001
 0.111479E+001
 0.112449E+001
 0.113511E+001
 0.114665E+001
 0.115886E+001
 0.117153E+001
 0.118346E+001
 0.119332E+001
 0.119696E+001
 0.118768E+001
 0.114988E+001
 0.104996E+001
 0.803360E+000
 0.103663E+001
 0.103850E+001
 0.104052E+001
 0.104270E+001
 0.104507E+001
 0.104762E+001
 0.105040E+001
 0.105342E+001
 0.105670E+001
 0.106029E+001
 0.106421E+001
 0.106850E+001
 0.107322E+001
 0.107841E+001
 0.108412E+001
 0.109044E+001
 0.109743E+001
 0.110516E+001
 0.111373E+001
 0.112323E+001
 0.113371E+001
 0.114528E+001
 0.115783E+001
 0.117139E+001
 0.118542E+001
 0.119934E+001
 0.121135E+001
 0.121809E+001
 0.121300E+001
 0.118143E+001
 0.109189E+001
 0.870040E+000
 0.103910E+001
 0.104109E+001
 0.104325E+001
 0.104558E+001
 0.104810E+001
 0.105082E+001
 0.105378E+001
 0.105700E+001
 0.106050E+001
 0.106432E+001
 0.106849E+001
 0.107307E+001
 0.107810E+001
 0.108363E+001
 0.108972E+001
 0.109646E+001
 0.110392E+001
 0.111218E+001
 0.112135E+001
 0.113151E+001
 0.114279E+001
 0.115520E+001
 0.116884E+001
 0.118357E+001
 0.119911E+001
 0.121482E+001
 0.122908E+001
 0.123895E+001
 0.123810E+001
 0.121315E+001
 0.113531E+001
 0.939546E+000
 0.104155E+001
 0.104367E+001
 0.104596E+001
 0.104843E+001
 0.105110E+001
 0.105399E+001
 0.105713E+001
 0.106053E+001
 0.106424E+001
 0.106829E+001
 0.107272E+001
 0.107757E+001
 0.108289E+001
 0.108875E+001
 0.109522E+001
 0.110236E+001
 0.111027E+001
 0.111905E+001
 0.112878E+001
 0.113961E+001
 0.115161E+001
 0.116490E+001
 0.117953E+001
 0.119544E+001
 0.121243E+001
 0.122989E+001
 0.124645E+001
 0.125945E+001
 0.126300E+001
 0.124516E+001
 0.118001E+001
 0.101172E+001
 0.104396E+001
 0.104620E+001
 0.104862E+001
 0.105123E+001
 0.105404E+001
 0.105709E+001
 0.106040E+001
 0.106399E+001
 0.106791E+001
 0.107217E+001
 0.107684E+001
 0.108195E+001
 0.108756E+001
 0.109374E+001
 0.110055E+001
 0.110809E+001
 0.111643E+001
 0.112569E+001
 0.113598E+001
 0.114742E+001
 0.116014E+001
 0.117425E+001
 0.118984E+001
 0.120691E+001
 0.122530E+001
 0.124451E+001
 0.126341E+001
 0.127955E+001
 0.128776E+001
 0.127746E+001
 0.122595E+001
 0.108633E+001
 0.104631E+001
 0.104866E+001
 0.105120E+001
 0.105394E+001
 0.105690E+001
 0.106010E+001
 0.106357E+001
 0.106734E+001
 0.107144E+001
 0.107592E+001
 0.108081E+001
 0.108617E+001
 0.109206E+001
 0.109854E+001
 0.110568E+001
 0.111358E+001
 0.112234E+001
 0.113206E+001
 0.114287E+001
 0.115490E+001
 0.116830E+001
 0.118320E+001
 0.119971E+001
 0.121790E+001
 0.123767E+001
 0.125863E+001
 0.127987E+001
 0.129926E+001
 0.131236E+001
 0.131006E+001
 0.127307E+001
 0.116317E+001
 0.104856E+001
 0.105102E+001
 0.105368E+001
 0.105654E+001
 0.105963E+001
 0.106297E+001
 0.106660E+001
 0.107053E+001
 0.107482E+001
 0.107949E+001
 0.108459E+001
 0.109019E+001
 0.109633E+001
 0.110309E+001
 0.111054E+001
 0.111879E+001
 0.112793E+001
 0.113808E+001
 0.114938E+001
 0.116197E+001
 0.117601E+001
 0.119166E+001
 0.120908E+001
 0.122835E+001
 0.124947E+001
 0.127220E+001
 0.129581E+001
 0.131856E+001
 0.133681E+001
 0.134297E+001
 0.132132E+001
 0.124197E+001
 0.105068E+001
 0.105325E+001
 0.105601E+001
 0.105898E+001
 0.106220E+001
 0.106567E+001
 0.106944E+001
 0.107353E+001
 0.107798E+001
 0.108283E+001
 0.108813E+001
 0.109394E+001
 0.110032E+001
 0.110734E+001
 0.111508E+001
 0.112365E+001
 0.113315E+001
 0.114370E+001
 0.115545E+001
 0.116857E+001
 0.118322E+001
 0.119959E+001
 0.121786E+001
 0.123820E+001
 0.126067E+001
 0.128517E+001
 0.131119E+001
 0.133745E+001
 0.136112E+001
 0.137620E+001
 0.137062E+001
 0.132245E+001
 0.105264E+001
 0.105530E+001
 0.105816E+001
 0.106124E+001
 0.106457E+001
 0.106816E+001
 0.107206E+001
 0.107628E+001
 0.108089E+001
 0.108590E+001
 0.109138E+001
 0.109738E+001
 0.110398E+001
 0.111123E+001
 0.111924E+001
 0.112810E+001
 0.113792E+001
 0.114885E+001
 0.116103E+001
 0.117463E+001
 0.118985E+001
 0.120691E+001
 0.122602E+001
 0.124739E+001
 0.127121E+001
 0.129749E+001
 0.132601E+001
 0.135593E+001
 0.138527E+001
 0.140973E+001
 0.142087E+001
 0.140431E+001
 0.105441E+001
 0.105715E+001
 0.106010E+001
 0.106327E+001
 0.106669E+001
 0.107040E+001
 0.107440E+001
 0.107876E+001
 0.108349E+001
 0.108865E+001
 0.109429E+001
 0.110047E+001
 0.110725E+001
 0.111471E+001
 0.112296E+001
 0.113208E+001
 0.114220E+001
 0.115346E+001
 0.116603E+001
 0.118009E+001
 0.119586E+001
 0.121357E+001
 0.123348E+001
 0.125589E+001
 0.128104E+001
 0.130916E+001
 0.134025E+001
 0.137400E+001
 0.140929E+001
 0.144357E+001
 0.147196E+001
 0.148720E+001
 0.105595E+001
 0.105876E+001
 0.106178E+001
 0.106503E+001
 0.106854E+001
 0.107234E+001
 0.107644E+001
 0.108090E+001
 0.108575E+001
 0.109103E+001
 0.109681E+001
 0.110314E+001
 0.111008E+001
 0.111774E+001
 0.112618E+001
 0.113554E+001
 0.114593E+001
 0.115750E+001
 0.117042E+001
 0.118490E+001
 0.120118E+001
 0.121951E+001
 0.124022E+001
 0.126364E+001
 0.129015E+001
 0.132013E+001
 0.135391E+001
 0.139164E+001
 0.143316E+001
 0.147765E+001
 0.152371E+001
 0.157076E+001
 0.105724E+001
 0.106010E+001
 0.106318E+001
 0.106650E+001
 0.107008E+001
 0.107394E+001
 0.107813E+001
 0.108268E+001
 0.108762E+001
 0.109301E+001
 0.109890E+001
 0.110535E+001
 0.111244E+001
 0.112025E+001
 0.112887E+001
 0.113843E+001
 0.114905E+001
 0.116090E+001
 0.117415E+001
 0.118902E+001
 0.120577E+001
 0.122471E+001
 0.124619E+001
 0.127063E+001
 0.129852E+001
 0.133042E+001
 0.136697E+001
 0.140887E+001
 0.145688E+001
 0.151194E+001
 0.157597E+001
 0.165458E+001
 0.105823E+001
 0.106114E+001
 0.106426E+001
 0.106763E+001
 0.107126E+001
 0.107518E+001
 0.107943E+001
 0.108404E+001
 0.108906E+001
 0.109453E+001
 0.110051E+001
 0.110707E+001
 0.111427E+001
 0.112221E+001
 0.113098E+001
 0.114071E+001
 0.115154E+001
 0.116362E+001
 0.117717E+001
 0.119240E+001
 0.120961E+001
 0.122913E+001
 0.125137E+001
 0.127683E+001
 0.130613E+001
 0.134002E+001
 0.137946E+001
 0.142569E+001
 0.148042E+001
 0.154634E+001
 0.162850E+001
 0.173827E+001
 0.105890E+001
 0.106184E+001
 0.106500E+001
 0.106840E+001
 0.107206E+001
 0.107603E+001
 0.108032E+001
 0.108498E+001
 0.109005E+001
 0.109558E+001
 0.110162E+001
 0.110825E+001
 0.111554E+001
 0.112358E+001
 0.113248E+001
 0.114235E+001
 0.115335E+001
 0.116565E+001
 0.117946E+001
 0.119503E+001
 0.121268E+001
 0.123276E+001
 0.125576E+001
 0.128226E+001
 0.131299E+001
 0.134893E+001
 0.139137E+001
 0.144209E+001
 0.150377E+001
 0.158075E+001
 0.168109E+001
 0.182137E+001
 0.105924E+001
 0.106219E+001
 0.106537E+001
 0.106878E+001
 0.107247E+001
 0.107645E+001
 0.108076E+001
 0.108545E+001
 0.109055E+001
 0.109612E+001
 0.110221E+001
 0.110889E+001
 0.111624E+001
 0.112436E+001
 0.113334E+001
 0.114333E+001
 0.115448E+001
 0.116697E+001
 0.118102E+001
 0.119690E+001
 0.121496E+001
 0.123560E+001
 0.125936E+001
 0.128691E+001
 0.131912E+001
 0.135718E+001
 0.140271E+001
 0.145807E+001
 0.152686E+001
 0.161505E+001
 0.173346E+001
 0.190344E+001
 0.105923E+001
 0.106218E+001
 0.106535E+001
 0.106877E+001
 0.107245E+001
 0.107644E+001
 0.108076E+001
 0.108545E+001
 0.109056E+001
 0.109614E+001
 0.110225E+001
 0.110896E+001
 0.111635E+001
 0.112452E+001
 0.113357E+001
 0.114365E+001
 0.115492E+001
 0.116757E+001
 0.118184E+001
 0.119802E+001
 0.121648E+001
 0.123767E+001
 0.126219E+001
 0.129081E+001
 0.132454E+001
 0.136477E+001
 0.141350E+001
 0.147361E+001
 0.154964E+001
 0.164907E+001
 0.178532E+001
 0.198400E+001
 0.105885E+001
 0.106179E+001
 0.106495E+001
 0.106835E+001
 0.107202E+001
 0.107599E+001
 0.108029E+001
 0.108498E+001
 0.109008E+001
 0.109565E+001
 0.110176E+001
 0.110847E+001
 0.111588E+001
 0.112407E+001
 0.113317E+001
 0.114332E+001
 0.115469E+001
 0.116748E+001
 0.118194E+001
 0.119840E+001
 0.121725E+001
 0.123900E+001
 0.126429E+001
 0.129399E+001
 0.132927E+001
 0.137175E+001
 0.142373E+001
 0.148869E+001
 0.157201E+001
 0.168265E+001
 0.183635E+001
 0.206259E+001
 0.105813E+001
 0.106104E+001
 0.106417E+001
 0.106753E+001
 0.107117E+001
 0.107511E+001
 0.107939E+001
 0.108404E+001
 0.108911E+001
 0.109466E+001
 0.110075E+001
 0.110745E+001
 0.111485E+001
 0.112305E+001
 0.113217E+001
 0.114237E+001
 0.115381E+001
 0.116672E+001
 0.118138E+001
 0.119810E+001
 0.121734E+001
 0.123963E+001
 0.126570E+001
 0.129651E+001
 0.133337E+001
 0.137813E+001
 0.143343E+001
 0.150327E+001
 0.159389E+001
 0.171558E+001
 0.188623E+001
 0.213872E+001
 0.105707E+001
 0.105994E+001
 0.106302E+001
 0.106634E+001
 0.106994E+001
 0.107383E+001
 0.107806E+001
 0.108266E+001
 0.108769E+001
 0.109320E+001
 0.109925E+001
 0.110591E+001
 0.111329E+001
 0.112148E+001
 0.113061E+001
 0.114084E+001
 0.115234E+001
 0.116536E+001
 0.118019E+001
 0.119717E+001
 0.121679E+001
 0.123963E+001
 0.126648E+001
 0.129841E+001
 0.133688E+001
 0.138394E+001
 0.144259E+001
 0.151731E+001
 0.161516E+001
 0.174765E+001
 0.193461E+001
 0.221190E+001
 0.105570E+001
 0.105852E+001
 0.106154E+001
 0.106481E+001
 0.106834E+001
 0.107218E+001
 0.107635E+001
 0.108089E+001
 0.108586E+001
 0.109131E+001
 0.109731E+001
 0.110393E+001
 0.111127E+001
 0.111943E+001
 0.112855E+001
 0.113879E+001
 0.115035E+001
 0.116347E+001
 0.117846E+001
 0.119569E+001
 0.121568E+001
 0.123907E+001
 0.126671E+001
 0.129977E+001
 0.133985E+001
 0.138922E+001
 0.145120E+001
 0.153075E+001
 0.163567E+001
 0.177861E+001
 0.198112E+001
 0.228166E+001
 0.105407E+001
 0.105682E+001
 0.105978E+001
 0.106298E+001
 0.106645E+001
 0.107021E+001
 0.107431E+001
 0.107878E+001
 0.108368E+001
 0.108907E+001
 0.109500E+001
 0.110156E+001
 0.110885E+001
 0.111698E+001
 0.112608E+001
 0.113633E+001
 0.114792E+001
 0.116113E+001
 0.117627E+001
 0.119375E+001
 0.121411E+001
 0.123804E+001
 0.126647E+001
 0.130065E+001
 0.134233E+001
 0.139399E+001
 0.145925E+001
 0.154352E+001
 0.165529E+001
 0.180823E+001
 0.202541E+001
 0.234753E+001
 0.105222E+001
 0.105490E+001
 0.105779E+001
 0.106092E+001
 0.106431E+001
 0.106799E+001
 0.107201E+001
 0.107641E+001
 0.108123E+001
 0.108654E+001
 0.109240E+001
 0.109890E+001
 0.110613E+001
 0.111421E+001
 0.112328E+001
 0.113353E+001
 0.114516E+001
 0.115845E+001
 0.117373E+001
 0.119145E+001
 0.121217E+001
 0.123664E+001
 0.126584E+001
 0.130113E+001
 0.134438E+001
 0.139828E+001
 0.146672E+001
 0.155555E+001
 0.167386E+001
 0.183624E+001
 0.206710E+001
 0.240906E+001
 0.105023E+001
 0.105283E+001
 0.105564E+001
 0.105869E+001
 0.106200E+001
 0.106561E+001
 0.106954E+001
 0.107386E+001
 0.107860E+001
 0.108382E+001
 0.108961E+001
 0.109603E+001
 0.110320E+001
 0.111123E+001
 0.112027E+001
 0.113051E+001
 0.114217E+001
 0.115553E+001
 0.117096E+001
 0.118891E+001
 0.120998E+001
 0.123496E+001
 0.126492E+001
 0.130128E+001
 0.134606E+001
 0.140211E+001
 0.147359E+001
 0.156674E+001
 0.169120E+001
 0.186238E+001
 0.210584E+001
 0.246582E+001
 0.104816E+001
 0.105069E+001
 0.105342E+001
 0.105639E+001
 0.105961E+001
 0.106314E+001
 0.106699E+001
 0.107122E+001
 0.107587E+001
 0.108102E+001
 0.108672E+001
 0.109308E+001
 0.110018E+001
 0.110816E+001
 0.111716E+001
 0.112739E+001
 0.113907E+001
 0.115251E+001
 0.116807E+001
 0.118624E+001
 0.120765E+001
 0.123313E+001
 0.126380E+001
 0.130118E+001
 0.134741E+001
 0.140549E+001
 0.147983E+001
 0.157701E+001
 0.170716E+001
 0.188640E+001
 0.214129E+001
 0.251739E+001
 0.104610E+001
 0.104855E+001
 0.105121E+001
 0.105409E+001
 0.105724E+001
 0.106068E+001
 0.106445E+001
 0.106860E+001
 0.107317E+001
 0.107824E+001
 0.108386E+001
 0.109014E+001
 0.109718E+001
 0.110511E+001
 0.111408E+001
 0.112430E+001
 0.113600E+001
 0.114950E+001
 0.116519E+001
 0.118356E+001
 0.120529E+001
 0.123124E+001
 0.126258E+001
 0.130092E+001
 0.134848E+001
 0.140844E+001
 0.148540E+001
 0.158626E+001
 0.172157E+001
 0.190805E+001
 0.217310E+001
 0.256341E+001
 0.104413E+001
 0.104651E+001
 0.104909E+001
 0.105190E+001
 0.105497E+001
 0.105834E+001
 0.106203E+001
 0.106610E+001
 0.107060E+001
 0.107559E+001
 0.108114E+001
 0.108736E+001
 0.109434E+001
 0.110221E+001
 0.111116E+001
 0.112136E+001
 0.113308E+001
 0.114664E+001
 0.116244E+001
 0.118101E+001
 0.120302E+001
 0.122939E+001
 0.126135E+001
 0.130054E+001
 0.134931E+001
 0.141096E+001
 0.149027E+001
 0.159440E+001
 0.173427E+001
 0.192710E+001
 0.220099E+001
 0.260352E+001
 0.104234E+001
 0.104465E+001
 0.104716E+001
 0.104991E+001
 0.105291E+001
 0.105620E+001
 0.105983E+001
 0.106383E+001
 0.106826E+001
 0.107318E+001
 0.107867E+001
 0.108482E+001
 0.109175E+001
 0.109959E+001
 0.110850E+001
 0.111870E+001
 0.113044E+001
 0.114405E+001
 0.115995E+001
 0.117868E+001
 0.120095E+001
 0.122769E+001
 0.126018E+001
 0.130013E+001
 0.134995E+001
 0.141306E+001
 0.149440E+001
 0.160134E+001
 0.174510E+001
 0.194333E+001
 0.222467E+001
 0.263743E+001
 0.104079E+001
 0.104304E+001
 0.104550E+001
 0.104819E+001
 0.105113E+001
 0.105437E+001
 0.105794E+001
 0.106188E+001
 0.106625E+001
 0.107111E+001
 0.107655E+001
 0.108265E+001
 0.108954E+001
 0.109734E+001
 0.110623E+001
 0.111641E+001
 0.112817E+001
 0.114182E+001
 0.115781E+001
 0.117668E+001
 0.119916E+001
 0.122622E+001
 0.125915E+001
 0.129973E+001
 0.135042E+001
 0.141474E+001
 0.149775E+001
 0.160700E+001
 0.175394E+001
 0.195655E+001
 0.224391E+001
 0.266487E+001
 0.103957E+001
 0.104177E+001
 0.104419E+001
 0.104683E+001
 0.104973E+001
 0.105292E+001
 0.105644E+001
 0.106033E+001
 0.106466E+001
 0.106948E+001
 0.107487E+001
 0.108094E+001
 0.108779E+001
 0.109556E+001
 0.110443E+001
 0.111461E+001
 0.112638E+001
 0.114007E+001
 0.115612E+001
 0.117510E+001
 0.119775E+001
 0.122505E+001
 0.125833E+001
 0.129939E+001
 0.135076E+001
 0.141600E+001
 0.150030E+001
 0.161130E+001
 0.176067E+001
 0.196661E+001
 0.225852E+001
 0.268565E+001
 0.103872E+001
 0.104089E+001
 0.104328E+001
 0.104589E+001
 0.104876E+001
 0.105191E+001
 0.105540E+001
 0.105927E+001
 0.106356E+001
 0.106835E+001
 0.107372E+001
 0.107975E+001
 0.108658E+001
 0.109433E+001
 0.110319E+001
 0.111337E+001
 0.112514E+001
 0.113885E+001
 0.115495E+001
 0.117401E+001
 0.119677E+001
 0.122424E+001
 0.125775E+001
 0.129914E+001
 0.135097E+001
 0.141684E+001
 0.150201E+001
 0.161421E+001
 0.176521E+001
 0.197339E+001
 0.226835E+001
 0.269959E+001
 0.103828E+001
 0.104044E+001
 0.104281E+001
 0.104541E+001
 0.104826E+001
 0.105140E+001
 0.105487E+001
 0.105872E+001
 0.106300E+001
 0.106777E+001
 0.107312E+001
 0.107915E+001
 0.108596E+001
 0.109370E+001
 0.110255E+001
 0.111273E+001
 0.112451E+001
 0.113823E+001
 0.115436E+001
 0.117345E+001
 0.119627E+001
 0.122382E+001
 0.125745E+001
 0.129901E+001
 0.135107E+001
 0.141727E+001
 0.150287E+001
 0.161567E+001
 0.176750E+001
 0.197680E+001
 0.227329E+001
 0.270658E+001
 0.103828E+001
 0.104044E+001
 0.104281E+001
 0.104541E+001
 0.104826E+001
 0.105140E+001
 0.105487E+001
 0.105872E+001
 0.106300E+001
 0.106777E+001
 0.107312E+001
 0.107915E+001
 0.108596E+001
 0.109370E+001
 0.110255E+001
 0.111273E+001
 0.112451E+001
 0.113823E+001
 0.115436E+001
 0.117345E+001
 0.119627E+001
 0.122382E+001
 0.125745E+001
 0.129901E+001
 0.135107E+001
 0.141727E+001
 0.150287E+001
 0.161567E+001
 0.176750E+001
 0.197680E+001
 0.227329E+001
 0.270658E+001
 0.103872E+001
 0.104089E+001
 0.104328E+001
 0.104589E+001
 0.104876E+001
 0.105191E+001
 0.105540E+001
 0.105927E+001
 0.106356E+001
 0.106835E+001
 0.107372E+001
 0.107975E+001
 0.108658E+001
 0.109433E+001
 0.110319E+001
 0.111337E+001
 0.112514E+001
 0.113885E+001
 0.115495E+001
 0.117401E+001
 0.119677E+001
 0.122424E+001
 0.125775E+001
 0.129914E+001
 0.135097E+001
 0.141684E+001
 0.150201E+001
 0.161421E+001
 0.176521E+001
 0.197339E+001
 0.226835E+001
 0.269959E+001
 0.103957E+001
 0.104177E+001
 0.104419E+001
 0.104683E+001
 0.104973E+001
 0.105292E+001
 0.105644E+001
 0.106033E+001
 0.106466E+001
 0.106948E+001
 0.107487E+001
 0.108094E+001
 0.108779E+001
 0.109556E+001
 0.110443E+001
 0.111461E+001
 0.112638E+001
 0.114007E+001
 0.115612E+001
 0.117510E+001
 0.119775E+001
 0.122505E+001
 0.125833E+001
 0.129939E+001
 0.135076E+001
 0.141600E+001
 0.150030E+001
 0.161130E+001
 0.176067E+001
 0.196661E+001
 0.225852E+001
 0.268565E+001
 0.104079E+001
 0.104304E+001
 0.104550E+001
 0.104819E+001
 0.105113E+001
 0.105437E+001
 0.105794E+001
 0.106188E+001
 0.106625E+001
 0.107111E+001
 0.107655E+001
 0.108265E+001
 0.108954E+001
 0.109734E+001
 0.110623E+001
 0.111641E+001
 0.112817E+001
 0.114182E+001
 0.115781E+001
 0.117668E+001
 0.119916E+001
 0.122622E+001
 0.125915E+001
 0.129973E+001
 0.135042E+001
 0.141474E+001
 0.149775E+001
 0.160700E+001
 0.175394E+001
 0.195655E+001
 0.224391E+001
 0.266487E+001
 0.104234E+001
 0.104465E+001
 0.104716E+001
 0.104991E+001
 0.105291E+001
 0.105620E+001
 0.105983E+001
 0.106383E+001
 0.106826E+001
 0.107318E+001
 0.107867E+001
 0.108482E+001
 0.109175E+001
 0.109959E+001
 0.110850E+001
 0.111870E+001
 0.113044E+001
 0.114405E+001
 0.115995E+001
 0.117868E+001
 0.120095E+001
 0.122769E+001
 0.126018E+001
 0.130013E+001
 0.134995E+001
 0.141306E+001
 0.149440E+001
 0.160134E+001
 0.174510E+001
 0.194333E+001
 0.222467E+001
 0.263743E+001
 0.104413E+001
 0.104651E+001
 0.104909E+001
 0.105190E+001
 0.105497E+001
 0.105834E+001
 0.106203E+001
 0.106610E+001
 0.107060E+001
 0.107559E+001
 0.108114E+001
 0.108736E+001
 0.109434E+001
 0.110221E+001
 0.111116E+001
 0.112136E+001
 0.113308E+001
 0.114664E+001
 0.116244E+001
 0.118101E+001
 0.120302E+001
 0.122939E+001
 0.126135E+001
 0.130054E+001
 0.134931E+001
 0.141096E+001
 0.149027E+001
 0.159440E+001
 0.173427E+001
 0.192710E+001
 0.220099E+001
 0.260352E+001
 0.104610E+001
 0.104855E+001
 0.105121E+001
 0.105409E+001
 0.105724E+001
 0.106068E+001
 0.106445E+001
 0.106860E+001
 0.107317E+001
 0.107824E+001
 0.108386E+001
 0.109014E+001
 0.109718E+001
 0.110511E+001
 0.111408E+001
 0.112430E+001
 0.113600E+001
 0.114950E+001
 0.116519E+001
 0.118356E+001
 0.120529E+001
 0.123124E+001
 0.126258E+001
 0.130092E+001
 0.134848E+001
 0.140844E+001
 0.148540E+001
 0.158626E+001
 0.172157E+001
 0.190805E+001
 0.217310E+001
 0.256341E+001
 0.104816E+001
 0.105069E+001
 0.105342E+001
 0.105639E+001
 0.105961E+001
 0.106314E+001
 0.106699E+001
 0.107122E+001
 0.107587E+001
 0.108102E+001
 0.108672E+001
 0.109308E+001
 0.110018E+001
 0.110816E+001
 0.111716E+001
 0.112739E+001
 0.113907E+001
 0.115251E+001
 0.116807E+001
 0.118624E+001
 0.120765E+001
 0.123313E+001
 0.126380E+001
 0.130118E+001
 0.134741E+001
 0.140549E+001
 0.147983E+001
 0.157701E+001
 0.170716E+001
 0.188640E+001
 0.214129E+001
 0.251739E+001
 0.105023E+001
 0.105283E+001
 0.105564E+001
 0.105869E+001
 0.106200E+001
 0.106561E+001
 0.106954E+001
 0.107386E+001
 0.107860E+001
 0.108382E+001
 0.108961E+001
 0.109603E+001
 0.110320E+001
 0.111123E+001
 0.112027E+001
 0.113051E+001
 0.114217E+001
 0.115553E+001
 0.117096E+001
 0.118891E+001
 0.120998E+001
 0.123496E+001
 0.126492E+001
 0.130128E+001
 0.134606E+001
 0.140211E+001
 0.147359E+001
 0.156674E+001
 0.169120E+001
 0.186238E+001
 0.210584E+001
 0.246582E+001
 0.105222E+001
 0.105490E+001
 0.105779E+001
 0.106092E+001
 0.106431E+001
 0.106799E+001
 0.107201E+001
 0.107641E+001
 0.108123E+001
 0.108654E+001
 0.109240E+001
 0.109890E+001
 0.110613E+001
 0.111421E+001
 0.112328E+001
 0.113353E+001
 0.114516E+001
 0.115845E+001
 0.117373E+001
 0.119145E+001
 0.121217E+001
 0.123664E+001
 0.126584E+001
 0.130113E+001
 0.134438E+001
 0.139828E+001
 0.146672E+001
 0.155555E+001
 0.167386E+001
 0.183624E+001
 0.206710E+001
 0.240906E+001
 0.105407E+001
 0.105682E+001
 0.105978E+001
 0.106298E+001
 0.106645E+001
 0.107021E+001
 0.107431E+001
 0.107878E+001
 0.108368E+001
 0.108907E+001
 0.109500E+001
 0.110156E+001
 0.110885E+001
 0.111698E+001
 0.112608E+001
 0.113633E+001
 0.114792E+001
 0.116113E+001
 0.117627E+001
 0.119375E+001
 0.121411E+001
 0.123804E+001
 0.126647E+001
 0.130065E+001
 0.134233E+001
 0.139399E+001
 0.145925E+001
 0.154352E+001
 0.165529E+001
 0.180823E+001
 0.202541E+001
 0.234753E+001
 0.105570E+001
 0.105852E+001
 0.106154E+001
 0.106481E+001
 0.106834E+001
 0.107218E+001
 0.107635E+001
 0.108089E+001
 0.108586E+001
 0.109131E+001
 0.109731E+001
 0.110393E+001
 0.111127E+001
 0.111943E+001
 0.112855E+001
 0.113879E+001
 0.115035E+001
 0.116347E+001
 0.117846E+001
 0.119569E+001
 0.121568E+001
 0.123907E+001
 0.126671E+001
 0.129977E+001
 0.133985E+001
 0.138922E+001
 0.145120E+001
 0.153075E+001
 0.163567E+001
 0.177861E+001
 0.198112E+001
 0.228166E+001
 0.105707E+001
 0.105994E+001
 0.106302E+001
 0.106634E+001
 0.106994E+001
 0.107383E+001
 0.107806E+001
 0.108266E+001
 0.108769E+001
 0.109320E+001
 0.109925E+001
 0.110591E+001
 0.111329E+001
 0.112148E+001
 0.113061E+001
 0.114084E+001
 0.115234E+001
 0.116536E+001
 0.118019E+001
 0.119717E+001
 0.121679E+001
 0.123963E+001
 0.126648E+001
 0.129841E+001
 0.133688E+001
 0.138394E+001
 0.144259E+001
 0.151731E+001
 0.161516E+001
 0.174765E+001
 0.193461E+001
 0.221190E+001
 0.105813E+001
 0.106104E+001
 0.106417E+001
 0.106753E+001
 0.107117E+001
 0.107511E+001
 0.107939E+001
 0.108404E+001
 0.108911E+001
 0.109466E+001
 0.110075E+001
 0.110745E+001
 0.111485E+001
 0.112305E+001
 0.113217E+001
 0.114237E+001
 0.115381E+001
 0.116672E+001
 0.118138E+001
 0.119810E+001
 0.121734E+001
 0.123963E+001
 0.126570E+001
 0.129651E+001
 0.133337E+001
 0.137813E+001
 0.143343E+001
 0.150327E+001
 0.159389E+001
 0.171558E+001
 0.188623E+001
 0.213872E+001
 0.105885E+001
 0.106179E+001
 0.106495E+001
 0.106835E+001
 0.107202E+001
 0.107599E+001
 0.108029E+001
 0.108498E+001
 0.109008E+001
 0.109565E+001
 0.110176E+001
 0.110847E+001
 0.111588E+001
 0.112407E+001
 0.113317E+001
 0.114332E+001
 0.115469E+001
 0.116748E+001
 0.118194E+001
 0.119840E+001
 0.121725E+001
 0.123900E+001
 0.126429E+001
 0.129399E+001
 0.132927E+001
 0.137175E+001
 0.142373E+001
 0.148869E+001
 0.157201E+001
 0.168265E+001
 0.183635E+001
 0.206259E+001
 0.105923E+001
 0.106218E+001
 0.106535E+001
 0.106877E+001
 0.107245E+001
 0.107644E+001
 0.108076E+001
 0.108545E+001
 0.109056E+001
 0.109614E+001
 0.110225E+001
 0.110896E+001
 0.111635E+001
 0.112452E+001
 0.113357E+001
 0.114365E+001
 0.115492E+001
 0.116757E+001
 0.118184E+001
 0.119802E+001
 0.121648E+001
 0.123767E+001
 0.126219E+001
 0.129081E+001
 0.132454E+001
 0.136477E+001
 0.141350E+001
 0.147361E+001
 0.154964E+001
 0.164907E+001
 0.178532E+001
 0.198400E+001
 0.105924E+001
 0.106219E+001
 0.106537E+001
 0.106878E+001
 0.107247E+001
 0.107645E+001
 0.108076E+001
 0.108545E+001
 0.109055E+001
 0.109612E+001
 0.110221E+001
 0.110889E+001
 0.111624E+001
 0.112436E+001
 0.113334E+001
 0.114333E+001
 0.115448E+001
 0.116697E+001
 0.118102E+001
 0.119690E+001
 0.121496E+001
 0.123560E+001
 0.125936E+001
 0.128691E+001
 0.131912E+001
 0.135718E+001
 0.140271E+001
 0.145807E+001
 0.152686E+001
 0.161505E+001
 0.173346E+001
 0.190344E+001
 0.105890E+001
 0.106184E+001
 0.106500E+001
 0.106840E+001
 0.107206E+001
 0.107603E+001
 0.108032E+001
 0.108498E+001
 0.109005E+001
 0.109558E+001
 0.110162E+001
 0.110825E+001
 0.111554E+001
 0.112358E+001
 0.113248E+001
 0.114235E+001
 0.115335E+001
 0.116565E+001
 0.117946E+001
 0.119503E+001
 0.121268E+001
 0.123276E+001
 0.125576E+001
 0.128226E+001
 0.131299E+001
 0.134893E+001
 0.139137E+001
 0.144209E+001
 0.150377E+001
 0.158075E+001
 0.168109E+001
 0.182137E+001
 0.105823E+001
 0.106114E+001
 0.106426E+001
 0.106763E+001
 0.107126E+001
 0.107518E+001
 0.107943E+001
 0.108404E+001
 0.108906E+001
 0.109453E+001
 0.110051E+001
 0.110707E+001
 0.111427E+001
 0.112221E+001
 0.113098E+001
 0.114071E+001
 0.115154E+001
 0.116362E+001
 0.117717E+001
 0.119240E+001
 0.120961E+001
 0.122913E+001
 0.125137E+001
 0.127683E+001
 0.130613E+001
 0.134002E+001
 0.137946E+001
 0.142569E+001
 0.148042E+001
 0.154634E+001
 0.162850E+001
 0.173827E+001
 0.105724E+001
 0.106010E+001
 0.106318E+001
 0.106650E+001
 0.107008E+001
 0.107394E+001
 0.107813E+001
 0.108268E+001
 0.108762E+001
 0.109301E+001
 0.109890E+001
 0.110535E+001
 0.111244E+001
 0.112025E+001
 0.112887E+001
 0.113843E+001
 0.114905E+001
 0.116090E+001
 0.117415E+001
 0.118902E+001
 0.120577E+001
 0.122471E+001
 0.124619E+001
 0.127063E+001
 0.129852E+001
 0.133042E+001
 0.136697E+001
 0.140887E+001
 0.145688E+001
 0.151194E+001
 0.157597E+001
 0.165458E+001
 0.105595E+001
 0.105876E+001
 0.106178E+001
 0.106503E+001
 0.106854E+001
 0.107234E+001
 0.107644E+001
 0.108090E+001
 0.108575E+001
 0.109103E+001
 0.109681E+001
 0.110314E+001
 0.111008E+001
 0.111774E+001
 0.112618E+001
 0.113554E+001
 0.114593E+001
 0.115750E+001
 0.117042E+001
 0.118490E+001
 0.120118E+001
 0.121951E+001
 0.124022E+001
 0.126364E+001
 0.129015E+001
 0.132013E+001
 0.135391E+001
 0.139164E+001
 0.143316E+001
 0.147765E+001
 0.152371E+001
 0.157076E+001
 0.105441E+001
 0.105715E+001
 0.106010E+001
 0.106327E+001
 0.106669E+001
 0.107040E+001
 0.107440E+001
 0.107876E+001
 0.108349E+001
 0.108865E+001
 0.109429E+001
 0.110047E+001
 0.110725E+001
 0.111471E+001
 0.112296E+001
 0.113208E+001
 0.114220E+001
 0.115346E+001
 0.116603E+001
 0.118009E+001
 0.119586E+001
 0.121357E+001
 0.123348E+001
 0.125589E+001
 0.128104E+001
 0.130916E+001
 0.134025E+001
 0.137400E+001
 0.140929E+001
 0.144357E+001
 0.147196E+001
 0.148720E+001
 0.105264E+001
 0.105530E+001
 0.105816E+001
 0.106124E+001
 0.106457E+001
 0.106816E+001
 0.107206E+001
 0.107628E+001
 0.108089E+001
 0.108590E+001
 0.109138E+001
 0.109738E+001
 0.110398E+001
 0.111123E+001
 0.111924E+001
 0.112810E+001
 0.113792E+001
 0.114885E+001
 0.116103E+001
 0.117463E+001
 0.118985E+001
 0.120691E+001
 0.122602E+001
 0.124739E+001
 0.127121E+001
 0.129749E+001
 0.132601E+001
 0.135593E+001
 0.138527E+001
 0.140973E+001
 0.142087E+001
 0.140431E+001
 0.105068E+001
 0.105325E+001
 0.105601E+001
 0.105898E+001
 0.106220E+001
 0.106567E+001
 0.106944E+001
 0.107353E+001
 0.107798E+001
 0.108283E+001
 0.108813E+001
 0.109394E+001
 0.110032E+001
 0.110734E+001
 0.111508E+001
 0.112365E+001
 0.113315E+001
 0.114370E+001
 0.115545E+001
 0.116857E+001
 0.118322E+001
 0.119959E+001
 0.121786E+001
 0.123820E+001
 0.126067E+001
 0.128517E+001
 0.131119E+001
 0.133745E+001
 0.136112E+001
 0.137620E+001
 0.137062E+001
 0.132245E+001
 0.104856E+001
 0.105102E+001
 0.105368E+001
 0.105654E+001
 0.105963E+001
 0.106297E+001
 0.106660E+001
 0.107053E+001
 0.107482E+001
 0.107949E+001
 0.108459E+001
 0.109019E+001
 0.109633E+001
 0.110309E+001
 0.111054E+001
 0.111879E+001
 0.112793E+001
 0.113808E+001
 0.114938E+001
 0.116197E+001
 0.117601E+001
 0.119166E+001
 0.120908E+001
 0.122835E+001
 0.124947E+001
 0.127220E+001
 0.129581E+001
 0.131856E+001
 0.133681E+001
 0.134297E+001
 0.132132E+001
 0.124197E+001
 0.104631E+001
 0.104866E+001
 0.105120E+001
 0.105394E+001
 0.105690E+001
 0.106010E+001
 0.106357E+001
 0.106734E+001
 0.107144E+001
 0.107592E+001
 0.108081E+001
 0.108617E+001
 0.109206E+001
 0.109854E+001
 0.110568E+001
 0.111358E+001
 0.112234E+001
 0.113206E+001
 0.114287E+001
 0.115490E+001
 0.116830E+001
 0.118320E+001
 0.119971E+001
 0.121790E+001
 0.123767E+001
 0.125863E+001
 0.127987E+001
 0.129926E+001
 0.131236E+001
 0.131006E+001
 0.127307E+001
 0.116317E+001
 0.104396E+001
 0.104620E+001
 0.104862E+001
 0.105123E+001
 0.105404E+001
 0.105709E+001
 0.106040E+001
 0.106399E+001
 0.106791E+001
 0.107217E+001
 0.107684E+001
 0.108195E+001
 0.108756E+001
 0.109374E+001
 0.110055E+001
 0.110809E+001
 0.111643E+001
 0.112569E+001
 0.113598E+001
 0.114742E+001
 0.116014E+001
 0.117425E+001
 0.118984E+001
 0.120691E+001
 0.122530E+001
 0.124451E+001
 0.126341E+001
 0.127955E+001
 0.128776E+001
 0.127746E+001
 0.122595E+001
 0.108633E+001
 0.104155E+001
 0.104367E+001
 0.104596E+001
 0.104843E+001
 0.105110E+001
 0.105399E+001
 0.105713E+001
 0.106053E+001
 0.106424E+001
 0.106829E+001
 0.107272E+001
 0.107757E+001
 0.108289E+001
 0.108875E+001
 0.109522E+001
 0.110236E+001
 0.111027E+001
 0.111905E+001
 0.112878E+001
 0.113961E+001
 0.115161E+001
 0.116490E+001
 0.117953E+001
 0.119544E+001
 0.121243E+001
 0.122989E+001
 0.124645E+001
 0.125945E+001
 0.126300E+001
 0.124516E+001
 0.118001E+001
 0.101172E+001
 0.103910E+001
 0.104109E+001
 0.104325E+001
 0.104558E+001
 0.104810E+001
 0.105082E+001
 0.105378E+001
 0.105700E+001
 0.106050E+001
 0.106432E+001
 0.106849E+001
 0.107307E+001
 0.107810E+001
 0.108363E+001
 0.108972E+001
 0.109646E+001
 0.110392E+001
 0.111218E+001
 0.112135E+001
 0.113151E+001
 0.114279E+001
 0.115520E+001
 0.116884E+001
 0.118357E+001
 0.119911E+001
 0.121482E+001
 0.122908E+001
 0.123895E+001
 0.123810E+001
 0.121315E+001
 0.113531E+001
 0.939546E+000
 0.103663E+001
 0.103850E+001
 0.104052E+001
 0.104270E+001
 0.104507E+001
 0.104762E+001
 0.105040E+001
 0.105342E+001
 0.105670E+001
 0.106029E+001
 0.106421E+001
 0.106850E+001
 0.107322E+001
 0.107841E+001
 0.108412E+001
 0.109044E+001
 0.109743E+001
 0.110516E+001
 0.111373E+001
 0.112323E+001
 0.113371E+001
 0.114528E+001
 0.115783E+001
 0.117139E+001
 0.118542E+001
 0.119934E+001
 0.121135E+001
 0.121809E+001
 0.121300E+001
 0.118143E+001
 0.109189E+001
 0.870040E+000
 0.103416E+001
 0.103590E+001
 0.103779E+001
 0.103983E+001
 0.104203E+001
 0.104442E+001
 0.104701E+001
 0.104983E+001
 0.105289E+001
 0.105624E+001
 0.105990E+001
 0.106390E+001
 0.106830E+001
 0.107314E+001
 0.107847E+001
 0.108435E+001
 0.109085E+001
 0.109804E+001
 0.110600E+001
 0.111479E+001
 0.112449E+001
 0.113511E+001
 0.114665E+001
 0.115886E+001
 0.117153E+001
 0.118346E+001
 0.119332E+001
 0.119696E+001
 0.118768E+001
 0.114988E+001
 0.104996E+001
 0.803360E+000
 0.103172E+001
 0.103333E+001
 0.103508E+001
 0.103697E+001
 0.103902E+001
 0.104123E+001
 0.104364E+001
 0.104625E+001
 0.104910E+001
 0.105220E+001
 0.105559E+001
 0.105931E+001
 0.106338E+001
 0.106786E+001
 0.107279E+001
 0.107823E+001
 0.108424E+001
 0.109087E+001
 0.109820E+001
 0.110628E+001
 0.111516E+001
 0.112483E+001
 0.113526E+001
 0.114622E+001
 0.115728E+001
 0.116747E+001
 0.117484E+001
 0.117570E+001
 0.116217E+001
 0.111837E+001
 0.100935E+001
 0.740800E+000
 0.103016E+001
 0.103169E+001
 0.103335E+001
 0.103513E+001
 0.103706E+001
 0.103915E+001
 0.104142E+001
 0.104388E+001
 0.104655E+001
 0.104947E+001
 0.105265E+001
 0.105613E+001
 0.105994E+001
 0.106411E+001
 0.106871E+001
 0.107376E+001
 0.107932E+001
 0.108544E+001
 0.109217E+001
 0.109955E+001
 0.110759E+001
 0.111628E+001
 0.112549E+001
 0.113501E+001
 0.114421E+001
 0.115214E+001
 0.115650E+001
 0.115354E+001
 0.113463E+001
 0.108378E+001
 0.963461E+000
 0.680224E+000
 0.102929E+001
 0.103076E+001
 0.103235E+001
 0.103406E+001
 0.103591E+001
 0.103790E+001
 0.104006E+001
 0.104239E+001
 0.104493E+001
 0.104769E+001
 0.105069E+001
 0.105396E+001
 0.105753E+001
 0.106143E+001
 0.106571E+001
 0.107038E+001
 0.107550E+001
 0.108109E+001
 0.108720E+001
 0.109381E+001
 0.110095E+001
 0.110848E+001
 0.111633E+001
 0.112400E+001
 0.113107E+001
 0.113593E+001
 0.113677E+001
 0.112852E+001
 0.110340E+001
 0.104351E+001
 0.911482E+000
 0.618104E+000
 0.102814E+001
 0.102954E+001
 0.103104E+001
 0.103266E+001
 0.103439E+001
 0.103627E+001
 0.103829E+001
 0.104048E+001
 0.104285E+001
 0.104541E+001
 0.104820E+001
 0.105122E+001
 0.105451E+001
 0.105809E+001
 0.106199E+001
 0.106623E+001
 0.107084E+001
 0.107584E+001
 0.108122E+001
 0.108699E+001
 0.109306E+001
 0.109939E+001
 0.110561E+001
 0.111147E+001
 0.111598E+001
 0.111794E+001
 0.111471E+001
 0.110146E+001
 0.106991E+001
 0.100112E+001
 0.859783E+000
 0.556991E+000
 0.102668E+001
 0.102798E+001
 0.102937E+001
 0.103087E+001
 0.103248E+001
 0.103421E+001
 0.103608E+001
 0.103809E+001
 0.104025E+001
 0.104259E+001
 0.104512E+001
 0.104786E+001
 0.105082E+001
 0.105403E+001
 0.105749E+001
 0.106123E+001
 0.106526E+001
 0.106957E+001
 0.107416E+001
 0.107895E+001
 0.108391E+001
 0.108881E+001
 0.109340E+001
 0.109714E+001
 0.109910E+001
 0.109788E+001
 0.109045E+001
 0.107233E+001
 0.103394E+001
 0.957573E+000
 0.807206E+000
 0.498930E+000
 0.102485E+001
 0.102604E+001
 0.102731E+001
 0.102867E+001
 0.103013E+001
 0.103169E+001
 0.103336E+001
 0.103516E+001
 0.103709E+001
 0.103917E+001
 0.104141E+001
 0.104381E+001
 0.104639E+001
 0.104917E+001
 0.105214E+001
 0.105531E+001
 0.105868E+001
 0.106223E+001
 0.106591E+001
 0.106966E+001
 0.107335E+001
 0.107674E+001
 0.107952E+001
 0.108101E+001
 0.108032E+001
 0.107566E+001
 0.106417E+001
 0.104085E+001
 0.996077E+000
 0.912540E+000
 0.754397E+000
 0.444020E+000
 0.102264E+001
 0.102369E+001
 0.102481E+001
 0.102600E+001
 0.102728E+001
 0.102864E+001
 0.103010E+001
 0.103165E+001
 0.103331E+001
 0.103509E+001
 0.103698E+001
 0.103901E+001
 0.104116E+001
 0.104345E+001
 0.104586E+001
 0.104840E+001
 0.105103E+001
 0.105373E+001
 0.105642E+001
 0.105901E+001
 0.106132E+001
 0.106310E+001
 0.106390E+001
 0.106307E+001
 0.105951E+001
 0.105138E+001
 0.103570E+001
 0.100720E+001
 0.956385E+000
 0.866179E+000
 0.701743E+000
 0.392409E+000
 0.101999E+001
 0.102088E+001
 0.102183E+001
 0.102283E+001
 0.102390E+001
 0.102503E+001
 0.102623E+001
 0.102751E+001
 0.102886E+001
 0.103029E+001
 0.103180E+001
 0.103339E+001
 0.103506E+001
 0.103680E+001
 0.103859E+001
 0.104042E+001
 0.104224E+001
 0.104400E+001
 0.104561E+001
 0.104693E+001
 0.104776E+001
 0.104779E+001
 0.104652E+001
 0.104323E+001
 0.103669E+001
 0.102502E+001
 0.100509E+001
 0.971510E+000
 0.914986E+000
 0.818715E+000
 0.649610E+000
 0.344161E+000
 0.101686E+001
 0.101757E+001
 0.101832E+001
 0.101911E+001
 0.101993E+001
 0.102081E+001
 0.102172E+001
 0.102268E+001
 0.102368E+001
 0.102472E+001
 0.102580E+001
 0.102691E+001
 0.102804E+001
 0.102916E+001
 0.103027E+001
 0.103131E+001
 0.103224E+001
 0.103298E+001
 0.103341E+001
 0.103337E+001
 0.103261E+001
 0.103078E+001
 0.102733E+001
 0.102145E+001
 0.101187E+001
 0.996593E+000
 0.972405E+000
 0.933913E+000
 0.872027E+000
 0.770429E+000
 0.598309E+000
 0.299315E+000
 0.101322E+001
 0.101372E+001
 0.101424E+001
 0.101478E+001
 0.101534E+001
 0.101592E+001
 0.101651E+001
 0.101712E+001
 0.101773E+001
 0.101833E+001
 0.101893E+001
 0.101950E+001
 0.102003E+001
 0.102049E+001
 0.102084E+001
 0.102102E+001
 0.102098E+001
 0.102061E+001
 0.101977E+001
 0.101827E+001
 0.101583E+001
 0.101203E+001
 0.100630E+001
 0.997754E+000
 0.985051E+000
 0.966142E+000
 0.937750E+000
 0.894554E+000
 0.827706E+000
 0.721621E+000
 0.548120E+000
 0.257883E+000
 0.100903E+001
 0.100930E+001
 0.100956E+001
 0.100983E+001
 0.101009E+001
 0.101034E+001
 0.101057E+001
 0.101078E+001
 0.101095E+001
 0.101108E+001
 0.101114E+001
 0.101113E+001
 0.101100E+001
 0.101072E+001
 0.101024E+001
 0.100951E+001
 0.100842E+001
 0.100686E+001
 0.100466E+001
 0.100161E+001
 0.997385E+000
 0.991543E+000
 0.983445E+000
 0.972157E+000
 0.956294E+000
 0.933755E+000
 0.901259E+000
 0.853603E+000
 0.782259E+000
 0.672598E+000
 0.499289E+000
 0.219853E+000
 0.100426E+001
 0.100426E+001
 0.100425E+001
 0.100421E+001
 0.100413E+001
 0.100401E+001
 0.100385E+001
 0.100362E+001
 0.100332E+001
 0.100292E+001
 0.100240E+001
 0.100174E+001
 0.100090E+001
 0.999826E+000
 0.998462E+000
 0.996727E+000
 0.994516E+000
 0.991689E+000
 0.988060E+000
 0.983377E+000
 0.977291E+000
 0.969321E+000
 0.958787E+000
 0.944713E+000
 0.925676E+000
 0.899550E+000
 0.863093E+000
 0.811265E+000
 0.735951E+000
 0.623665E+000
 0.452040E+000
 0.185189E+000
 0.998875E+000
 0.998593E+000
 0.998265E+000
 0.997884E+000
 0.997441E+000
 0.996925E+000
 0.996323E+000
 0.995619E+000
 0.994794E+000
 0.993824E+000
 0.992680E+000
 0.991324E+000
 0.989712E+000
 0.987785E+000
 0.985470E+000
 0.982673E+000
 0.979272E+000
 0.975107E+000
 0.969971E+000
 0.963583E+000
 0.955568E+000
 0.945409E+000
 0.932392E+000
 0.915509E+000
 0.893312E+000
 0.863680E+000
 0.823446E+000
 0.767777E+000
 0.689070E+000
 0.575123E+000
 0.406567E+000
 0.153831E+000
 0.992866E+000
 0.992267E+000
 0.991597E+000
 0.990847E+000
 0.990003E+000
 0.989052E+000
 0.987978E+000
 0.986759E+000
 0.985371E+000
 0.983784E+000
 0.981963E+000
 0.979863E+000
 0.977429E+000
 0.974593E+000
 0.971269E+000
 0.967349E+000
 0.962695E+000
 0.957130E+000
 0.950423E+000
 0.942271E+000
 0.932271E+000
 0.919880E+000
 0.904354E+000
 0.884664E+000
 0.859354E+000
 0.826334E+000
 0.782543E+000
 0.723406E+000
 0.641919E+000
 0.527260E+000
 0.363044E+000
 0.125694E+000
 0.986218E+000
 0.985276E+000
 0.984236E+000
 0.983086E+000
 0.981811E+000
 0.980392E+000
 0.978809E+000
 0.977037E+000
 0.975046E+000
 0.972801E+000
 0.970259E+000
 0.967368E+000
 0.964063E+000
 0.960267E+000
 0.955881E+000
 0.950785E+000
 0.944824E+000
 0.937804E+000
 0.929475E+000
 0.919513E+000
 0.907490E+000
 0.892841E+000
 0.874803E+000
 0.852335E+000
 0.823991E+000
 0.787733E+000
 0.740640E+000
 0.678443E+000
 0.594810E+000
 0.480357E+000
 0.321619E+000
 0.100671E+000
 0.978936E+000
 0.977625E+000
 0.976188E+000
 0.974610E+000
 0.972872E+000
 0.970953E+000
 0.968828E+000
 0.966468E+000
 0.963838E+000
 0.960896E+000
 0.957593E+000
 0.953868E+000
 0.949650E+000
 0.944848E+000
 0.939356E+000
 0.933037E+000
 0.925725E+000
 0.917208E+000
 0.907219E+000
 0.895413E+000
 0.881347E+000
 0.864436E+000
 0.843907E+000
 0.818717E+000
 0.787447E+000
 0.748133E+000
 0.698024E+000
 0.633203E+000
 0.548062E+000
 0.434677E+000
 0.282413E+000
 0.786338E-001
 0.971036E+000
 0.969332E+000
 0.967473E+000
 0.965441E+000
 0.963213E+000
 0.960765E+000
 0.958069E+000
 0.955089E+000
 0.951787E+000
 0.948114E+000
 0.944014E+000
 0.939420E+000
 0.934251E+000
 0.928407E+000
 0.921770E+000
 0.914194E+000
 0.905496E+000
 0.895452E+000
 0.883779E+000
 0.870116E+000
 0.854004E+000
 0.834849E+000
 0.811872E+000
 0.784042E+000
 0.749982E+000
 0.707824E+000
 0.655010E+000
 0.588015E+000
 0.501990E+000
 0.390469E+000
 0.245525E+000
 0.594308E-001
 0.962554E+000
 0.960435E+000
 0.958132E+000
 0.955622E+000
 0.952880E+000
 0.949879E+000
 0.946585E+000
 0.942959E+000
 0.938957E+000
 0.934524E+000
 0.929599E+000
 0.924106E+000
 0.917957E+000
 0.911043E+000
 0.903235E+000
 0.894376E+000
 0.884272E+000
 0.872685E+000
 0.859318E+000
 0.843801E+000
 0.825662E+000
 0.804301E+000
 0.778943E+000
 0.748582E+000
 0.711893E+000
 0.667122E+000
 0.611934E+000
 0.543218E+000
 0.456906E+000
 0.347963E+000
 0.211027E+000
 0.428935E-001
 0.953541E+000
 0.950991E+000
 0.948225E+000
 0.945218E+000
 0.941942E+000
 0.938367E+000
 0.934454E+000
 0.930161E+000
 0.925437E+000
 0.920224E+000
 0.914452E+000
 0.908040E+000
 0.900890E+000
 0.892887E+000
 0.883892E+000
 0.873737E+000
 0.862219E+000
 0.849088E+000
 0.834037E+000
 0.816686E+000
 0.796557E+000
 0.773051E+000
 0.745403E+000
 0.712640E+000
 0.673504E+000
 0.626373E+000
 0.569150E+000
 0.499159E+000
 0.413115E+000
 0.307369E+000
 0.178966E+000
 0.288368E-001
 0.944074E+000
 0.941078E+000
 0.937834E+000
 0.934316E+000
 0.930493E+000
 0.926328E+000
 0.921782E+000
 0.916807E+000
 0.911347E+000
 0.905339E+000
 0.898708E+000
 0.891364E+000
 0.883205E+000
 0.874106E+000
 0.863920E+000
 0.852470E+000
 0.839545E+000
 0.824885E+000
 0.808175E+000
 0.789029E+000
 0.766967E+000
 0.741396E+000
 0.711570E+000
 0.676554E+000
 0.635172E+000
 0.585943E+000
 0.527024E+000
 0.456184E+000
 0.370910E+000
 0.268877E+000
 0.149367E+000
 0.170622E-001
 0.934248E+000
 0.930797E+000
 0.927067E+000
 0.923029E+000
 0.918649E+000
 0.913887E+000
 0.908700E+000
 0.903036E+000
 0.896834E+000
 0.890027E+000
 0.882532E+000
 0.874256E+000
 0.865088E+000
 0.854897E+000
 0.843530E+000
 0.830801E+000
 0.816490E+000
 0.800332E+000
 0.782006E+000
 0.761122E+000
 0.737204E+000
 0.709666E+000
 0.677790E+000
 0.640689E+000
 0.597273E+000
 0.546214E+000
 0.485931E+000
 0.414637E+000
 0.330568E+000
 0.232652E+000
 0.122232E+000
 0.736046E-002
 0.924181E+000
 0.920271E+000
 0.916053E+000
 0.911492E+000
 0.906554E+000
 0.901195E+000
 0.895367E+000
 0.889014E+000
 0.882074E+000
 0.874471E+000
 0.866120E+000
 0.856921E+000
 0.846758E+000
 0.835494E+000
 0.822968E+000
 0.808988E+000
 0.793329E+000
 0.775720E+000
 0.755838E+000
 0.733291E+000
 0.707609E+000
 0.678222E+000
 0.644441E+000
 0.605433E+000
 0.560202E+000
 0.507579E+000
 0.446245E+000
 0.374851E+000
 0.292352E+000
 0.198839E+000
 0.975421E-001
-0.484493E-003
 0.914014E+000
 0.909649E+000
 0.904944E+000
 0.899867E+000
 0.894376E+000
 0.888426E+000
 0.881966E+000
 0.874936E+000
 0.867269E+000
 0.858886E+000
 0.849696E+000
 0.839596E+000
 0.828464E+000
 0.816156E+000
 0.802508E+000
 0.787322E+000
 0.770367E+000
 0.751371E+000
 0.730007E+000
 0.705888E+000
 0.678551E+000
 0.647446E+000
 0.611916E+000
 0.571188E+000
 0.524363E+000
 0.470431E+000
 0.408336E+000
 0.337150E+000
 0.256501E+000
 0.167562E+000
 0.752605E-001
-0.669230E-002
 0.903906E+000
 0.899095E+000
 0.893916E+000
 0.888333E+000
 0.882303E+000
 0.875778E+000
 0.868703E+000
 0.861016E+000
 0.852645E+000
 0.843507E+000
 0.833509E+000
 0.822541E+000
 0.810477E+000
 0.797170E+000
 0.782450E+000
 0.766116E+000
 0.747933E+000
 0.727627E+000
 0.704873E+000
 0.679287E+000
 0.650419E+000
 0.617738E+000
 0.580625E+000
 0.538366E+000
 0.490163E+000
 0.435164E+000
 0.372565E+000
 0.301838E+000
 0.223239E+000
 0.138922E+000
 0.553363E-001
-0.114823E-001
 0.894034E+000
 0.888793E+000
 0.883159E+000
 0.877090E+000
 0.870544E+000
 0.863468E+000
 0.855805E+000
 0.847490E+000
 0.838447E+000
 0.828592E+000
 0.817825E+000
 0.806035E+000
 0.793090E+000
 0.778841E+000
 0.763113E+000
 0.745703E+000
 0.726374E+000
 0.704851E+000
 0.680811E+000
 0.653877E+000
 0.623611E+000
 0.589505E+000
 0.550979E+000
 0.507380E+000
 0.458006E+000
 0.402161E+000
 0.339278E+000
 0.269201E+000
 0.192763E+000
 0.113000E+000
 0.377062E-001
-0.150698E-001
 0.884585E+000
 0.878940E+000
 0.872875E+000
 0.866350E+000
 0.859317E+000
 0.851724E+000
 0.843509E+000
 0.834606E+000
 0.824935E+000
 0.814409E+000
 0.802926E+000
 0.790370E+000
 0.776608E+000
 0.761486E+000
 0.744827E+000
 0.726426E+000
 0.706045E+000
 0.683409E+000
 0.658199E+000
 0.630047E+000
 0.598526E+000
 0.563154E+000
 0.523386E+000
 0.478633E+000
 0.428284E+000
 0.371787E+000
 0.308799E+000
 0.239504E+000
 0.165252E+000
 0.898611E-001
 0.222988E-001
-0.176621E-001
 0.875756E+000
 0.869736E+000
 0.863275E+000
 0.856329E+000
 0.848849E+000
 0.840780E+000
 0.832060E+000
 0.822616E+000
 0.812371E+000
 0.801232E+000
 0.789095E+000
 0.775841E+000
 0.761336E+000
 0.745423E+000
 0.727922E+000
 0.708627E+000
 0.687300E+000
 0.663669E+000
 0.637416E+000
 0.608183E+000
 0.575557E+000
 0.539079E+000
 0.498242E+000
 0.452511E+000
 0.401366E+000
 0.344386E+000
 0.281429E+000
 0.212984E+000
 0.140858E+000
 0.695518E-001
 0.903841E-002
-0.194547E-001
 0.867740E+000
 0.861385E+000
 0.854568E+000
 0.847246E+000
 0.839365E+000
 0.830871E+000
 0.821698E+000
 0.811773E+000
 0.801015E+000
 0.789330E+000
 0.776612E+000
 0.762740E+000
 0.747577E+000
 0.730964E+000
 0.712720E+000
 0.692640E+000
 0.670484E+000
 0.645982E+000
 0.618822E+000
 0.588653E+000
 0.555077E+000
 0.517656E+000
 0.475917E+000
 0.429378E+000
 0.377596E+000
 0.320271E+000
 0.257439E+000
 0.189853E+000
 0.119715E+000
 0.521066E-001
-0.215183E-002
-0.206278E-001
 0.860726E+000
 0.854079E+000
 0.846955E+000
 0.839306E+000
 0.831079E+000
 0.822217E+000
 0.812654E+000
 0.802314E+000
 0.791115E+000
 0.778961E+000
 0.765744E+000
 0.751341E+000
 0.735614E+000
 0.718403E+000
 0.699526E+000
 0.678776E+000
 0.655916E+000
 0.630677E+000
 0.602753E+000
 0.571798E+000
 0.537429E+000
 0.499227E+000
 0.456749E+000
 0.409559E+000
 0.357284E+000
 0.299725E+000
 0.237069E+000
 0.170295E+000
 0.101933E+000
 0.375484E-001
-0.113457E-001
-0.213431E-001
 0.854883E+000
 0.847996E+000
 0.840618E+000
 0.832699E+000
 0.824188E+000
 0.815023E+000
 0.805138E+000
 0.794457E+000
 0.782895E+000
 0.770356E+000
 0.756729E+000
 0.741892E+000
 0.725704E+000
 0.708004E+000
 0.688611E+000
 0.667317E+000
 0.643885E+000
 0.618050E+000
 0.589508E+000
 0.557922E+000
 0.522918E+000
 0.484095E+000
 0.441035E+000
 0.393342E+000
 0.340697E+000
 0.282987E+000
 0.220522E+000
 0.154462E+000
 0.876031E-001
 0.258918E-001
-0.186106E-001
-0.217401E-001
 0.850361E+000
 0.843289E+000
 0.835715E+000
 0.827590E+000
 0.818860E+000
 0.809463E+000
 0.799331E+000
 0.788389E+000
 0.776549E+000
 0.763715E+000
 0.749775E+000
 0.734606E+000
 0.718066E+000
 0.699994E+000
 0.680208E+000
 0.658500E+000
 0.634635E+000
 0.608348E+000
 0.579340E+000
 0.547279E+000
 0.511800E+000
 0.472513E+000
 0.429024E+000
 0.380963E+000
 0.328057E+000
 0.270255E+000
 0.207964E+000
 0.142479E+000
 0.767951E-001
 0.171451E-001
-0.240048E-001
-0.219340E-001
 0.847277E+000
 0.840080E+000
 0.832373E+000
 0.824108E+000
 0.815229E+000
 0.805675E+000
 0.795377E+000
 0.784257E+000
 0.772229E+000
 0.759195E+000
 0.745045E+000
 0.729652E+000
 0.712874E+000
 0.694551E+000
 0.674500E+000
 0.652514E+000
 0.628358E+000
 0.601768E+000
 0.572448E+000
 0.540069E+000
 0.504273E+000
 0.464680E+000
 0.420907E+000
 0.372606E+000
 0.319533E+000
 0.261682E+000
 0.199521E+000
 0.134439E+000
 0.695614E-001
 0.113125E-001
-0.275742E-001
-0.220132E-001
 0.845714E+000
 0.838454E+000
 0.830680E+000
 0.822344E+000
 0.813390E+000
 0.803756E+000
 0.793374E+000
 0.782165E+000
 0.770042E+000
 0.756908E+000
 0.742651E+000
 0.727144E+000
 0.710248E+000
 0.691798E+000
 0.671614E+000
 0.649488E+000
 0.625186E+000
 0.598444E+000
 0.568967E+000
 0.536429E+000
 0.500475E+000
 0.460729E+000
 0.416815E+000
 0.368396E+000
 0.315242E+000
 0.257370E+000
 0.195279E+000
 0.130403E+000
 0.659361E-001
 0.839592E-002
-0.293508E-001
-0.220377E-001
 0.845714E+000
 0.838454E+000
 0.830680E+000
 0.822344E+000
 0.813390E+000
 0.803756E+000
 0.793374E+000
 0.782165E+000
 0.770042E+000
 0.756908E+000
 0.742651E+000
 0.727144E+000
 0.710248E+000
 0.691798E+000
 0.671614E+000
 0.649488E+000
 0.625186E+000
 0.598444E+000
 0.568967E+000
 0.536429E+000
 0.500475E+000
 0.460729E+000
 0.416815E+000
 0.368396E+000
 0.315242E+000
 0.257370E+000
 0.195279E+000
 0.130403E+000
 0.659361E-001
 0.839592E-002
-0.293508E-001
-0.220377E-001
 0.847277E+000
 0.840080E+000
 0.832373E+000
 0.824108E+000
 0.815229E+000
 0.805675E+000
 0.795377E+000
 0.784257E+000
 0.772229E+000
 0.759195E+000
 0.745045E+000
 0.729652E+000
 0.712874E+000
 0.694551E+000
 0.674500E+000
 0.652514E+000
 0.628358E+000
 0.601768E+000
 0.572448E+000
 0.540069E+000
 0.504273E+000
 0.464680E+000
 0.420907E+000
 0.372606E+000
 0.319533E+000
 0.261682E+000
 0.199521E+000
 0.134439E+000
 0.695614E-001
 0.113125E-001
-0.275742E-001
-0.220132E-001
 0.850361E+000
 0.843289E+000
 0.835715E+000
 0.827590E+000
 0.818860E+000
 0.809463E+000
 0.799331E+000
 0.788389E+000
 0.776549E+000
 0.763715E+000
 0.749775E+000
 0.734606E+000
 0.718066E+000
 0.699994E+000
 0.680208E+000
 0.658500E+000
 0.634635E+000
 0.608348E+000
 0.579340E+000
 0.547279E+000
 0.511800E+000
 0.472513E+000
 0.429024E+000
 0.380963E+000
 0.328057E+000
 0.270255E+000
 0.207964E+000
 0.142479E+000
 0.767951E-001
 0.171451E-001
-0.240048E-001
-0.219340E-001
 0.854883E+000
 0.847996E+000
 0.840618E+000
 0.832699E+000
 0.824188E+000
 0.815023E+000
 0.805138E+000
 0.794457E+000
 0.782895E+000
 0.770356E+000
 0.756729E+000
 0.741892E+000
 0.725704E+000
 0.708004E+000
 0.688611E+000
 0.667317E+000
 0.643885E+000
 0.618050E+000
 0.589508E+000
 0.557922E+000
 0.522918E+000
 0.484095E+000
 0.441035E+000
 0.393342E+000
 0.340697E+000
 0.282987E+000
 0.220522E+000
 0.154462E+000
 0.876031E-001
 0.258918E-001
-0.186106E-001
-0.217401E-001
 0.860726E+000
 0.854079E+000
 0.846955E+000
 0.839306E+000
 0.831079E+000
 0.822217E+000
 0.812654E+000
 0.802314E+000
 0.791115E+000
 0.778961E+000
 0.765744E+000
 0.751341E+000
 0.735614E+000
 0.718403E+000
 0.699526E+000
 0.678776E+000
 0.655916E+000
 0.630677E+000
 0.602753E+000
 0.571798E+000
 0.537429E+000
 0.499227E+000
 0.456749E+000
 0.409559E+000
 0.357284E+000
 0.299725E+000
 0.237069E+000
 0.170295E+000
 0.101933E+000
 0.375484E-001
-0.113457E-001
-0.213431E-001
 0.867740E+000
 0.861385E+000
 0.854568E+000
 0.847246E+000
 0.839365E+000
 0.830871E+000
 0.821698E+000
 0.811773E+000
 0.801015E+000
 0.789330E+000
 0.776612E+000
 0.762740E+000
 0.747577E+000
 0.730964E+000
 0.712720E+000
 0.692640E+000
 0.670484E+000
 0.645982E+000
 0.618822E+000
 0.588653E+000
 0.555077E+000
 0.517656E+000
 0.475917E+000
 0.429378E+000
 0.377596E+000
 0.320271E+000
 0.257439E+000
 0.189853E+000
 0.119715E+000
 0.521066E-001
-0.215183E-002
-0.206278E-001
 0.875756E+000
 0.869736E+000
 0.863275E+000
 0.856329E+000
 0.848849E+000
 0.840780E+000
 0.832060E+000
 0.822616E+000
 0.812371E+000
 0.801232E+000
 0.789095E+000
 0.775841E+000
 0.761336E+000
 0.745423E+000
 0.727922E+000
 0.708627E+000
 0.687300E+000
 0.663669E+000
 0.637416E+000
 0.608183E+000
 0.575557E+000
 0.539079E+000
 0.498242E+000
 0.452511E+000
 0.401366E+000
 0.344386E+000
 0.281429E+000
 0.212984E+000
 0.140858E+000
 0.695518E-001
 0.903841E-002
-0.194547E-001
 0.884585E+000
 0.878940E+000
 0.872875E+000
 0.866350E+000
 0.859317E+000
 0.851724E+000
 0.843509E+000
 0.834606E+000
 0.824935E+000
 0.814409E+000
 0.802926E+000
 0.790370E+000
 0.776608E+000
 0.761486E+000
 0.744827E+000
 0.726426E+000
 0.706045E+000
 0.683409E+000
 0.658199E+000
 0.630047E+000
 0.598526E+000
 0.563154E+000
 0.523386E+000
 0.478633E+000
 0.428284E+000
 0.371787E+000
 0.308799E+000
 0.239504E+000
 0.165252E+000
 0.898611E-001
 0.222988E-001
-0.176621E-001
 0.894034E+000
 0.888793E+000
 0.883159E+000
 0.877090E+000
 0.870544E+000
 0.863468E+000
 0.855805E+000
 0.847490E+000
 0.838447E+000
 0.828592E+000
 0.817825E+000
 0.806035E+000
 0.793090E+000
 0.778841E+000
 0.763113E+000
 0.745703E+000
 0.726374E+000
 0.704851E+000
 0.680811E+000
 0.653877E+000
 0.623611E+000
 0.589505E+000
 0.550979E+000
 0.507380E+000
 0.458006E+000
 0.402161E+000
 0.339278E+000
 0.269201E+000
 0.192763E+000
 0.113000E+000
 0.377062E-001
-0.150698E-001
 0.903906E+000
 0.899095E+000
 0.893916E+000
 0.888333E+000
 0.882303E+000
 0.875778E+000
 0.868703E+000
 0.861016E+000
 0.852645E+000
 0.843507E+000
 0.833509E+000
 0.822541E+000
 0.810477E+000
 0.797170E+000
 0.782450E+000
 0.766116E+000
 0.747933E+000
 0.727627E+000
 0.704873E+000
 0.679287E+000
 0.650419E+000
 0.617738E+000
 0.580625E+000
 0.538366E+000
 0.490163E+000
 0.435164E+000
 0.372565E+000
 0.301838E+000
 0.223239E+000
 0.138922E+000
 0.553363E-001
-0.114823E-001
 0.914014E+000
 0.909649E+000
 0.904944E+000
 0.899867E+000
 0.894376E+000
 0.888426E+000
 0.881966E+000
 0.874936E+000
 0.867269E+000
 0.858886E+000
 0.849696E+000
 0.839596E+000
 0.828464E+000
 0.816156E+000
 0.802508E+000
 0.787322E+000
 0.770367E+000
 0.751371E+000
 0.730007E+000
 0.705888E+000
 0.678551E+000
 0.647446E+000
 0.611916E+000
 0.571188E+000
 0.524363E+000
 0.470431E+000
 0.408336E+000
 0.337150E+000
 0.256501E+000
 0.167562E+000
 0.752605E-001
-0.669230E-002
 0.924181E+000
 0.920271E+000
 0.916053E+000
 0.911492E+000
 0.906554E+000
 0.901195E+000
 0.895367E+000
 0.889014E+000
 0.882074E+000
 0.874471E+000
 0.866120E+000
 0.856921E+000
 0.846758E+000
 0.835494E+000
 0.822968E+000
 0.808988E+000
 0.793329E+000
 0.775720E+000
 0.755838E+000
 0.733291E+000
 0.707609E+000
 0.678222E+000
 0.644441E+000
 0.605433E+000
 0.560202E+000
 0.507579E+000
 0.446245E+000
 0.374851E+000
 0.292352E+000
 0.198839E+000
 0.975421E-001
-0.484493E-003
 0.934248E+000
 0.930797E+000
 0.927067E+000
 0.923029E+000
 0.918649E+000
 0.913887E+000
 0.908700E+000
 0.903036E+000
 0.896834E+000
 0.890027E+000
 0.882532E+000
 0.874256E+000
 0.865088E+000
 0.854897E+000
 0.843530E+000
 0.830801E+000
 0.816490E+000
 0.800332E+000
 0.782006E+000
 0.761122E+000
 0.737204E+000
 0.709666E+000
 0.677790E+000
 0.640689E+000
 0.597273E+000
 0.546214E+000
 0.485931E+000
 0.414637E+000
 0.330568E+000
 0.232652E+000
 0.122232E+000
 0.736046E-002
 0.944074E+000
 0.941078E+000
 0.937834E+000
 0.934316E+000
 0.930493E+000
 0.926328E+000
 0.921782E+000
 0.916807E+000
 0.911347E+000
 0.905339E+000
 0.898708E+000
 0.891364E+000
 0.883205E+000
 0.874106E+000
 0.863920E+000
 0.852470E+000
 0.839545E+000
 0.824885E+000
 0.808175E+000
 0.789029E+000
 0.766967E+000
 0.741396E+000
 0.711570E+000
 0.676554E+000
 0.635172E+000
 0.585943E+000
 0.527024E+000
 0.456184E+000
 0.370910E+000
 0.268877E+000
 0.149367E+000
 0.170622E-001
 0.953541E+000
 0.950991E+000
 0.948225E+000
 0.945218E+000
 0.941942E+000
 0.938367E+000
 0.934454E+000
 0.930161E+000
 0.925437E+000
 0.920224E+000
 0.914452E+000
 0.908040E+000
 0.900890E+000
 0.892887E+000
 0.883892E+000
 0.873737E+000
 0.862219E+000
 0.849088E+000
 0.834037E+000
 0.816686E+000
 0.796557E+000
 0.773051E+000
 0.745403E+000
 0.712640E+000
 0.673504E+000
 0.626373E+000
 0.569150E+000
 0.499159E+000
 0.413115E+000
 0.307369E+000
 0.178966E+000
 0.288368E-001
 0.962554E+000
 0.960435E+000
 0.958132E+000
 0.955622E+000
 0.952880E+000
 0.949879E+000
 0.946585E+000
 0.942959E+000
 0.938957E+000
 0.934524E+000
 0.929599E+000
 0.924106E+000
 0.917957E+000
 0.911043E+000
 0.903235E+000
 0.894376E+000
 0.884272E+000
 0.872685E+000
 0.859318E+000
 0.843801E+000
 0.825662E+000
 0.804301E+000
 0.778943E+000
 0.748582E+000
 0.711893E+000
 0.667122E+000
 0.611934E+000
 0.543218E+000
 0.456906E+000
 0.347963E+000
 0.211027E+000
 0.428935E-001
 0.971036E+000
 0.969332E+000
 0.967473E+000
 0.965441E+000
 0.963213E+000
 0.960765E+000
 0.958069E+000
 0.955089E+000
 0.951787E+000
 0.948114E+000
 0.944014E+000
 0.939420E+000
 0.934251E+000
 0.928407E+000
 0.921770E+000
 0.914194E+000
 0.905496E+000
 0.895452E+000
 0.883779E+000
 0.870116E+000
 0.854004E+000
 0.834849E+000
 0.811872E+000
 0.784042E+000
 0.749982E+000
 0.707824E+000
 0.655010E+000
 0.588015E+000
 0.501990E+000
 0.390469E+000
 0.245525E+000
 0.594308E-001
 0.978936E+000
 0.977625E+000
 0.976188E+000
 0.974610E+000
 0.972872E+000
 0.970953E+000
 0.968828E+000
 0.966468E+000
 0.963838E+000
 0.960896E+000
 0.957593E+000
 0.953868E+000
 0.949650E+000
 0.944848E+000
 0.939356E+000
 0.933037E+000
 0.925725E+000
 0.917208E+000
 0.907219E+000
 0.895413E+000
 0.881347E+000
 0.864436E+000
 0.843907E+000
 0.818717E+000
 0.787447E+000
 0.748133E+000
 0.698024E+000
 0.633203E+000
 0.548062E+000
 0.434677E+000
 0.282413E+000
 0.786338E-001
 0.986218E+000
 0.985276E+000
 0.984236E+000
 0.983086E+000
 0.981811E+000
 0.980392E+000
 0.978809E+000
 0.977037E+000
 0.975046E+000
 0.972801E+000
 0.970259E+000
 0.967368E+000
 0.964063E+000
 0.960267E+000
 0.955881E+000
 0.950785E+000
 0.944824E+000
 0.937804E+000
 0.929475E+000
 0.919513E+000
 0.907490E+000
 0.892841E+000
 0.874803E+000
 0.852335E+000
 0.823991E+000
 0.787733E+000
 0.740640E+000
 0.678443E+000
 0.594810E+000
 0.480357E+000
 0.321619E+000
 0.100671E+000
 0.992866E+000
 0.992267E+000
 0.991597E+000
 0.990847E+000
 0.990003E+000
 0.989052E+000
 0.987978E+000
 0.986759E+000
 0.985371E+000
 0.983784E+000
 0.981963E+000
 0.979863E+000
 0.977429E+000
 0.974593E+000
 0.971269E+000
 0.967349E+000
 0.962695E+000
 0.957130E+000
 0.950423E+000
 0.942271E+000
 0.932271E+000
 0.919880E+000
 0.904354E+000
 0.884664E+000
 0.859354E+000
 0.826334E+000
 0.782543E+000
 0.723406E+000
 0.641919E+000
 0.527260E+000
 0.363044E+000
 0.125694E+000
 0.998875E+000
 0.998593E+000
 0.998265E+000
 0.997884E+000
 0.997441E+000
 0.996925E+000
 0.996323E+000
 0.995619E+000
 0.994794E+000
 0.993824E+000
 0.992680E+000
 0.991324E+000
 0.989712E+000
 0.987785E+000
 0.985470E+000
 0.982673E+000
 0.979272E+000
 0.975107E+000
 0.969971E+000
 0.963583E+000
 0.955568E+000
 0.945409E+000
 0.932392E+000
 0.915509E+000
 0.893312E+000
 0.863680E+000
 0.823446E+000
 0.767777E+000
 0.689070E+000
 0.575123E+000
 0.406567E+000
 0.153831E+000
 0.100426E+001
 0.100426E+001
 0.100425E+001
 0.100421E+001
 0.100413E+001
 0.100401E+001
 0.100385E+001
 0.100362E+001
 0.100332E+001
 0.100292E+001
 0.100240E+001
 0.100174E+001
 0.100090E+001
 0.999826E+000
 0.998462E+000
 0.996727E+000
 0.994516E+000
 0.991689E+000
 0.988060E+000
 0.983377E+000
 0.977291E+000
 0.969321E+000
 0.958787E+000
 0.944713E+000
 0.925676E+000
 0.899550E+000
 0.863093E+000
 0.811265E+000
 0.735951E+000
 0.623665E+000
 0.452040E+000
 0.185189E+000
 0.100903E+001
 0.100930E+001
 0.100956E+001
 0.100983E+001
 0.101009E+001
 0.101034E+001
 0.101057E+001
 0.101078E+001
 0.101095E+001
 0.101108E+001
 0.101114E+001
 0.101113E+001
 0.101100E+001
 0.101072E+001
 0.101024E+001
 0.100951E+001
 0.100842E+001
 0.100686E+001
 0.100466E+001
 0.100161E+001
 0.997385E+000
 0.991543E+000
 0.983445E+000
 0.972157E+000
 0.956294E+000
 0.933755E+000
 0.901259E+000
 0.853603E+000
 0.782259E+000
 0.672598E+000
 0.499289E+000
 0.219853E+000
 0.101322E+001
 0.101372E+001
 0.101424E+001
 0.101478E+001
 0.101534E+001
 0.101592E+001
 0.101651E+001
 0.101712E+001
 0.101773E+001
 0.101833E+001
 0.101893E+001
 0.101950E+001
 0.102003E+001
 0.102049E+001
 0.102084E+001
 0.102102E+001
 0.102098E+001
 0.102061E+001
 0.101977E+001
 0.101827E+001
 0.101583E+001
 0.101203E+001
 0.100630E+001
 0.997754E+000
 0.985051E+000
 0.966142E+000
 0.937750E+000
 0.894554E+000
 0.827706E+000
 0.721621E+000
 0.548120E+000
 0.257883E+000
 0.101686E+001
 0.101757E+001
 0.101832E+001
 0.101911E+001
 0.101993E+001
 0.102081E+001
 0.102172E+001
 0.102268E+001
 0.102368E+001
 0.102472E+001
 0.102580E+001
 0.102691E+001
 0.102804E+001
 0.102916E+001
 0.103027E+001
 0.103131E+001
 0.103224E+001
 0.103298E+001
 0.103341E+001
 0.103337E+001
 0.103261E+001
 0.103078E+001
 0.102733E+001
 0.102145E+001
 0.101187E+001
 0.996593E+000
 0.972405E+000
 0.933913E+000
 0.872027E+000
 0.770429E+000
 0.598309E+000
 0.299315E+000
 0.101999E+001
 0.102088E+001
 0.102183E+001
 0.102283E+001
 0.102390E+001
 0.102503E+001
 0.102623E+001
 0.102751E+001
 0.102886E+001
 0.103029E+001
 0.103180E+001
 0.103339E+001
 0.103506E+001
 0.103680E+001
 0.103859E+001
 0.104042E+001
 0.104224E+001
 0.104400E+001
 0.104561E+001
 0.104693E+001
 0.104776E+001
 0.104779E+001
 0.104652E+001
 0.104323E+001
 0.103669E+001
 0.102502E+001
 0.100509E+001
 0.971510E+000
 0.914986E+000
 0.818715E+000
 0.649610E+000
 0.344161E+000
 0.102264E+001
 0.102369E+001
 0.102481E+001
 0.102600E+001
 0.102728E+001
 0.102864E+001
 0.103010E+001
 0.103165E+001
 0.103331E+001
 0.103509E+001
 0.103698E+001
 0.103901E+001
 0.104116E+001
 0.104345E+001
 0.104586E+001
 0.104840E+001
 0.105103E+001
 0.105373E+001
 0.105642E+001
 0.105901E+001
 0.106132E+001
 0.106310E+001
 0.106390E+001
 0.106307E+001
 0.105951E+001
 0.105138E+001
 0.103570E+001
 0.100720E+001
 0.956385E+000
 0.866179E+000
 0.701743E+000
 0.392409E+000
 0.102485E+001
 0.102604E+001
 0.102731E+001
 0.102867E+001
 0.103013E+001
 0.103169E+001
 0.103336E+001
 0.103516E+001
 0.103709E+001
 0.103917E+001
 0.104141E+001
 0.104381E+001
 0.104639E+001
 0.104917E+001
 0.105214E+001
 0.105531E+001
 0.105868E+001
 0.106223E+001
 0.106591E+001
 0.106966E+001
 0.107335E+001
 0.107674E+001
 0.107952E+001
 0.108101E+001
 0.108032E+001
 0.107566E+001
 0.106417E+001
 0.104085E+001
 0.996077E+000
 0.912540E+000
 0.754397E+000
 0.444020E+000
 0.102668E+001
 0.102798E+001
 0.102937E+001
 0.103087E+001
 0.103248E+001
 0.103421E+001
 0.103608E+001
 0.103809E+001
 0.104025E+001
 0.104259E+001
 0.104512E+001
 0.104786E+001
 0.105082E+001
 0.105403E+001
 0.105749E+001
 0.106123E+001
 0.106526E+001
 0.106957E+001
 0.107416E+001
 0.107895E+001
 0.108391E+001
 0.108881E+001
 0.109340E+001
 0.109714E+001
 0.109910E+001
 0.109788E+001
 0.109045E+001
 0.107233E+001
 0.103394E+001
 0.957573E+000
 0.807206E+000
 0.498930E+000
 0.102814E+001
 0.102954E+001
 0.103104E+001
 0.103266E+001
 0.103439E+001
 0.103627E+001
 0.103829E+001
 0.104048E+001
 0.104285E+001
 0.104541E+001
 0.104820E+001
 0.105122E+001
 0.105451E+001
 0.105809E+001
 0.106199E+001
 0.106623E+001
 0.107084E+001
 0.107584E+001
 0.108122E+001
 0.108699E+001
 0.109306E+001
 0.109939E+001
 0.110561E+001
 0.111147E+001
 0.111598E+001
 0.111794E+001
 0.111471E+001
 0.110146E+001
 0.106991E+001
 0.100112E+001
 0.859783E+000
 0.556991E+000
 0.102929E+001
 0.103076E+001
 0.103235E+001
 0.103406E+001
 0.103591E+001
 0.103790E+001
 0.104006E+001
 0.104239E+001
 0.104493E+001
 0.104769E+001
 0.105069E+001
 0.105396E+001
 0.105753E+001
 0.106143E+001
 0.106571E+001
 0.107038E+001
 0.107550E+001
 0.108109E+001
 0.108720E+001
 0.109381E+001
 0.110095E+001
 0.110848E+001
 0.111633E+001
 0.112400E+001
 0.113107E+001
 0.113593E+001
 0.113677E+001
 0.112852E+001
 0.110340E+001
 0.104351E+001
 0.911482E+000
 0.618104E+000
 0.103016E+001
 0.103169E+001
 0.103335E+001
 0.103513E+001
 0.103706E+001
 0.103915E+001
 0.104142E+001
 0.104388E+001
 0.104655E+001
 0.104947E+001
 0.105265E+001
 0.105613E+001
 0.105994E+001
 0.106411E+001
 0.106871E+001
 0.107376E+001
 0.107932E+001
 0.108544E+001
 0.109217E+001
 0.109955E+001
 0.110759E+001
 0.111628E+001
 0.112549E+001
 0.113501E+001
 0.114421E+001
 0.115214E+001
 0.115650E+001
 0.115354E+001
 0.113463E+001
 0.108378E+001
 0.963461E+000
 0.680224E+000
 0.103172E+001
 0.103333E+001
 0.103508E+001
 0.103697E+001
 0.103902E+001
 0.104123E+001
 0.104364E+001
 0.104625E+001
 0.104910E+001
 0.105220E+001
 0.105559E+001
 0.105931E+001
 0.106338E+001
 0.106786E+001
 0.107279E+001
 0.107823E+001
 0.108424E+001
 0.109087E+001
 0.109820E+001
 0.110628E+001
 0.111516E+001
 0.112483E+001
 0.113526E+001
 0.114622E+001
 0.115728E+001
 0.116747E+001
 0.117484E+001
 0.117570E+001
 0.116217E+001
 0.111837E+001
 0.100935E+001
 0.740800E+000
 0.103416E+001
 0.103590E+001
 0.103779E+001
 0.103983E+001
 0.104203E+001
 0.104442E+001
 0.104701E+001
 0.104983E+001
 0.105289E+001
 0.105624E+001
 0.105990E+001
 0.106390E+001
 0.106830E+001
 0.107314E+001
 0.107847E+001
 0.108435E+001
 0.109085E+001
 0.109804E+001
 0.110600E+001
 0.111479E+001
 0.112449E+001
 0.113511E+001
 0.114665E+001
 0.115886E+001
 0.117153E+001
 0.118346E+001
 0.119332E+001
 0.119696E+001
 0.118768E+001
 0.114988E+001
 0.104996E+001
 0.803360E+000
 0.103663E+001
 0.103850E+001
 0.104052E+001
 0.104270E+001
 0.104507E+001
 0.104762E+001
 0.105040E+001
 0.105342E+001
 0.105670E+001
 0.106029E+001
 0.106421E+001
 0.106850E+001
 0.107322E+001
 0.107841E+001
 0.108412E+001
 0.109044E+001
 0.109743E+001
 0.110516E+001
 0.111373E+001
 0.112323E+001
 0.113371E+001
 0.114528E+001
 0.115783E+001
 0.117139E+001
 0.118542E+001
 0.119934E+001
 0.121135E+001
 0.121809E+001
 0.121300E+001
 0.118143E+001
 0.109189E+001
 0.870040E+000
 0.103910E+001
 0.104109E+001
 0.104325E+001
 0.104558E+001
 0.104810E+001
 0.105082E+001
 0.105378E+001
 0.105700E+001
 0.106050E+001
 0.106432E+001
 0.106849E+001
 0.107307E+001
 0.107810E+001
 0.108363E+001
 0.108972E+001
 0.109646E+001
 0.110392E+001
 0.111218E+001
 0.112135E+001
 0.113151E+001
 0.114279E+001
 0.115520E+001
 0.116884E+001
 0.118357E+001
 0.119911E+001
 0.121482E+001
 0.122908E+001
 0.123895E+001
 0.123810E+001
 0.121315E+001
 0.113531E+001
 0.939546E+000
 0.104155E+001
 0.104367E+001
 0.104596E+001
 0.104843E+001
 0.105110E+001
 0.105399E+001
 0.105713E+001
 0.106053E+001
 0.106424E+001
 0.106829E+001
 0.107272E+001
 0.107757E+001
 0.108289E+001
 0.108875E+001
 0.109522E+001
 0.110236E+001
 0.111027E+001
 0.111905E+001
 0.112878E+001
 0.113961E+001
 0.115161E+001
 0.116490E+001
 0.117953E+001
 0.119544E+001
 0.121243E+001
 0.122989E+001
 0.124645E+001
 0.125945E+001
 0.126300E+001
 0.124516E+001
 0.118001E+001
 0.101172E+001
 0.104396E+001
 0.104620E+001
 0.104862E+001
 0.105123E+001
 0.105404E+001
 0.105709E+001
 0.106040E+001
 0.106399E+001
 0.106791E+001
 0.107217E+001
 0.107684E+001
 0.108195E+001
 0.108756E+001
 0.109374E+001
 0.110055E+001
 0.110809E+001
 0.111643E+001
 0.112569E+001
 0.113598E+001
 0.114742E+001
 0.116014E+001
 0.117425E+001
 0.118984E+001
 0.120691E+001
 0.122530E+001
 0.124451E+001
 0.126341E+001
 0.127955E+001
 0.128776E+001
 0.127746E+001
 0.122595E+001
 0.108633E+001
 0.104631E+001
 0.104866E+001
 0.105120E+001
 0.105394E+001
 0.105690E+001
 0.106010E+001
 0.106357E+001
 0.106734E+001
 0.107144E+001
 0.107592E+001
 0.108081E+001
 0.108617E+001
 0.109206E+001
 0.109854E+001
 0.110568E+001
 0.111358E+001
 0.112234E+001
 0.113206E+001
 0.114287E+001
 0.115490E+001
 0.116830E+001
 0.118320E+001
 0.119971E+001
 0.121790E+001
 0.123767E+001
 0.125863E+001
 0.127987E+001
 0.129926E+001
 0.131236E+001
 0.131006E+001
 0.127307E+001
 0.116317E+001
 0.104856E+001
 0.105102E+001
 0.105368E+001
 0.105654E+001
 0.105963E+001
 0.106297E+001
 0.106660E+001
 0.107053E+001
 0.107482E+001
 0.107949E+001
 0.108459E+001
 0.109019E+001
 0.109633E+001
 0.110309E+001
 0.111054E+001
 0.111879E+001
 0.112793E+001
 0.113808E+001
 0.114938E+001
 0.116197E+001
 0.117601E+001
 0.119166E+001
 0.120908E+001
 0.122835E+001
 0.124947E+001
 0.127220E+001
 0.129581E+001
 0.131856E+001
 0.133681E+001
 0.134297E+001
 0.132132E+001
 0.124197E+001
 0.105068E+001
 0.105325E+001
 0.105601E+001
 0.105898E+001
 0.106220E+001
 0.106567E+001
 0.106944E+001
 0.107353E+001
 0.107798E+001
 0.108283E+001
 0.108813E+001
 0.109394E+001
 0.110032E+001
 0.110734E+001
 0.111508E+001
 0.112365E+001
 0.113315E+001
 0.114370E+001
 0.115545E+001
 0.116857E+001
 0.118322E+001
 0.119959E+001
 0.121786E+001
 0.123820E+001
 0.126067E+001
 0.128517E+001
 0.131119E+001
 0.133745E+001
 0.136112E+001
 0.137620E+001
 0.137062E+001
 0.132245E+001
 0.105264E+001
 0.105530E+001
 0.105816E+001
 0.106124E+001
 0.106457E+001
 0.106816E+001
 0.107206E+001
 0.107628E+001
 0.108089E+001
 0.108590E+001
 0.109138E+001
 0.109738E+001
 0.110398E+001
 0.111123E+001
 0.111924E+001
 0.112810E+001
 0.113792E+001
 0.114885E+001
 0.116103E+001
 0.117463E+001
 0.118985E+001
 0.120691E+001
 0.122602E+001
 0.124739E+001
 0.127121E+001
 0.129749E+001
 0.132601E+001
 0.135593E+001
 0.138527E+001
 0.140973E+001
 0.142087E+001
 0.140431E+001
 0.105441E+001
 0.105715E+001
 0.106010E+001
 0.106327E+001
 0.106669E+001
 0.107040E+001
 0.107440E+001
 0.107876E+001
 0.108349E+001
 0.108865E+001
 0.109429E+001
 0.110047E+001
 0.110725E+001
 0.111471E+001
 0.112296E+001
 0.113208E+001
 0.114220E+001
 0.115346E+001
 0.116603E+001
 0.118009E+001
 0.119586E+001
 0.121357E+001
 0.123348E+001
 0.125589E+001
 0.128104E+001
 0.130916E+001
 0.134025E+001
 0.137400E+001
 0.140929E+001
 0.144357E+001
 0.147196E+001
 0.148720E+001
 0.105595E+001
 0.105876E+001
 0.106178E+001
 0.106503E+001
 0.106854E+001
 0.107234E+001
 0.107644E+001
 0.108090E+001
 0.108575E+001
 0.109103E+001
 0.109681E+001
 0.110314E+001
 0.111008E+001
 0.111774E+001
 0.112618E+001
 0.113554E+001
 0.114593E+001
 0.115750E+001
 0.117042E+001
 0.118490E+001
 0.120118E+001
 0.121951E+001
 0.124022E+001
 0.126364E+001
 0.129015E+001
 0.132013E+001
 0.135391E+001
 0.139164E+001
 0.143316E+001
 0.147765E+001
 0.152371E+001
 0.157076E+001
 0.105724E+001
 0.106010E+001
 0.106318E+001
 0.106650E+001
 0.107008E+001
 0.107394E+001
 0.107813E+001
 0.108268E+001
 0.108762E+001
 0.109301E+001
 0.109890E+001
 0.110535E+001
 0.111244E+001
 0.112025E+001
 0.112887E+001
 0.113843E+001
 0.114905E+001
 0.116090E+001
 0.117415E+001
 0.118902E+001
 0.120577E+001
 0.122471E+001
 0.124619E+001
 0.127063E+001
 0.129852E+001
 0.133042E+001
 0.136697E+001
 0.140887E+001
 0.145688E+001
 0.151194E+001
 0.157597E+001
 0.165458E+001
 0.105823E+001
 0.106114E+001
 0.106426E+001
 0.106763E+001
 0.107126E+001
 0.107518E+001
 0.107943E+001
 0.108404E+001
 0.108906E+001
 0.109453E+001
 0.110051E+001
 0.110707E+001
 0.111427E+001
 0.112221E+001
 0.113098E+001
 0.114071E+001
 0.115154E+001
 0.116362E+001
 0.117717E+001
 0.119240E+001
 0.120961E+001
 0.122913E+001
 0.125137E+001
 0.127683E+001
 0.130613E+001
 0.134002E+001
 0.137946E+001
 0.142569E+001
 0.148042E+001
 0.154634E+001
 0.162850E+001
 0.173827E+001
 0.105890E+001
 0.106184E+001
 0.106500E+001
 0.106840E+001
 0.107206E+001
 0.107603E+001
 0.108032E+001
 0.108498E+001
 0.109005E+001
 0.109558E+001
 0.110162E+001
 0.110825E+001
 0.111554E+001
 0.112358E+001
 0.113248E+001
 0.114235E+001
 0.115335E+001
 0.116565E+001
 0.117946E+001
 0.119503E+001
 0.121268E+001
 0.123276E+001
 0.125576E+001
 0.128226E+001
 0.131299E+001
 0.134893E+001
 0.139137E+001
 0.144209E+001
 0.150377E+001
 0.158075E+001
 0.168109E+001
 0.182137E+001
 0.105924E+001
 0.106219E+001
 0.106537E+001
 0.106878E+001
 0.107247E+001
 0.107645E+001
 0.108076E+001
 0.108545E+001
 0.109055E+001
 0.109612E+001
 0.110221E+001
 0.110889E+001
 0.111624E+001
 0.112436E+001
 0.113334E+001
 0.114333E+001
 0.115448E+001
 0.116697E+001
 0.118102E+001
 0.119690E+001
 0.121496E+001
 0.123560E+001
 0.125936E+001
 0.128691E+001
 0.131912E+001
 0.135718E+001
 0.140271E+001
 0.145807E+001
 0.152686E+001
 0.161505E+001
 0.173346E+001
 0.190344E+001
 0.105923E+001
 0.106218E+001
 0.106535E+001
 0.106877E+001
 0.107245E+001
 0.107644E+001
 0.108076E+001
 0.108545E+001
 0.109056E+001
 0.109614E+001
 0.110225E+001
 0.110896E+001
 0.111635E+001
 0.112452E+001
 0.113357E+001
 0.114365E+001
 0.115492E+001
 0.116757E+001
 0.118184E+001
 0.119802E+001
 0.121648E+001
 0.123767E+001
 0.126219E+001
 0.129081E+001
 0.132454E+001
 0.136477E+001
 0.141350E+001
 0.147361E+001
 0.154964E+001
 0.164907E+001
 0.178532E+001
 0.198400E+001
 0.105885E+001
 0.106179E+001
 0.106495E+001
 0.106835E+001
 0.107202E+001
 0.107599E+001
 0.108029E+001
 0.108498E+001
 0.109008E+001
 0.109565E+001
 0.110176E+001
 0.110847E+001
 0.111588E+001
 0.112407E+001
 0.113317E+001
 0.114332E+001
 0.115469E+001
 0.116748E+001
 0.118194E+001
 0.119840E+001
 0.121725E+001
 0.123900E+001
 0.126429E+001
 0.129399E+001
 0.132927E+001
 0.137175E+001
 0.142373E+001
 0.148869E+001
 0.157201E+001
 0.168265E+001
 0.183635E+001
 0.206259E+001
 0.105813E+001
 0.106104E+001
 0.106417E+001
 0.106753E+001
 0.107117E+001
 0.107511E+001
 0.107939E+001
 0.108404E+001
 0.108911E+001
 0.109466E+001
 0.110075E+001
 0.110745E+001
 0.111485E+001
 0.112305E+001
 0.113217E+001
 0.114237E+001
 0.115381E+001
 0.116672E+001
 0.118138E+001
 0.119810E+001
 0.121734E+001
 0.123963E+001
 0.126570E+001
 0.129651E+001
 0.133337E+001
 0.137813E+001
 0.143343E+001
 0.150327E+001
 0.159389E+001
 0.171558E+001
 0.188623E+001
 0.213872E+001
 0.105707E+001
 0.105994E+001
 0.106302E+001
 0.106634E+001
 0.106994E+001
 0.107383E+001
 0.107806E+001
 0.108266E+001
 0.108769E+001
 0.109320E+001
 0.109925E+001
 0.110591E+001
 0.111329E+001
 0.112148E+001
 0.113061E+001
 0.114084E+001
 0.115234E+001
 0.116536E+001
 0.118019E+001
 0.119717E+001
 0.121679E+001
 0.123963E+001
 0.126648E+001
 0.129841E+001
 0.133688E+001
 0.138394E+001
 0.144259E+001
 0.151731E+001
 0.161516E+001
 0.174765E+001
 0.193461E+001
 0.221190E+001
 0.105570E+001
 0.105852E+001
 0.106154E+001
 0.106481E+001
 0.106834E+001
 0.107218E+001
 0.107635E+001
 0.108089E+001
 0.108586E+001
 0.109131E+001
 0.109731E+001
 0.110393E+001
 0.111127E+001
 0.111943E+001
 0.112855E+001
 0.113879E+001
 0.115035E+001
 0.116347E+001
 0.117846E+001
 0.119569E+001
 0.121568E+001
 0.123907E+001
 0.126671E+001
 0.129977E+001
 0.133985E+001
 0.138922E+001
 0.145120E+001
 0.153075E+001
 0.163567E+001
 0.177861E+001
 0.198112E+001
 0.228166E+001
 0.105407E+001
 0.105682E+001
 0.105978E+001
 0.106298E+001
 0.106645E+001
 0.107021E+001
 0.107431E+001
 0.107878E+001
 0.108368E+001
 0.108907E+001
 0.109500E+001
 0.110156E+001
 0.110885E+001
 0.111698E+001
 0.112608E+001
 0.113633E+001
 0.114792E+001
 0.116113E+001
 0.117627E+001
 0.119375E+001
 0.121411E+001
 0.123804E+001
 0.126647E+001
 0.130065E+001
 0.134233E+001
 0.139399E+001
 0.145925E+001
 0.154352E+001
 0.165529E+001
 0.180823E+001
 0.202541E+001
 0.234753E+001
 0.105222E+001
 0.105490E+001
 0.105779E+001
 0.106092E+001
 0.106431E+001
 0.106799E+001
 0.107201E+001
 0.107641E+001
 0.108123E+001
 0.108654E+001
 0.109240E+001
 0.109890E+001
 0.110613E+001
 0.111421E+001
 0.112328E+001
 0.113353E+001
 0.114516E+001
 0.115845E+001
 0.117373E+001
 0.119145E+001
 0.121217E+001
 0.123664E+001
 0.126584E+001
 0.130113E+001
 0.134438E+001
 0.139828E+001
 0.146672E+001
 0.155555E+001
 0.167386E+001
 0.183624E+001
 0.206710E+001
 0.240906E+001
 0.105023E+001
 0.105283E+001
 0.105564E+001
 0.105869E+001
 0.106200E+001
 0.106561E+001
 0.106954E+001
 0.107386E+001
 0.107860E+001
 0.108382E+001
 0.108961E+001
 0.109603E+001
 0.110320E+001
 0.111123E+001
 0.112027E+001
 0.113051E+001
 0.114217E+001
 0.115553E+001
 0.117096E+001
 0.118891E+001
 0.120998E+001
 0.123496E+001
 0.126492E+001
 0.130128E+001
 0.134606E+001
 0.140211E+001
 0.147359E+001
 0.156674E+001
 0.169120E+001
 0.186238E+001
 0.210584E+001
 0.246582E+001
 0.104816E+001
 0.105069E+001
 0.105342E+001
 0.105639E+001
 0.105961E+001
 0.106314E+001
 0.106699E+001
 0.107122E+001
 0.107587E+001
 0.108102E+001
 0.108672E+001
 0.109308E+001
 0.110018E+001
 0.110816E+001
 0.111716E+001
 0.112739E+001
 0.113907E+001
 0.115251E+001
 0.116807E+001
 0.118624E+001
 0.120765E+001
 0.123313E+001
 0.126380E+001
 0.130118E+001
 0.134741E+001
 0.140549E+001
 0.147983E+001
 0.157701E+001
 0.170716E+001
 0.188640E+001
 0.214129E+001
 0.251739E+001
 0.104610E+001
 0.104855E+001
 0.105121E+001
 0.105409E+001
 0.105724E+001
 0.106068E+001
 0.106445E+001
 0.106860E+001
 0.107317E+001
 0.107824E+001
 0.108386E+001
 0.109014E+001
 0.109718E+001
 0.110511E+001
 0.111408E+001
 0.112430E+001
 0.113600E+001
 0.114950E+001
 0.116519E+001
 0.118356E+001
 0.120529E+001
 0.123124E+001
 0.126258E+001
 0.130092E+001
 0.134848E+001
 0.140844E+001
 0.148540E+001
 0.158626E+001
 0.172157E+001
 0.190805E+001
 0.217310E+001
 0.256341E+001
 0.104413E+001
 0.104651E+001
 0.104909E+001
 0.105190E+001
 0.105497E+001
 0.105834E+001
 0.106203E+001
 0.106610E+001
 0.107060E+001
 0.107559E+001
 0.108114E+001
 0.108736E+001
 0.109434E+001
 0.110221E+001
 0.111116E+001
 0.112136E+001
 0.113308E+001
 0.114664E+001
 0.116244E+001
 0.118101E+001
 0.120302E+001
 0.122939E+001
 0.126135E+001
 0.130054E+001
 0.134931E+001
 0.141096E+001
 0.149027E+001
 0.159440E+001
 0.173427E+001
 0.192710E+001
 0.220099E+001
 0.260352E+001
 0.104234E+001
 0.104465E+001
 0.104716E+001
 0.104991E+001
 0.105291E+001
 0.105620E+001
 0.105983E+001
 0.106383E+001
 0.106826E+001
 0.107318E+001
 0.107867E+001
 0.108482E+001
 0.109175E+001
 0.109959E+001
 0.110850E+001
 0.111870E+001
 0.113044E+001
 0.114405E+001
 0.115995E+001
 0.117868E+001
 0.120095E+001
 0.122769E+001
 0.126018E+001
 0.130013E+001
 0.134995E+001
 0.141306E+001
 0.149440E+001
 0.160134E+001
 0.174510E+001
 0.194333E+001
 0.222467E+001
 0.263743E+001
 0.104079E+001
 0.104304E+001
 0.104550E+001
 0.104819E+001
 0.105113E+001
 0.105437E+001
 0.105794E+001
 0.106188E+001
 0.106625E+001
 0.107111E+001
 0.107655E+001
 0.108265E+001
 0.108954E+001
 0.109734E+001
 0.110623E+001
 0.111641E+001
 0.112817E+001
 0.114182E+001
 0.115781E+001
 0.117668E+001
 0.119916E+001
 0.122622E+001
 0.125915E+001
 0.129973E+001
 0.135042E+001
 0.141474E+001
 0.149775E+001
 0.160700E+001
 0.175394E+001
 0.195655E+001
 0.224391E+001
 0.266487E+001
 0.103957E+001
 0.104177E+001
 0.104419E+001
 0.104683E+001
 0.104973E+001
 0.105292E+001
 0.105644E+001
 0.106033E+001
 0.106466E+001
 0.106948E+001
 0.107487E+001
 0.108094E+001
 0.108779E+001
 0.109556E+001
 0.110443E+001
 0.111461E+001
 0.112638E+001
 0.114007E+001
 0.115612E+001
 0.117510E+001
 0.119775E+001
 0.122505E+001
 0.125833E+001
 0.129939E+001
 0.135076E+001
 0.141600E+001
 0.150030E+001
 0.161130E+001
 0.176067E+001
 0.196661E+001
 0.225852E+001
 0.268565E+001
 0.103872E+001
 0.104089E+001
 0.104328E+001
 0.104589E+001
 0.104876E+001
 0.105191E+001
 0.105540E+001
 0.105927E+001
 0.106356E+001
 0.106835E+001
 0.107372E+001
 0.107975E+001
 0.108658E+001
 0.109433E+001
 0.110319E+001
 0.111337E+001
 0.112514E+001
 0.113885E+001
 0.115495E+001
 0.117401E+001
 0.119677E+001
 0.122424E+001
 0.125775E+001
 0.129914E+001
 0.135097E+001
 0.141684E+001
 0.150201E+001
 0.161421E+001
 0.176521E+001
 0.197339E+001
 0.226835E+001
 0.269959E+001
 0.103828E+001
 0.104044E+001
 0.104281E+001
 0.104541E+001
 0.104826E+001
 0.105140E+001
 0.105487E+001
 0.105872E+001
 0.106300E+001
 0.106777E+001
 0.107312E+001
 0.107915E+001
 0.108596E+001
 0.109370E+001
 0.110255E+001
 0.111273E+001
 0.112451E+001
 0.113823E+001
 0.115436E+001
 0.117345E+001
 0.119627E+001
 0.122382E+001
 0.125745E+001
 0.129901E+001
 0.135107E+001
 0.141727E+001
 0.150287E+001
 0.161567E+001
 0.176750E+001
 0.197680E+001
 0.227329E+001
 0.270658E+001
 0.103828E+001
 0.104044E+001
 0.104281E+001
 0.104541E+001
 0.104826E+001
 0.105140E+001
 0.105487E+001
 0.105872E+001
 0.106300E+001
 0.106777E+001
 0.107312E+001
 0.107915E+001
 0.108596E+001
 0.109370E+001
 0.110255E+001
 0.111273E+001
 0.112451E+001
 0.113823E+001
 0.115436E+001
 0.117345E+001
 0.119627E+001
 0.122382E+001
 0.125745E+001
 0.129901E+001
 0.135107E+001
 0.141727E+001
 0.150287E+001
 0.161567E+001
 0.176750E+001
 0.197680E+001
 0.227329E+001
 0.270658E+001
 0.103872E+001
 0.104089E+001
 0.104328E+001
 0.104589E+001
 0.104876E+001
 0.105191E+001
 0.105540E+001
 0.105927E+001
 0.106356E+001
 0.106835E+001
 0.107372E+001
 0.107975E+001
 0.108658E+001
 0.109433E+001
 0.110319E+001
 0.111337E+001
 0.112514E+001
 0.113885E+001
 0.115495E+001
 0.117401E+001
 0.119677E+001
 0.122424E+001
 0.125775E+001
 0.129914E+001
 0.135097E+001
 0.141684E+001
 0.150201E+001
 0.161421E+001
 0.176521E+001
 0.197339E+001
 0.226835E+001
 0.269959E+001
 0.103957E+001
 0.104177E+001
 0.104419E+001
 0.104683E+001
 0.104973E+001
 0.105292E+001
 0.105644E+001
 0.106033E+001
 0.106466E+001
 0.106948E+001
 0.107487E+001
 0.108094E+001
 0.108779E+001
 0.109556E+001
 0.110443E+001
 0.111461E+001
 0.112638E+001
 0.114007E+001
 0.115612E+001
 0.117510E+001
 0.119775E+001
 0.122505E+001
 0.125833E+001
 0.129939E+001
 0.135076E+001
 0.141600E+001
 0.150030E+001
 0.161130E+001
 0.176067E+001
 0.196661E+001
 0.225852E+001
 0.268565E+001
 0.104079E+001
 0.104304E+001
 0.104550E+001
 0.104819E+001
 0.105113E+001
 0.105437E+001
 0.105794E+001
 0.106188E+001
 0.106625E+001
 0.107111E+001
 0.107655E+001
 0.108265E+001
 0.108954E+001
 0.109734E+001
 0.110623E+001
 0.111641E+001
 0.112817E+001
 0.114182E+001
 0.115781E+001
 0.117668E+001
 0.119916E+001
 0.122622E+001
 0.125915E+001
 0.129973E+001
 0.135042E+001
 0.141474E+001
 0.149775E+001
 0.160700E+001
 0.175394E+001
 0.195655E+001
 0.224391E+001
 0.266487E+001
 0.104234E+001
 0.104465E+001
 0.104716E+001
 0.104991E+001
 0.105291E+001
 0.105620E+001
 0.105983E+001
 0.106383E+001
 0.106826E+001
 0.107318E+001
 0.107867E+001
 0.108482E+001
 0.109175E+001
 0.109959E+001
 0.110850E+001
 0.111870E+001
 0.113044E+001
 0.114405E+001
 0.115995E+001
 0.117868E+001
 0.120095E+001
 0.122769E+001
 0.126018E+001
 0.130013E+001
 0.134995E+001
 0.141306E+001
 0.149440E+001
 0.160134E+001
 0.174510E+001
 0.194333E+001
 0.222467E+001
 0.263743E+001
 0.104413E+001
 0.104651E+001
 0.104909E+001
 0.105190E+001
 0.105497E+001
 0.105834E+001
 0.106203E+001
 0.106610E+001
 0.107060E+001
 0.107559E+001
 0.108114E+001
 0.108736E+001
 0.109434E+001
 0.110221E+001
 0.111116E+001
 0.112136E+001
 0.113308E+001
 0.114664E+001
 0.116244E+001
 0.118101E+001
 0.120302E+001
 0.122939E+001
 0.126135E+001
 0.130054E+001
 0.134931E+001
 0.141096E+001
 0.149027E+001
 0.159440E+001
 0.173427E+001
 0.192710E+001
 0.220099E+001
 0.260352E+001
 0.104610E+001
 0.104855E+001
 0.105121E+001
 0.105409E+001
 0.105724E+001
 0.106068E+001
 0.106445E+001
 0.106860E+001
 0.107317E+001
 0.107824E+001
 0.108386E+001
 0.109014E+001
 0.109718E+001
 0.110511E+001
 0.111408E+001
 0.112430E+001
 0.113600E+001
 0.114950E+001
 0.116519E+001
 0.118356E+001
 0.120529E+001
 0.123124E+001
 0.126258E+001
 0.130092E+001
 0.134848E+001
 0.140844E+001
 0.148540E+001
 0.158626E+001
 0.172157E+001
 0.190805E+001
 0.217310E+001
 0.256341E+001
 0.104816E+001
 0.105069E+001
 0.105342E+001
 0.105639E+001
 0.105961E+001
 0.106314E+001
 0.106699E+001
 0.107122E+001
 0.107587E+001
 0.108102E+001
 0.108672E+001
 0.109308E+001
 0.110018E+001
 0.110816E+001
 0.111716E+001
 0.112739E+001
 0.113907E+001
 0.115251E+001
 0.116807E+001
 0.118624E+001
 0.120765E+001
 0.123313E+001
 0.126380E+001
 0.130118E+001
 0.134741E+001
 0.140549E+001
 0.147983E+001
 0.157701E+001
 0.170716E+001
 0.188640E+001
 0.214129E+001
 0.251739E+001
 0.105023E+001
 0.105283E+001
 0.105564E+001
 0.105869E+001
 0.106200E+001
 0.106561E+001
 0.106954E+001
 0.107386E+001
 0.107860E+001
 0.108382E+001
 0.108961E+001
 0.109603E+001
 0.110320E+001
 0.111123E+001
 0.112027E+001
 0.113051E+001
 0.114217E+001
 0.115553E+001
 0.117096E+001
 0.118891E+001
 0.120998E+001
 0.123496E+001
 0.126492E+001
 0.130128E+001
 0.134606E+001
 0.140211E+001
 0.147359E+001
 0.156674E+001
 0.169120E+001
 0.186238E+001
 0.210584E+001
 0.246582E+001
 0.105222E+001
 0.105490E+001
 0.105779E+001
 0.106092E+001
 0.106431E+001
 0.106799E+001
 0.107201E+001
 0.107641E+001
 0.108123E+001
 0.108654E+001
 0.109240E+001
 0.109890E+001
 0.110613E+001
 0.111421E+001
 0.112328E+001
 0.113353E+001
 0.114516E+001
 0.115845E+001
 0.117373E+001
 0.119145E+001
 0.121217E+001
 0.123664E+001
 0.126584E+001
 0.130113E+001
 0.134438E+001
 0.139828E+001
 0.146672E+001
 0.155555E+001
 0.167386E+001
 0.183624E+001
 0.206710E+001
 0.240906E+001
 0.105407E+001
 0.105682E+001
 0.105978E+001
 0.106298E+001
 0.106645E+001
 0.107021E+001
 0.107431E+001
 0.107878E+001
 0.108368E+001
 0.108907E+001
 0.109500E+001
 0.110156E+001
 0.110885E+001
 0.111698E+001
 0.112608E+001
 0.113633E+001
 0.114792E+001
 0.116113E+001
 0.117627E+001
 0.119375E+001
 0.121411E+001
 0.123804E+001
 0.126647E+001
 0.130065E+001
 0.134233E+001
 0.139399E+001
 0.145925E+001
 0.154352E+001
 0.165529E+001
 0.180823E+001
 0.202541E+001
 0.234753E+001
 0.105570E+001
 0.105852E+001
 0.106154E+001
 0.106481E+001
 0.106834E+001
 0.107218E+001
 0.107635E+001
 0.108089E+001
 0.108586E+001
 0.109131E+001
 0.109731E+001
 0.110393E+001
 0.111127E+001
 0.111943E+001
 0.112855E+001
 0.113879E+001
 0.115035E+001
 0.116347E+001
 0.117846E+001
 0.119569E+001
 0.121568E+001
 0.123907E+001
 0.126671E+001
 0.129977E+001
 0.133985E+001
 0.138922E+001
 0.145120E+001
 0.153075E+001
 0.163567E+001
 0.177861E+001
 0.198112E+001
 0.228166E+001
 0.105707E+001
 0.105994E+001
 0.106302E+001
 0.106634E+001
 0.106994E+001
 0.107383E+001
 0.107806E+001
 0.108266E+001
 0.108769E+001
 0.109320E+001
 0.109925E+001
 0.110591E+001
 0.111329E+001
 0.112148E+001
 0.113061E+001
 0.114084E+001
 0.115234E+001
 0.116536E+001
 0.118019E+001
 0.119717E+001
 0.121679E+001
 0.123963E+001
 0.126648E+001
 0.129841E+001
 0.133688E+001
 0.138394E+001
 0.144259E+001
 0.151731E+001
 0.161516E+001
 0.174765E+001
 0.193461E+001
 0.221190E+001
 0.105813E+001
 0.106104E+001
 0.106417E+001
 0.106753E+001
 0.107117E+001
 0.107511E+001
 0.107939E+001
 0.108404E+001
 0.108911E+001
 0.109466E+001
 0.110075E+001
 0.110745E+001
 0.111485E+001
 0.112305E+001
 0.113217E+001
 0.114237E+001
 0.115381E+001
 0.116672E+001
 0.118138E+001
 0.119810E+001
 0.121734E+001
 0.123963E+001
 0.126570E+001
 0.129651E+001
 0.133337E+001
 0.137813E+001
 0.143343E+001
 0.150327E+001
 0.159389E+001
 0.171558E+001
 0.188623E+001
 0.213872E+001
 0.105885E+001
 0.106179E+001
 0.106495E+001
 0.106835E+001
 0.107202E+001
 0.107599E+001
 0.108029E+001
 0.108498E+001
 0.109008E+001
 0.109565E+001
 0.110176E+001
 0.110847E+001
 0.111588E+001
 0.112407E+001
 0.113317E+001
 0.114332E+001
 0.115469E+001
 0.116748E+001
 0.118194E+001
 0.119840E+001
 0.121725E+001
 0.123900E+001
 0.126429E+001
 0.129399E+001
 0.132927E+001
 0.137175E+001
 0.142373E+001
 0.148869E+001
 0.157201E+001
 0.168265E+001
 0.183635E+001
 0.206259E+001
 0.105923E+001
 0.106218E+001
 0.106535E+001
 0.106877E+001
 0.107245E+001
 0.107644E+001
 0.108076E+001
 0.108545E+001
 0.109056E+001
 0.109614E+001
 0.110225E+001
 0.110896E+001
 0.111635E+001
 0.112452E+001
 0.113357E+001
 0.114365E+001
 0.115492E+001
 0.116757E+001
 0.118184E+001
 0.119802E+001
 0.121648E+001
 0.123767E+001
 0.126219E+001
 0.129081E+001
 0.132454E+001
 0.136477E+001
 0.141350E+001
 0.147361E+001
 0.154964E+001
 0.164907E+001
 0.178532E+001
 0.198400E+001
 0.105924E+001
 0.106219E+001
 0.106537E+001
 0.106878E+001
 0.107247E+001
 0.107645E+001
 0.108076E+001
 0.108545E+001
 0.109055E+001
 0.109612E+001
 0.110221E+001
 0.110889E+001
 0.111624E+001
 0.112436E+001
 0.113334E+001
 0.114333E+001
 0.115448E+001
 0.116697E+001
 0.118102E+001
 0.119690E+001
 0.121496E+001
 0.123560E+001
 0.125936E+001
 0.128691E+001
 0.131912E+001
 0.135718E+001
 0.140271E+001
 0.145807E+001
 0.152686E+001
 0.161505E+001
 0.173346E+001
 0.190344E+001
 0.105890E+001
 0.106184E+001
 0.106500E+001
 0.106840E+001
 0.107206E+001
 0.107603E+001
 0.108032E+001
 0.108498E+001
 0.109005E+001
 0.109558E+001
 0.110162E+001
 0.110825E+001
 0.111554E+001
 0.112358E+001
 0.113248E+001
 0.114235E+001
 0.115335E+001
 0.116565E+001
 0.117946E+001
 0.119503E+001
 0.121268E+001
 0.123276E+001
 0.125576E+001
 0.128226E+001
 0.131299E+001
 0.134893E+001
 0.139137E+001
 0.144209E+001
 0.150377E+001
 0.158075E+001
 0.168109E+001
 0.182137E+001
 0.105823E+001
 0.106114E+001
 0.106426E+001
 0.106763E+001
 0.107126E+001
 0.107518E+001
 0.107943E+001
 0.108404E+001
 0.108906E+001
 0.109453E+001
 0.110051E+001
 0.110707E+001
 0.111427E+001
 0.112221E+001
 0.113098E+001
 0.114071E+001
 0.115154E+001
 0.116362E+001
 0.117717E+001
 0.119240E+001
 0.120961E+001
 0.122913E+001
 0.125137E+001
 0.127683E+001
 0.130613E+001
 0.134002E+001
 0.137946E+001
 0.142569E+001
 0.148042E+001
 0.154634E+001
 0.162850E+001
 0.173827E+001
 0.105724E+001
 0.106010E+001
 0.106318E+001
 0.106650E+001
 0.107008E+001
 0.107394E+001
 0.107813E+001
 0.108268E+001
 0.108762E+001
 0.109301E+001
 0.109890E+001
 0.110535E+001
 0.111244E+001
 0.112025E+001
 0.112887E+001
 0.113843E+001
 0.114905E+001
 0.116090E+001
 0.117415E+001
 0.118902E+001
 0.120577E+001
 0.122471E+001
 0.124619E+001
 0.127063E+001
 0.129852E+001
 0.133042E+001
 0.136697E+001
 0.140887E+001
 0.145688E+001
 0.151194E+001
 0.157597E+001
 0.165458E+001
 0.105595E+001
 0.105876E+001
 0.106178E+001
 0.106503E+001
 0.106854E+001
 0.107234E+001
 0.107644E+001
 0.108090E+001
 0.108575E+001
 0.109103E+001
 0.109681E+001
 0.110314E+001
 0.111008E+001
 0.111774E+001
 0.112618E+001
 0.113554E+001
 0.114593E+001
 0.115750E+001
 0.117042E+001
 0.118490E+001
 0.120118E+001
 0.121951E+001
 0.124022E+001
 0.126364E+001
 0.129015E+001
 0.132013E+001
 0.135391E+001
 0.139164E+001
 0.143316E+001
 0.147765E+001
 0.152371E+001
 0.157076E+001
 0.105441E+001
 0.105715E+001
 0.106010E+001
 0.106327E+001
 0.106669E+001
 0.107040E+001
 0.107440E+001
 0.107876E+001
 0.108349E+001
 0.108865E+001
 0.109429E+001
 0.110047E+001
 0.110725E+001
 0.111471E+001
 0.112296E+001
 0.113208E+001
 0.114220E+001
 0.115346E+001
 0.116603E+001
 0.118009E+001
 0.119586E+001
 0.121357E+001
 0.123348E+001
 0.125589E+001
 0.128104E+001
 0.130916E+001
 0.134025E+001
 0.137400E+001
 0.140929E+001
 0.144357E+001
 0.147196E+001
 0.148720E+001
 0.105264E+001
 0.105530E+001
 0.105816E+001
 0.106124E+001
 0.106457E+001
 0.106816E+001
 0.107206E+001
 0.107628E+001
 0.108089E+001
 0.108590E+001
 0.109138E+001
 0.109738E+001
 0.110398E+001
 0.111123E+001
 0.111924E+001
 0.112810E+001
 0.113792E+001
 0.114885E+001
 0.116103E+001
 0.117463E+001
 0.118985E+001
 0.120691E+001
 0.122602E+001
 0.124739E+001
 0.127121E+001
 0.129749E+001
 0.132601E+001
 0.135593E+001
 0.138527E+001
 0.140973E+001
 0.142087E+001
 0.140431E+001
 0.105068E+001
 0.105325E+001
 0.105601E+001
 0.105898E+001
 0.106220E+001
 0.106567E+001
 0.106944E+001
 0.107353E+001
 0.107798E+001
 0.108283E+001
 0.108813E+001
 0.109394E+001
 0.110032E+001
 0.110734E+001
 0.111508E+001
 0.112365E+001
 0.113315E+001
 0.114370E+001
 0.115545E+001
 0.116857E+001
 0.118322E+001
 0.119959E+001
 0.121786E+001
 0.123820E+001
 0.126067E+001
 0.128517E+001
 0.131119E+001
 0.133745E+001
 0.136112E+001
 0.137620E+001
 0.137062E+001
 0.132245E+001
 0.104856E+001
 0.105102E+001
 0.105368E+001
 0.105654E+001
 0.105963E+001
 0.106297E+001
 0.106660E+001
 0.107053E+001
 0.107482E+001
 0.107949E+001
 0.108459E+001
 0.109019E+001
 0.109633E+001
 0.110309E+001
 0.111054E+001
 0.111879E+001
 0.112793E+001
 0.113808E+001
 0.114938E+001
 0.116197E+001
 0.117601E+001
 0.119166E+001
 0.120908E+001
 0.122835E+001
 0.124947E+001
 0.127220E+001
 0.129581E+001
 0.131856E+001
 0.133681E+001
 0.134297E+001
 0.132132E+001
 0.124197E+001
 0.104631E+001
 0.104866E+001
 0.105120E+001
 0.105394E+001
 0.105690E+001
 0.106010E+001
 0.106357E+001
 0.106734E+001
 0.107144E+001
 0.107592E+001
 0.108081E+001
 0.108617E+001
 0.109206E+001
 0.109854E+001
 0.110568E+001
 0.111358E+001
 0.112234E+001
 0.113206E+001
 0.114287E+001
 0.115490E+001
 0.116830E+001
 0.118320E+001
 0.119971E+001
 0.121790E+001
 0.123767E+001
 0.125863E+001
 0.127987E+001
 0.129926E+001
 0.131236E+001
 0.131006E+001
 0.127307E+001
 0.116317E+001
 0.104396E+001
 0.104620E+001
 0.104862E+001
 0.105123E+001
 0.105404E+001
 0.105709E+001
 0.106040E+001
 0.106399E+001
 0.106791E+001
 0.107217E+001
 0.107684E+001
 0.108195E+001
 0.108756E+001
 0.109374E+001
 0.110055E+001
 0.110809E+001
 0.111643E+001
 0.112569E+001
 0.113598E+001
 0.114742E+001
 0.116014E+001
 0.117425E+001
 0.118984E+001
 0.120691E+001
 0.122530E+001
 0.124451E+001
 0.126341E+001
 0.127955E+001
 0.128776E+001
 0.127746E+001
 0.122595E+001
 0.108633E+001
 0.104155E+001
 0.104367E+001
 0.104596E+001
 0.104843E+001
 0.105110E+001
 0.105399E+001
 0.105713E+001
 0.106053E+001
 0.106424E+001
 0.106829E+001
 0.107272E+001
 0.107757E+001
 0.108289E+001
 0.108875E+001
 0.109522E+001
 0.110236E+001
 0.111027E+001
 0.111905E+001
 0.112878E+001
 0.113961E+001
 0.115161E+001
 0.116490E+001
 0.117953E+001
 0.119544E+001
 0.121243E+001
 0.122989E+001
 0.124645E+001
 0.125945E+001
 0.126300E+001
 0.124516E+001
 0.118001E+001
 0.101172E+001
 0.103910E+001
 0.104109E+001
 0.104325E+001
 0.104558E+001
 0.104810E+001
 0.105082E+001
 0.105378E+001
 0.105700E+001
 0.106050E+001
 0.106432E+001
 0.106849E+001
 0.107307E+001
 0.107810E+001
 0.108363E+001
 0.108972E+001
 0.109646E+001
 0.110392E+001
 0.111218E+001
 0.112135E+001
 0.113151E+001
 0.114279E+001
 0.115520E+001
 0.116884E+001
 0.118357E+001
 0.119911E+001
 0.121482E+001
 0.122908E+001
 0.123895E+001
 0.123810E+001
 0.121315E+001
 0.113531E+001
 0.939546E+000
 0.103663E+001
 0.103850E+001
 0.104052E+001
 0.104270E+001
 0.104507E+001
 0.104762E+001
 0.105040E+001
 0.105342E+001
 0.105670E+001
 0.106029E+001
 0.106421E+001
 0.106850E+001
 0.107322E+001
 0.107841E+001
 0.108412E+001
 0.109044E+001
 0.109743E+001
 0.110516E+001
 0.111373E+001
 0.112323E+001
 0.113371E+001
 0.114528E+001
 0.115783E+001
 0.117139E+001
 0.118542E+001
 0.119934E+001
 0.121135E+001
 0.121809E+001
 0.121300E+001
 0.118143E+001
 0.109189E+001
 0.870040E+000
 0.103416E+001
 0.103590E+001
 0.103779E+001
 0.103983E+001
 0.104203E+001
 0.104442E+001
 0.104701E+001
 0.104983E+001
 0.105289E+001
 0.105624E+001
 0.105990E+001
 0.106390E+001
 0.106830E+001
 0.107314E+001
 0.107847E+001
 0.108435E+001
 0.109085E+001
 0.109804E+001
 0.110600E+001
 0.111479E+001
 0.112449E+001
 0.113511E+001
 0.114665E+001
 0.115886E+001
 0.117153E+001
 0.118346E+001
 0.119332E+001
 0.119696E+001
 0.118768E+001
 0.114988E+001
 0.104996E+001
 0.803360E+000
 0.103172E+001
 0.103333E+001
 0.103508E+001
 0.103697E+001
 0.103902E+001
 0.104123E+001
 0.104364E+001
 0.104625E+001
 0.104910E+001
 0.105220E+001
 0.105559E+001
 0.105931E+001
 0.106338E+001
 0.106786E+001
 0.107279E+001
 0.107823E+001
 0.108424E+001
 0.109087E+001
 0.109820E+001
 0.110628E+001
 0.111516E+001
 0.112483E+001
 0.113526E+001
 0.114622E+001
 0.115728E+001
 0.116747E+001
 0.117484E+001
 0.117570E+001
 0.116217E+001
 0.111837E+001
 0.100935E+001
 0.740800E+000
 0.103016E+001
 0.103169E+001
 0.103335E+001
 0.103513E+001
 0.103706E+001
 0.103915E+001
 0.104142E+001
 0.104388E+001
 0.104655E+001
 0.104947E+001
 0.105265E+001
 0.105613E+001
 0.105994E+001
 0.106411E+001
 0.106871E+001
 0.107376E+001
 0.107932E+001
 0.108544E+001
 0.109217E+001
 0.109955E+001
 0.110759E+001
 0.111628E+001
 0.112549E+001
 0.113501E+001
 0.114421E+001
 0.115214E+001
 0.115650E+001
 0.115354E+001
 0.113463E+001
 0.108378E+001
 0.963461E+000
 0.680224E+000
 0.102929E+001
 0.103076E+001
 0.103235E+001
 0.103406E+001
 0.103591E+001
 0.103790E+001
 0.104006E+001
 0.104239E+001
 0.104493E+001
 0.104769E+001
 0.105069E+001
 0.105396E+001
 0.105753E+001
 0.106143E+001
 0.106571E+001
 0.107038E+001
 0.107550E+001
 0.108109E+001
 0.108720E+001
 0.109381E+001
 0.110095E+001
 0.110848E+001
 0.111633E+001
 0.112400E+001
 0.113107E+001
 0.113593E+001
 0.113677E+001
 0.112852E+001
 0.110340E+001
 0.104351E+001
 0.911482E+000
 0.618104E+000
 0.102814E+001
 0.102954E+001
 0.103104E+001
 0.103266E+001
 0.103439E+001
 0.103627E+001
 0.103829E+001
 0.104048E+001
 0.104285E+001
 0.104541E+001
 0.104820E+001
 0.105122E+001
 0.105451E+001
 0.105809E+001
 0.106199E+001
 0.106623E+001
 0.107084E+001
 0.107584E+001
 0.108122E+001
 0.108699E+001
 0.109306E+001
 0.109939E+001
 0.110561E+001
 0.111147E+001
 0.111598E+001
 0.111794E+001
 0.111471E+001
 0.110146E+001
 0.106991E+001
 0.100112E+001
 0.859783E+000
 0.556991E+000
 0.102668E+001
 0.102798E+001
 0.102937E+001
 0.103087E+001
 0.103248E+001
 0.103421E+001
 0.103608E+001
 0.103809E+001
 0.104025E+001
 0.104259E+001
 0.104512E+001
 0.104786E+001
 0.105082E+001
 0.105403E+001
 0.105749E+001
 0.106123E+001
 0.106526E+001
 0.106957E+001
 0.107416E+001
 0.107895E+001
 0.108391E+001
 0.108881E+001
 0.109340E+001
 0.109714E+001
 0.109910E+001
 0.109788E+001
 0.109045E+001
 0.107233E+001
 0.103394E+001
 0.957573E+000
 0.807206E+000
 0.498930E+000
 0.102485E+001
 0.102604E+001
 0.102731E+001
 0.102867E+001
 0.103013E+001
 0.103169E+001
 0.103336E+001
 0.103516E+001
 0.103709E+001
 0.103917E+001
 0.104141E+001
 0.104381E+001
 0.104639E+001
 0.104917E+001
 0.105214E+001
 0.105531E+001
 0.105868E+001
 0.106223E+001
 0.106591E+001
 0.106966E+001
 0.107335E+001
 0.107674E+001
 0.107952E+001
 0.108101E+001
 0.108032E+001
 0.107566E+001
 0.106417E+001
 0.104085E+001
 0.996077E+000
 0.912540E+000
 0.754397E+000
 0.444020E+000
 0.102264E+001
 0.102369E+001
 0.102481E+001
 0.102600E+001
 0.102728E+001
 0.102864E+001
 0.103010E+001
 0.103165E+001
 0.103331E+001
 0.103509E+001
 0.103698E+001
 0.103901E+001
 0.104116E+001
 0.104345E+001
 0.104586E+001
 0.104840E+001
 0.105103E+001
 0.105373E+001
 0.105642E+001
 0.105901E+001
 0.106132E+001
 0.106310E+001
 0.106390E+001
 0.106307E+001
 0.105951E+001
 0.105138E+001
 0.103570E+001
 0.100720E+001
 0.956385E+000
 0.866179E+000
 0.701743E+000
 0.392409E+000
 0.101999E+001
 0.102088E+001
 0.102183E+001
 0.102283E+001
 0.102390E+001
 0.102503E+001
 0.102623E+001
 0.102751E+001
 0.102886E+001
 0.103029E+001
 0.103180E+001
 0.103339E+001
 0.103506E+001
 0.103680E+001
 0.103859E+001
 0.104042E+001
 0.104224E+001
 0.104400E+001
 0.104561E+001
 0.104693E+001
 0.104776E+001
 0.104779E+001
 0.104652E+001
 0.104323E+001
 0.103669E+001
 0.102502E+001
 0.100509E+001
 0.971510E+000
 0.914986E+000
 0.818715E+000
 0.649610E+000
 0.344161E+000
 0.101686E+001
 0.101757E+001
 0.101832E+001
 0.101911E+001
 0.101993E+001
 0.102081E+001
 0.102172E+001
 0.102268E+001
 0.102368E+001
 0.102472E+001
 0.102580E+001
 0.102691E+001
 0.102804E+001
 0.102916E+001
 0.103027E+001
 0.103131E+001
 0.103224E+001
 0.103298E+001
 0.103341E+001
 0.103337E+001
 0.103261E+001
 0.103078E+001
 0.102733E+001
 0.102145E+001
 0.101187E+001
 0.996593E+000
 0.972405E+000
 0.933913E+000
 0.872027E+000
 0.770429E+000
 0.598309E+000
 0.299315E+000
 0.101322E+001
 0.101372E+001
 0.101424E+001
 0.101478E+001
 0.101534E+001
 0.101592E+001
 0.101651E+001
 0.101712E+001
 0.101773E+001
 0.101833E+001
 0.101893E+001
 0.101950E+001
 0.102003E+001
 0.102049E+001
 0.102084E+001
 0.102102E+001
 0.102098E+001
 0.102061E+001
 0.101977E+001
 0.101827E+001
 0.101583E+001
 0.101203E+001
 0.100630E+001
 0.997754E+000
 0.985051E+000
 0.966142E+000
 0.937750E+000
 0.894554E+000
 0.827706E+000
 0.721621E+000
 0.548120E+000
 0.257883E+000
 0.100903E+001
 0.100930E+001
 0.100956E+001
 0.100983E+001
 0.101009E+001
 0.101034E+001
 0.101057E+001
 0.101078E+001
 0.101095E+001
 0.101108E+001
 0.101114E+001
 0.101113E+001
 0.101100E+001
 0.101072E+001
 0.101024E+001
 0.100951E+001
 0.100842E+001
 0.100686E+001
 0.100466E+001
 0.100161E+001
 0.997385E+000
 0.991543E+000
 0.983445E+000
 0.972157E+000
 0.956294E+000
 0.933755E+000
 0.901259E+000
 0.853603E+000
 0.782259E+000
 0.672598E+000
 0.499289E+000
 0.219853E+000
 0.100426E+001
 0.100426E+001
 0.100425E+001
 0.100421E+001
 0.100413E+001
 0.100401E+001
 0.100385E+001
 0.100362E+001
 0.100332E+001
 0.100292E+001
 0.100240E+001
 0.100174E+001
 0.100090E+001
 0.999826E+000
 0.998462E+000
 0.996727E+000
 0.994516E+000
 0.991689E+000
 0.988060E+000
 0.983377E+000
 0.977291E+000
 0.969321E+000
 0.958787E+000
 0.944713E+000
 0.925676E+000
 0.899550E+000
 0.863093E+000
 0.811265E+000
 0.735951E+000
 0.623665E+000
 0.452040E+000
 0.185189E+000
 0.998875E+000
 0.998593E+000
 0.998265E+000
 0.997884E+000
 0.997441E+000
 0.996925E+000
 0.996323E+000
 0.995619E+000
 0.994794E+000
 0.993824E+000
 0.992680E+000
 0.991324E+000
 0.989712E+000
 0.987785E+000
 0.985470E+000
 0.982673E+000
 0.979272E+000
 0.975107E+000
 0.969971E+000
 0.963583E+000
 0.955568E+000
 0.945409E+000
 0.932392E+000
 0.915509E+000
 0.893312E+000
 0.863680E+000
 0.823446E+000
 0.767777E+000
 0.689070E+000
 0.575123E+000
 0.406567E+000
 0.153831E+000
 0.992866E+000
 0.992267E+000
 0.991597E+000
 0.990847E+000
 0.990003E+000
 0.989052E+000
 0.987978E+000
 0.986759E+000
 0.985371E+000
 0.983784E+000
 0.981963E+000
 0.979863E+000
 0.977429E+000
 0.974593E+000
 0.971269E+000
 0.967349E+000
 0.962695E+000
 0.957130E+000
 0.950423E+000
 0.942271E+000
 0.932271E+000
 0.919880E+000
 0.904354E+000
 0.884664E+000
 0.859354E+000
 0.826334E+000
 0.782543E+000
 0.723406E+000
 0.641919E+000
 0.527260E+000
 0.363044E+000
 0.125694E+000
 0.986218E+000
 0.985276E+000
 0.984236E+000
 0.983086E+000
 0.981811E+000
 0.980392E+000
 0.978809E+000
 0.977037E+000
 0.975046E+000
 0.972801E+000
 0.970259E+000
 0.967368E+000
 0.964063E+000
 0.960267E+000
 0.955881E+000
 0.950785E+000
 0.944824E+000
 0.937804E+000
 0.929475E+000
 0.919513E+000
 0.907490E+000
 0.892841E+000
 0.874803E+000
 0.852335E+000
 0.823991E+000
 0.787733E+000
 0.740640E+000
 0.678443E+000
 0.594810E+000
 0.480357E+000
 0.321619E+000
 0.100671E+000
 0.978936E+000
 0.977625E+000
 0.976188E+000
 0.974610E+000
 0.972872E+000
 0.970953E+000
 0.968828E+000
 0.966468E+000
 0.963838E+000
 0.960896E+000
 0.957593E+000
 0.953868E+000
 0.949650E+000
 0.944848E+000
 0.939356E+000
 0.933037E+000
 0.925725E+000
 0.917208E+000
 0.907219E+000
 0.895413E+000
 0.881347E+000
 0.864436E+000
 0.843907E+000
 0.818717E+000
 0.787447E+000
 0.748133E+000
 0.698024E+000
 0.633203E+000
 0.548062E+000
 0.434677E+000
 0.282413E+000
 0.786338E-001
 0.971036E+000
 0.969332E+000
 0.967473E+000
 0.965441E+000
 0.963213E+000
 0.960765E+000
 0.958069E+000
 0.955089E+000
 0.951787E+000
 0.948114E+000
 0.944014E+000
 0.939420E+000
 0.934251E+000
 0.928407E+000
 0.921770E+000
 0.914194E+000
 0.905496E+000
 0.895452E+000
 0.883779E+000
 0.870116E+000
 0.854004E+000
 0.834849E+000
 0.811872E+000
 0.784042E+000
 0.749982E+000
 0.707824E+000
 0.655010E+000
 0.588015E+000
 0.501990E+000
 0.390469E+000
 0.245525E+000
 0.594308E-001
 0.962554E+000
 0.960435E+000
 0.958132E+000
 0.955622E+000
 0.952880E+000
 0.949879E+000
 0.946585E+000
 0.942959E+000
 0.938957E+000
 0.934524E+000
 0.929599E+000
 0.924106E+000
 0.917957E+000
 0.911043E+000
 0.903235E+000
 0.894376E+000
 0.884272E+000
 0.872685E+000
 0.859318E+000
 0.843801E+000
 0.825662E+000
 0.804301E+000
 0.778943E+000
 0.748582E+000
 0.711893E+000
 0.667122E+000
 0.611934E+000
 0.543218E+000
 0.456906E+000
 0.347963E+000
 0.211027E+000
 0.428935E-001
 0.953541E+000
 0.950991E+000
 0.948225E+000
 0.945218E+000
 0.941942E+000
 0.938367E+000
 0.934454E+000
 0.930161E+000
 0.925437E+000
 0.920224E+000
 0.914452E+000
 0.908040E+000
 0.900890E+000
 0.892887E+000
 0.883892E+000
 0.873737E+000
 0.862219E+000
 0.849088E+000
 0.834037E+000
 0.816686E+000
 0.796557E+000
 0.773051E+000
 0.745403E+000
 0.712640E+000
 0.673504E+000
 0.626373E+000
 0.569150E+000
 0.499159E+000
 0.413115E+000
 0.307369E+000
 0.178966E+000
 0.288368E-001
 0.944074E+000
 0.941078E+000
 0.937834E+000
 0.934316E+000
 0.930493E+000
 0.926328E+000
 0.921782E+000
 0.916807E+000
 0.911347E+000
 0.905339E+000
 0.898708E+000
 0.891364E+000
 0.883205E+000
 0.874106E+000
 0.863920E+000
 0.852470E+000
 0.839545E+000
 0.824885E+000
 0.808175E+000
 0.789029E+000
 0.766967E+000
 0.741396E+000
 0.711570E+000
 0.676554E+000
 0.635172E+000
 0.585943E+000
 0.527024E+000
 0.456184E+000
 0.370910E+000
 0.268877E+000
 0.149367E+000
 0.170622E-001
 0.934248E+000
 0.930797E+000
 0.927067E+000
 0.923029E+000
 0.918649E+000
 0.913887E+000
 0.908700E+000
 0.903036E+000
 0.896834E+000
 0.890027E+000
 0.882532E+000
 0.874256E+000
 0.865088E+000
 0.854897E+000
 0.843530E+000
 0.830801E+000
 0.816490E+000
 0.800332E+000
 0.782006E+000
 0.761122E+000
 0.737204E+000
 0.709666E+000
 0.677790E+000
 0.640689E+000
 0.597273E+000
 0.546214E+000
 0.485931E+000
 0.414637E+000
 0.330568E+000
 0.232652E+000
 0.122232E+000
 0.736046E-002
 0.924181E+000
 0.920271E+000
 0.916053E+000
 0.911492E+000
 0.906554E+000
 0.901195E+000
 0.895367E+000
 0.889014E+000
 0.882074E+000
 0.874471E+000
 0.866120E+000
 0.856921E+000
 0.846758E+000
 0.835494E+000
 0.822968E+000
 0.808988E+000
 0.793329E+000
 0.775720E+000
 0.755838E+000
 0.733291E+000
 0.707609E+000
 0.678222E+000
 0.644441E+000
 0.605433E+000
 0.560202E+000
 0.507579E+000
 0.446245E+000
 0.374851E+000
 0.292352E+000
 0.198839E+000
 0.975421E-001
-0.484493E-003
 0.914014E+000
 0.909649E+000
 0.904944E+000
 0.899867E+000
 0.894376E+000
 0.888426E+000
 0.881966E+000
 0.874936E+000
 0.867269E+000
 0.858886E+000
 0.849696E+000
 0.839596E+000
 0.828464E+000
 0.816156E+000
 0.802508E+000
 0.787322E+000
 0.770367E+000
 0.751371E+000
 0.730007E+000
 0.705888E+000
 0.678551E+000
 0.647446E+000
 0.611916E+000
 0.571188E+000
 0.524363E+000
 0.470431E+000
 0.408336E+000
 0.337150E+000
 0.256501E+000
 0.167562E+000
 0.752605E-001
-0.669230E-002
 0.903906E+000
 0.899095E+000
 0.893916E+000
 0.888333E+000
 0.882303E+000
 0.875778E+000
 0.868703E+000
 0.861016E+000
 0.852645E+000
 0.843507E+000
 0.833509E+000
 0.822541E+000
 0.810477E+000
 0.797170E+000
 0.782450E+000
 0.766116E+000
 0.747933E+000
 0.727627E+000
 0.704873E+000
 0.679287E+000
 0.650419E+000
 0.617738E+000
 0.580625E+000
 0.538366E+000
 0.490163E+000
 0.435164E+000
 0.372565E+000
 0.301838E+000
 0.223239E+000
 0.138922E+000
 0.553363E-001
-0.114823E-001
 0.894034E+000
 0.888793E+000
 0.883159E+000
 0.877090E+000
 0.870544E+000
 0.863468E+000
 0.855805E+000
 0.847490E+000
 0.838447E+000
 0.828592E+000
 0.817825E+000
 0.806035E+000
 0.793090E+000
 0.778841E+000
 0.763113E+000
 0.745703E+000
 0.726374E+000
 0.704851E+000
 0.680811E+000
 0.653877E+000
 0.623611E+000
 0.589505E+000
 0.550979E+000
 0.507380E+000
 0.458006E+000
 0.402161E+000
 0.339278E+000
 0.269201E+000
 0.192763E+000
 0.113000E+000
 0.377062E-001
-0.150698E-001
 0.884585E+000
 0.878940E+000
 0.872875E+000
 0.866350E+000
 0.859317E+000
 0.851724E+000
 0.843509E+000
 0.834606E+000
 0.824935E+000
 0.814409E+000
 0.802926E+000
 0.790370E+000
 0.776608E+000
 0.761486E+000
 0.744827E+000
 0.726426E+000
 0.706045E+000
 0.683409E+000
 0.658199E+000
 0.630047E+000
 0.598526E+000
 0.563154E+000
 0.523386E+000
 0.478633E+000
 0.428284E+000
 0.371787E+000
 0.308799E+000
 0.239504E+000
 0.165252E+000
 0.898611E-001
 0.222988E-001
-0.176621E-001
 0.875756E+000
 0.869736E+000
 0.863275E+000
 0.856329E+000
 0.848849E+000
 0.840780E+000
 0.832060E+000
 0.822616E+000
 0.812371E+000
 0.801232E+000
 0.789095E+000
 0.775841E+000
 0.761336E+000
 0.745423E+000
 0.727922E+000
 0.708627E+000
 0.687300E+000
 0.663669E+000
 0.637416E+000
 0.608183E+000
 0.575557E+000
 0.539079E+000
 0.498242E+000
 0.452511E+000
 0.401366E+000
 0.344386E+000
 0.281429E+000
 0.212984E+000
 0.140858E+000
 0.695518E-001
 0.903841E-002
-0.194547E-001
 0.867740E+000
 0.861385E+000
 0.854568E+000
 0.847246E+000
 0.839365E+000
 0.830871E+000
 0.821698E+000
 0.811773E+000
 0.801015E+000
 0.789330E+000
 0.776612E+000
 0.762740E+000
 0.747577E+000
 0.730964E+000
 0.712720E+000
 0.692640E+000
 0.670484E+000
 0.645982E+000
 0.618822E+000
 0.588653E+000
 0.555077E+000
 0.517656E+000
 0.475917E+000
 0.429378E+000
 0.377596E+000
 0.320271E+000
 0.257439E+000
 0.189853E+000
 0.119715E+000
 0.521066E-001
-0.215183E-002
-0.206278E-001
 0.860726E+000
 0.854079E+000
 0.846955E+000
 0.839306E+000
 0.831079E+000
 0.822217E+000
 0.812654E+000
 0.802314E+000
 0.791115E+000
 0.778961E+000
 0.765744E+000
 0.751341E+000
 0.735614E+000
 0.718403E+000
 0.699526E+000
 0.678776E+000
 0.655916E+000
 0.630677E+000
 0.602753E+000
 0.571798E+000
 0.537429E+000
 0.499227E+000
 0.456749E+000
 0.409559E+000
 0.357284E+000
 0.299725E+000
 0.237069E+000
 0.170295E+000
 0.101933E+000
 0.375484E-001
-0.113457E-001
-0.213431E-001
 0.854883E+000
 0.847996E+000
 0.840618E+000
 0.832699E+000
 0.824188E+000
 0.815023E+000
 0.805138E+000
 0.794457E+000
 0.782895E+000
 0.770356E+000
 0.756729E+000
 0.741892E+000
 0.725704E+000
 0.708004E+000
 0.688611E+000
 0.667317E+000
 0.643885E+000
 0.618050E+000
 0.589508E+000
 0.557922E+000
 0.522918E+000
 0.484095E+000
 0.441035E+000
 0.393342E+000
 0.340697E+000
 0.282987E+000
 0.220522E+000
 0.154462E+000
 0.876031E-001
 0.258918E-001
-0.186106E-001
-0.217401E-001
 0.850361E+000
 0.843289E+000
 0.835715E+000
 0.827590E+000
 0.818860E+000
 0.809463E+000
 0.799331E+000
 0.788389E+000
 0.776549E+000
 0.763715E+000
 0.749775E+000
 0.734606E+000
 0.718066E+000
 0.699994E+000
 0.680208E+000
 0.658500E+000
 0.634635E+000
 0.608348E+000
 0.579340E+000
 0.547279E+000
 0.511800E+000
 0.472513E+000
 0.429024E+000
 0.380963E+000
 0.328057E+000
 0.270255E+000
 0.207964E+000
 0.142479E+000
 0.767951E-001
 0.171451E-001
-0.240048E-001
-0.219340E-001
 0.847277E+000
 0.840080E+000
 0.832373E+000
 0.824108E+000
 0.815229E+000
 0.805675E+000
 0.795377E+000
 0.784257E+000
 0.772229E+000
 0.759195E+000
 0.745045E+000
 0.729652E+000
 0.712874E+000
 0.694551E+000
 0.674500E+000
 0.652514E+000
 0.628358E+000
 0.601768E+000
 0.572448E+000
 0.540069E+000
 0.504273E+000
 0.464680E+000
 0.420907E+000
 0.372606E+000
 0.319533E+000
 0.261682E+000
 0.199521E+000
 0.134439E+000
 0.695614E-001
 0.113125E-001
-0.275742E-001
-0.220132E-001
 0.845714E+000
 0.838454E+000
 0.830680E+000
 0.822344E+000
 0.813390E+000
 0.803756E+000
 0.793374E+000
 0.782165E+000
 0.770042E+000
 0.756908E+000
 0.742651E+000
 0.727144E+000
 0.710248E+000
 0.691798E+000
 0.671614E+000
 0.649488E+000
 0.625186E+000
 0.598444E+000
 0.568967E+000
 0.536429E+000
 0.500475E+000
 0.460729E+000
 0.416815E+000
 0.368396E+000
 0.315242E+000
 0.257370E+000
 0.195279E+000
 0.130403E+000
 0.659361E-001
 0.839592E-002
-0.293508E-001
-0.220377E-001
 0.845714E+000
 0.838454E+000
 0.830680E+000
 0.822344E+000
 0.813390E+000
 0.803756E+000
 0.793374E+000
 0.782165E+000
 0.770042E+000
 0.756908E+000
 0.742651E+000
 0.727144E+000
 0.710248E+000
 0.691798E+000
 0.671614E+000
 0.649488E+000
 0.625186E+000
 0.598444E+000
 0.568967E+000
 0.536429E+000
 0.500475E+000
 0.460729E+000
 0.416815E+000
 0.368396E+000
 0.315242E+000
 0.257370E+000
 0.195279E+000
 0.130403E+000
 0.659361E-001
 0.839592E-002
-0.293508E-001
-0.220377E-001
 0.847277E+000
 0.840080E+000
 0.832373E+000
 0.824108E+000
 0.815229E+000
 0.805675E+000
 0.795377E+000
 0.784257E+000
 0.772229E+000
 0.759195E+000
 0.745045E+000
 0.729652E+000
 0.712874E+000
 0.694551E+000
 0.674500E+000
 0.652514E+000
 0.628358E+000
 0.601768E+000
 0.572448E+000
 0.540069E+000
 0.504273E+000
 0.464680E+000
 0.420907E+000
 0.372606E+000
 0.319533E+000
 0.261682E+000
 0.199521E+000
 0.134439E+000
 0.695614E-001
 0.113125E-001
-0.275742E-001
-0.220132E-001
 0.850361E+000
 0.843289E+000
 0.835715E+000
 0.827590E+000
 0.818860E+000
 0.809463E+000
 0.799331E+000
 0.788389E+000
 0.776549E+000
 0.763715E+000
 0.749775E+000
 0.734606E+000
 0.718066E+000
 0.699994E+000
 0.680208E+000
 0.658500E+000
 0.634635E+000
 0.608348E+000
 0.579340E+000
 0.547279E+000
 0.511800E+000
 0.472513E+000
 0.429024E+000
 0.380963E+000
 0.328057E+000
 0.270255E+000
 0.207964E+000
 0.142479E+000
 0.767951E-001
 0.171451E-001
-0.240048E-001
-0.219340E-001
 0.854883E+000
 0.847996E+000
 0.840618E+000
 0.832699E+000
 0.824188E+000
 0.815023E+000
 0.805138E+000
 0.794457E+000
 0.782895E+000
 0.770356E+000
 0.756729E+000
 0.741892E+000
 0.725704E+000
 0.708004E+000
 0.688611E+000
 0.667317E+000
 0.643885E+000
 0.618050E+000
 0.589508E+000
 0.557922E+000
 0.522918E+000
 0.484095E+000
 0.441035E+000
 0.393342E+000
 0.340697E+000
 0.282987E+000
 0.220522E+000
 0.154462E+000
 0.876031E-001
 0.258918E-001
-0.186106E-001
-0.217401E-001
 0.860726E+000
 0.854079E+000
 0.846955E+000
 0.839306E+000
 0.831079E+000
 0.822217E+000
 0.812654E+000
 0.802314E+000
 0.791115E+000
 0.778961E+000
 0.765744E+000
 0.751341E+000
 0.735614E+000
 0.718403E+000
 0.699526E+000
 0.678776E+000
 0.655916E+000
 0.630677E+000
 0.602753E+000
 0.571798E+000
 0.537429E+000
 0.499227E+000
 0.456749E+000
 0.409559E+000
 0.357284E+000
 0.299725E+000
 0.237069E+000
 0.170295E+000
 0.101933E+000
 0.375484E-001
-0.113457E-001
-0.213431E-001
 0.867740E+000
 0.861385E+000
 0.854568E+000
 0.847246E+000
 0.839365E+000
 0.830871E+000
 0.821698E+000
 0.811773E+000
 0.801015E+000
 0.789330E+000
 0.776612E+000
 0.762740E+000
 0.747577E+000
 0.730964E+000
 0.712720E+000
 0.692640E+000
 0.670484E+000
 0.645982E+000
 0.618822E+000
 0.588653E+000
 0.555077E+000
 0.517656E+000
 0.475917E+000
 0.429378E+000
 0.377596E+000
 0.320271E+000
 0.257439E+000
 0.189853E+000
 0.119715E+000
 0.521066E-001
-0.215183E-002
-0.206278E-001
 0.875756E+000
 0.869736E+000
 0.863275E+000
 0.856329E+000
 0.848849E+000
 0.840780E+000
 0.832060E+000
 0.822616E+000
 0.812371E+000
 0.801232E+000
 0.789095E+000
 0.775841E+000
 0.761336E+000
 0.745423E+000
 0.727922E+000
 0.708627E+000
 0.687300E+000
 0.663669E+000
 0.637416E+000
 0.608183E+000
 0.575557E+000
 0.539079E+000
 0.498242E+000
 0.452511E+000
 0.401366E+000
 0.344386E+000
 0.281429E+000
 0.212984E+000
 0.140858E+000
 0.695518E-001
 0.903841E-002
-0.194547E-001
 0.884585E+000
 0.878940E+000
 0.872875E+000
 0.866350E+000
 0.859317E+000
 0.851724E+000
 0.843509E+000
 0.834606E+000
 0.824935E+000
 0.814409E+000
 0.802926E+000
 0.790370E+000
 0.776608E+000
 0.761486E+000
 0.744827E+000
 0.726426E+000
 0.706045E+000
 0.683409E+000
 0.658199E+000
 0.630047E+000
 0.598526E+000
 0.563154E+000
 0.523386E+000
 0.478633E+000
 0.428284E+000
 0.371787E+000
 0.308799E+000
 0.239504E+000
 0.165252E+000
 0.898611E-001
 0.222988E-001
-0.176621E-001
 0.894034E+000
 0.888793E+000
 0.883159E+000
 0.877090E+000
 0.870544E+000
 0.863468E+000
 0.855805E+000
 0.847490E+000
 0.838447E+000
 0.828592E+000
 0.817825E+000
 0.806035E+000
 0.793090E+000
 0.778841E+000
 0.763113E+000
 0.745703E+000
 0.726374E+000
 0.704851E+000
 0.680811E+000
 0.653877E+000
 0.623611E+000
 0.589505E+000
 0.550979E+000
 0.507380E+000
 0.458006E+000
 0.402161E+000
 0.339278E+000
 0.269201E+000
 0.192763E+000
 0.113000E+000
 0.377062E-001
-0.150698E-001
 0.903906E+000
 0.899095E+000
 0.893916E+000
 0.888333E+000
 0.882303E+000
 0.875778E+000
 0.868703E+000
 0.861016E+000
 0.852645E+000
 0.843507E+000
 0.833509E+000
 0.822541E+000
 0.810477E+000
 0.797170E+000
 0.782450E+000
 0.766116E+000
 0.747933E+000
 0.727627E+000
 0.704873E+000
 0.679287E+000
 0.650419E+000
 0.617738E+000
 0.580625E+000
 0.538366E+000
 0.490163E+000
 0.435164E+000
 0.372565E+000
 0.301838E+000
 0.223239E+000
 0.138922E+000
 0.553363E-001
-0.114823E-001
 0.914014E+000
 0.909649E+000
 0.904944E+000
 0.899867E+000
 0.894376E+000
 0.888426E+000
 0.881966E+000
 0.874936E+000
 0.867269E+000
 0.858886E+000
 0.849696E+000
 0.839596E+000
 0.828464E+000
 0.816156E+000
 0.802508E+000
 0.787322E+000
 0.770367E+000
 0.751371E+000
 0.730007E+000
 0.705888E+000
 0.678551E+000
 0.647446E+000
 0.611916E+000
 0.571188E+000
 0.524363E+000
 0.470431E+000
 0.408336E+000
 0.337150E+000
 0.256501E+000
 0.167562E+000
 0.752605E-001
-0.669230E-002
 0.924181E+000
 0.920271E+000
 0.916053E+000
 0.911492E+000
 0.906554E+000
 0.901195E+000
 0.895367E+000
 0.889014E+000
 0.882074E+000
 0.874471E+000
 0.866120E+000
 0.856921E+000
 0.846758E+000
 0.835494E+000
 0.822968E+000
 0.808988E+000
 0.793329E+000
 0.775720E+000
 0.755838E+000
 0.733291E+000
 0.707609E+000
 0.678222E+000
 0.644441E+000
 0.605433E+000
 0.560202E+000
 0.507579E+000
 0.446245E+000
 0.374851E+000
 0.292352E+000
 0.198839E+000
 0.975421E-001
-0.484493E-003
 0.934248E+000
 0.930797E+000
 0.927067E+000
 0.923029E+000
 0.918649E+000
 0.913887E+000
 0.908700E+000
 0.903036E+000
 0.896834E+000
 0.890027E+000
 0.882532E+000
 0.874256E+000
 0.865088E+000
 0.854897E+000
 0.843530E+000
 0.830801E+000
 0.816490E+000
 0.800332E+000
 0.782006E+000
 0.761122E+000
 0.737204E+000
 0.709666E+000
 0.677790E+000
 0.640689E+000
 0.597273E+000
 0.546214E+000
 0.485931E+000
 0.414637E+000
 0.330568E+000
 0.232652E+000
 0.122232E+000
 0.736046E-002
 0.944074E+000
 0.941078E+000
 0.937834E+000
 0.934316E+000
 0.930493E+000
 0.926328E+000
 0.921782E+000
 0.916807E+000
 0.911347E+000
 0.905339E+000
 0.898708E+000
 0.891364E+000
 0.883205E+000
 0.874106E+000
 0.863920E+000
 0.852470E+000
 0.839545E+000
 0.824885E+000
 0.808175E+000
 0.789029E+000
 0.766967E+000
 0.741396E+000
 0.711570E+000
 0.676554E+000
 0.635172E+000
 0.585943E+000
 0.527024E+000
 0.456184E+000
 0.370910E+000
 0.268877E+000
 0.149367E+000
 0.170622E-001
 0.953541E+000
 0.950991E+000
 0.948225E+000
 0.945218E+000
 0.941942E+000
 0.938367E+000
 0.934454E+000
 0.930161E+000
 0.925437E+000
 0.920224E+000
 0.914452E+000
 0.908040E+000
 0.900890E+000
 0.892887E+000
 0.883892E+000
 0.873737E+000
 0.862219E+000
 0.849088E+000
 0.834037E+000
 0.816686E+000
 0.796557E+000
 0.773051E+000
 0.745403E+000
 0.712640E+000
 0.673504E+000
 0.626373E+000
 0.569150E+000
 0.499159E+000
 0.413115E+000
 0.307369E+000
 0.178966E+000
 0.288368E-001
 0.962554E+000
 0.960435E+000
 0.958132E+000
 0.955622E+000
 0.952880E+000
 0.949879E+000
 0.946585E+000
 0.942959E+000
 0.938957E+000
 0.934524E+000
 0.929599E+000
 0.924106E+000
 0.917957E+000
 0.911043E+000
 0.903235E+000
 0.894376E+000
 0.884272E+000
 0.872685E+000
 0.859318E+000
 0.843801E+000
 0.825662E+000
 0.804301E+000
 0.778943E+000
 0.748582E+000
 0.711893E+000
 0.667122E+000
 0.611934E+000
 0.543218E+000
 0.456906E+000
 0.347963E+000
 0.211027E+000
 0.428935E-001
 0.971036E+000
 0.969332E+000
 0.967473E+000
 0.965441E+000
 0.963213E+000
 0.960765E+000
 0.958069E+000
 0.955089E+000
 0.951787E+000
 0.948114E+000
 0.944014E+000
 0.939420E+000
 0.934251E+000
 0.928407E+000
 0.921770E+000
 0.914194E+000
 0.905496E+000
 0.895452E+000
 0.883779E+000
 0.870116E+000
 0.854004E+000
 0.834849E+000
 0.811872E+000
 0.784042E+000
 0.749982E+000
 0.707824E+000
 0.655010E+000
 0.588015E+000
 0.501990E+000
 0.390469E+000
 0.245525E+000
 0.594308E-001
 0.978936E+000
 0.977625E+000
 0.976188E+000
 0.974610E+000
 0.972872E+000
 0.970953E+000
 0.968828E+000
 0.966468E+000
 0.963838E+000
 0.960896E+000
 0.957593E+000
 0.953868E+000
 0.949650E+000
 0.944848E+000
 0.939356E+000
 0.933037E+000
 0.925725E+000
 0.917208E+000
 0.907219E+000
 0.895413E+000
 0.881347E+000
 0.864436E+000
 0.843907E+000
 0.818717E+000
 0.787447E+000
 0.748133E+000
 0.698024E+000
 0.633203E+000
 0.548062E+000
 0.434677E+000
 0.282413E+000
 0.786338E-001
 0.986218E+000
 0.985276E+000
 0.984236E+000
 0.983086E+000
 0.981811E+000
 0.980392E+000
 0.978809E+000
 0.977037E+000
 0.975046E+000
 0.972801E+000
 0.970259E+000
 0.967368E+000
 0.964063E+000
 0.960267E+000
 0.955881E+000
 0.950785E+000
 0.944824E+000
 0.937804E+000
 0.929475E+000
 0.919513E+000
 0.907490E+000
 0.892841E+000
 0.874803E+000
 0.852335E+000
 0.823991E+000
 0.787733E+000
 0.740640E+000
 0.678443E+000
 0.594810E+000
 0.480357E+000
 0.321619E+000
 0.100671E+000
 0.992866E+000
 0.992267E+000
 0.991597E+000
 0.990847E+000
 0.990003E+000
 0.989052E+000
 0.987978E+000
 0.986759E+000
 0.985371E+000
 0.983784E+000
 0.981963E+000
 0.979863E+000
 0.977429E+000
 0.974593E+000
 0.971269E+000
 0.967349E+000
 0.962695E+000
 0.957130E+000
 0.950423E+000
 0.942271E+000
 0.932271E+000
 0.919880E+000
 0.904354E+000
 0.884664E+000
 0.859354E+000
 0.826334E+000
 0.782543E+000
 0.723406E+000
 0.641919E+000
 0.527260E+000
 0.363044E+000
 0.125694E+000
 0.998875E+000
 0.998593E+000
 0.998265E+000
 0.997884E+000
 0.997441E+000
 0.996925E+000
 0.996323E+000
 0.995619E+000
 0.994794E+000
 0.993824E+000
 0.992680E+000
 0.991324E+000
 0.989712E+000
 0.987785E+000
 0.985470E+000
 0.982673E+000
 0.979272E+000
 0.975107E+000
 0.969971E+000
 0.963583E+000
 0.955568E+000
 0.945409E+000
 0.932392E+000
 0.915509E+000
 0.893312E+000
 0.863680E+000
 0.823446E+000
 0.767777E+000
 0.689070E+000
 0.575123E+000
 0.406567E+000
 0.153831E+000
 0.100426E+001
 0.100426E+001
 0.100425E+001
 0.100421E+001
 0.100413E+001
 0.100401E+001
 0.100385E+001
 0.100362E+001
 0.100332E+001
 0.100292E+001
 0.100240E+001
 0.100174E+001
 0.100090E+001
 0.999826E+000
 0.998462E+000
 0.996727E+000
 0.994516E+000
 0.991689E+000
 0.988060E+000
 0.983377E+000
 0.977291E+000
 0.969321E+000
 0.958787E+000
 0.944713E+000
 0.925676E+000
 0.899550E+000
 0.863093E+000
 0.811265E+000
 0.735951E+000
 0.623665E+000
 0.452040E+000
 0.185189E+000
 0.100903E+001
 0.100930E+001
 0.100956E+001
 0.100983E+001
 0.101009E+001
 0.101034E+001
 0.101057E+001
 0.101078E+001
 0.101095E+001
 0.101108E+001
 0.101114E+001
 0.101113E+001
 0.101100E+001
 0.101072E+001
 0.101024E+001
 0.100951E+001
 0.100842E+001
 0.100686E+001
 0.100466E+001
 0.100161E+001
 0.997385E+000
 0.991543E+000
 0.983445E+000
 0.972157E+000
 0.956294E+000
 0.933755E+000
 0.901259E+000
 0.853603E+000
 0.782259E+000
 0.672598E+000
 0.499289E+000
 0.219853E+000
 0.101322E+001
 0.101372E+001
 0.101424E+001
 0.101478E+001
 0.101534E+001
 0.101592E+001
 0.101651E+001
 0.101712E+001
 0.101773E+001
 0.101833E+001
 0.101893E+001
 0.101950E+001
 0.102003E+001
 0.102049E+001
 0.102084E+001
 0.102102E+001
 0.102098E+001
 0.102061E+001
 0.101977E+001
 0.101827E+001
 0.101583E+001
 0.101203E+001
 0.100630E+001
 0.997754E+000
 0.985051E+000
 0.966142E+000
 0.937750E+000
 0.894554E+000
 0.827706E+000
 0.721621E+000
 0.548120E+000
 0.257883E+000
 0.101686E+001
 0.101757E+001
 0.101832E+001
 0.101911E+001
 0.101993E+001
 0.102081E+001
 0.102172E+001
 0.102268E+001
 0.102368E+001
 0.102472E+001
 0.102580E+001
 0.102691E+001
 0.102804E+001
 0.102916E+001
 0.103027E+001
 0.103131E+001
 0.103224E+001
 0.103298E+001
 0.103341E+001
 0.103337E+001
 0.103261E+001
 0.103078E+001
 0.102733E+001
 0.102145E+001
 0.101187E+001
 0.996593E+000
 0.972405E+000
 0.933913E+000
 0.872027E+000
 0.770429E+000
 0.598309E+000
 0.299315E+000
 0.101999E+001
 0.102088E+001
 0.102183E+001
 0.102283E+001
 0.102390E+001
 0.102503E+001
 0.102623E+001
 0.102751E+001
 0.102886E+001
 0.103029E+001
 0.103180E+001
 0.103339E+001
 0.103506E+001
 0.103680E+001
 0.103859E+001
 0.104042E+001
 0.104224E+001
 0.104400E+001
 0.104561E+001
 0.104693E+001
 0.104776E+001
 0.104779E+001
 0.104652E+001
 0.104323E+001
 0.103669E+001
 0.102502E+001
 0.100509E+001
 0.971510E+000
 0.914986E+000
 0.818715E+000
 0.649610E+000
 0.344161E+000
 0.102264E+001
 0.102369E+001
 0.102481E+001
 0.102600E+001
 0.102728E+001
 0.102864E+001
 0.103010E+001
 0.103165E+001
 0.103331E+001
 0.103509E+001
 0.103698E+001
 0.103901E+001
 0.104116E+001
 0.104345E+001
 0.104586E+001
 0.104840E+001
 0.105103E+001
 0.105373E+001
 0.105642E+001
 0.105901E+001
 0.106132E+001
 0.106310E+001
 0.106390E+001
 0.106307E+001
 0.105951E+001
 0.105138E+001
 0.103570E+001
 0.100720E+001
 0.956385E+000
 0.866179E+000
 0.701743E+000
 0.392409E+000
 0.102485E+001
 0.102604E+001
 0.102731E+001
 0.102867E+001
 0.103013E+001
 0.103169E+001
 0.103336E+001
 0.103516E+001
 0.103709E+001
 0.103917E+001
 0.104141E+001
 0.104381E+001
 0.104639E+001
 0.104917E+001
 0.105214E+001
 0.105531E+001
 0.105868E+001
 0.106223E+001
 0.106591E+001
 0.106966E+001
 0.107335E+001
 0.107674E+001
 0.107952E+001
 0.108101E+001
 0.108032E+001
 0.107566E+001
 0.106417E+001
 0.104085E+001
 0.996077E+000
 0.912540E+000
 0.754397E+000
 0.444020E+000
 0.102668E+001
 0.102798E+001
 0.102937E+001
 0.103087E+001
 0.103248E+001
 0.103421E+001
 0.103608E+001
 0.103809E+001
 0.104025E+001
 0.104259E+001
 0.104512E+001
 0.104786E+001
 0.105082E+001
 0.105403E+001
 0.105749E+001
 0.106123E+001
 0.106526E+001
 0.106957E+001
 0.107416E+001
 0.107895E+001
 0.108391E+001
 0.108881E+001
 0.109340E+001
 0.109714E+001
 0.109910E+001
 0.109788E+001
 0.109045E+001
 0.107233E+001
 0.103394E+001
 0.957573E+000
 0.807206E+000
 0.498930E+000
 0.102814E+001
 0.102954E+001
 0.103104E+001
 0.103266E+001
 0.103439E+001
 0.103627E+001
 0.103829E+001
 0.104048E+001
 0.104285E+001
 0.104541E+001
 0.104820E+001
 0.105122E+001
 0.105451E+001
 0.105809E+001
 0.106199E+001
 0.106623E+001
 0.107084E+001
 0.107584E+001
 0.108122E+001
 0.108699E+001
 0.109306E+001
 0.109939E+001
 0.110561E+001
 0.111147E+001
 0.111598E+001
 0.111794E+001
 0.111471E+001
 0.110146E+001
 0.106991E+001
 0.100112E+001
 0.859783E+000
 0.556991E+000
 0.102929E+001
 0.103076E+001
 0.103235E+001
 0.103406E+001
 0.103591E+001
 0.103790E+001
 0.104006E+001
 0.104239E+001
 0.104493E+001
 0.104769E+001
 0.105069E+001
 0.105396E+001
 0.105753E+001
 0.106143E+001
 0.106571E+001
 0.107038E+001
 0.107550E+001
 0.108109E+001
 0.108720E+001
 0.109381E+001
 0.110095E+001
 0.110848E+001
 0.111633E+001
 0.112400E+001
 0.113107E+001
 0.113593E+001
 0.113677E+001
 0.112852E+001
 0.110340E+001
 0.104351E+001
 0.911482E+000
 0.618104E+000
 0.103016E+001
 0.103169E+001
 0.103335E+001
 0.103513E+001
 0.103706E+001
 0.103915E+001
 0.104142E+001
 0.104388E+001
 0.104655E+001
 0.104947E+001
 0.105265E+001
 0.105613E+001
 0.105994E+001
 0.106411E+001
 0.106871E+001
 0.107376E+001
 0.107932E+001
 0.108544E+001
 0.109217E+001
 0.109955E+001
 0.110759E+001
 0.111628E+001
 0.112549E+001
 0.113501E+001
 0.114421E+001
 0.115214E+001
 0.115650E+001
 0.115354E+001
 0.113463E+001
 0.108378E+001
 0.963461E+000
 0.680224E+000
SCALARS stress_22 FLOAT     1
LOOKUP_TABLE default
-0.307372E-001
-0.323210E-001
-0.340244E-001
-0.358607E-001
-0.378436E-001
-0.399882E-001
-0.423117E-001
-0.448333E-001
-0.475752E-001
-0.505620E-001
-0.538218E-001
-0.573866E-001
-0.612921E-001
-0.655786E-001
-0.702907E-001
-0.754781E-001
-0.811927E-001
-0.874918E-001
-0.944252E-001
-0.102048E+000
-0.110372E+000
-0.119413E+000
-0.129030E+000
-0.139074E+000
-0.148877E+000
-0.157663E+000
-0.162972E+000
-0.161512E+000
-0.144251E+000
-0.961313E-001
 0.207423E-001
 0.300402E+000
-0.310028E-001
-0.325827E-001
-0.342829E-001
-0.361147E-001
-0.380910E-001
-0.402267E-001
-0.425382E-001
-0.450442E-001
-0.477658E-001
-0.507268E-001
-0.539541E-001
-0.574778E-001
-0.613318E-001
-0.655534E-001
-0.701845E-001
-0.752686E-001
-0.808553E-001
-0.869878E-001
-0.937181E-001
-0.101065E+000
-0.109064E+000
-0.117638E+000
-0.126724E+000
-0.135954E+000
-0.144863E+000
-0.152215E+000
-0.155927E+000
-0.152040E+000
-0.131659E+000
-0.803173E-001
 0.430256E-001
 0.318037E+000
-0.310817E-001
-0.326498E-001
-0.343356E-001
-0.361503E-001
-0.381064E-001
-0.402180E-001
-0.425008E-001
-0.449728E-001
-0.476540E-001
-0.505669E-001
-0.537367E-001
-0.571919E-001
-0.609633E-001
-0.650860E-001
-0.695962E-001
-0.745355E-001
-0.799414E-001
-0.858581E-001
-0.923113E-001
-0.993297E-001
-0.106894E+000
-0.114949E+000
-0.123350E+000
-0.131713E+000
-0.139551E+000
-0.145355E+000
-0.147476E+000
-0.140693E+000
-0.118229E+000
-0.620287E-001
 0.630923E-001
 0.335487E+000
-0.309471E-001
-0.324915E-001
-0.341500E-001
-0.359334E-001
-0.378537E-001
-0.399241E-001
-0.421597E-001
-0.445772E-001
-0.471955E-001
-0.500356E-001
-0.531207E-001
-0.564768E-001
-0.601324E-001
-0.641178E-001
-0.684668E-001
-0.732119E-001
-0.783881E-001
-0.840248E-001
-0.901405E-001
-0.967501E-001
-0.103798E+000
-0.111253E+000
-0.118822E+000
-0.126308E+000
-0.132760E+000
-0.137260E+000
-0.137115E+000
-0.128283E+000
-0.102684E+000
-0.433098E-001
 0.831408E-001
 0.350471E+000
-0.305675E-001
-0.320746E-001
-0.336912E-001
-0.354274E-001
-0.372945E-001
-0.393049E-001
-0.414727E-001
-0.438133E-001
-0.463440E-001
-0.490841E-001
-0.520547E-001
-0.552790E-001
-0.587819E-001
-0.625903E-001
-0.667322E-001
-0.712341E-001
-0.761249E-001
-0.814169E-001
-0.871351E-001
-0.932377E-001
-0.997254E-001
-0.106412E+000
-0.113172E+000
-0.119485E+000
-0.124705E+000
-0.127476E+000
-0.125349E+000
-0.114189E+000
-0.857087E-001
-0.238824E-001
 0.102943E+000
 0.362732E+000
-0.299093E-001
-0.313639E-001
-0.329223E-001
-0.345937E-001
-0.363886E-001
-0.383184E-001
-0.403958E-001
-0.426349E-001
-0.450513E-001
-0.476620E-001
-0.504858E-001
-0.535427E-001
-0.568541E-001
-0.604426E-001
-0.643290E-001
-0.685377E-001
-0.730787E-001
-0.779744E-001
-0.832005E-001
-0.887570E-001
-0.945399E-001
-0.100447E+000
-0.106198E+000
-0.111348E+000
-0.115140E+000
-0.116159E+000
-0.112024E+000
-0.984961E-001
-0.674499E-001
-0.379204E-002
 0.122308E+000
 0.372122E+000
-0.289373E-001
-0.303229E-001
-0.318053E-001
-0.333927E-001
-0.350946E-001
-0.369211E-001
-0.388837E-001
-0.409948E-001
-0.432679E-001
-0.457178E-001
-0.483604E-001
-0.512122E-001
-0.542911E-001
-0.576131E-001
-0.611972E-001
-0.650520E-001
-0.691936E-001
-0.736101E-001
-0.782966E-001
-0.831959E-001
-0.882273E-001
-0.932272E-001
-0.979051E-001
-0.101789E+000
-0.104057E+000
-0.103291E+000
-0.971207E-001
-0.812879E-001
-0.480269E-001
 0.168647E-001
 0.141011E+000
 0.378615E+000
-0.276155E-001
-0.289142E-001
-0.303012E-001
-0.317838E-001
-0.333702E-001
-0.350694E-001
-0.368911E-001
-0.388457E-001
-0.409448E-001
-0.432005E-001
-0.456253E-001
-0.482327E-001
-0.510348E-001
-0.540453E-001
-0.572714E-001
-0.607228E-001
-0.643940E-001
-0.682771E-001
-0.723377E-001
-0.765156E-001
-0.807038E-001
-0.847137E-001
-0.882364E-001
-0.907656E-001
-0.914453E-001
-0.888664E-001
-0.806600E-001
-0.626649E-001
-0.275483E-001
 0.379338E-001
 0.158857E+000
 0.382235E+000
-0.259079E-001
-0.271004E-001
-0.283713E-001
-0.297269E-001
-0.311741E-001
-0.327202E-001
-0.343731E-001
-0.361414E-001
-0.380341E-001
-0.400603E-001
-0.422297E-001
-0.445508E-001
-0.470329E-001
-0.496809E-001
-0.524999E-001
-0.554861E-001
-0.586305E-001
-0.619087E-001
-0.652760E-001
-0.686562E-001
-0.719217E-001
-0.748643E-001
-0.771543E-001
-0.782567E-001
-0.773050E-001
-0.728983E-001
-0.627020E-001
-0.427328E-001
-0.614240E-002
 0.592369E-001
 0.175673E+000
 0.383047E+000
-0.237795E-001
-0.248453E-001
-0.259783E-001
-0.271835E-001
-0.284662E-001
-0.298321E-001
-0.312873E-001
-0.328381E-001
-0.344906E-001
-0.362513E-001
-0.381256E-001
-0.401190E-001
-0.422341E-001
-0.444722E-001
-0.468291E-001
-0.492951E-001
-0.518502E-001
-0.544594E-001
-0.570650E-001
-0.595755E-001
-0.618457E-001
-0.636506E-001
-0.646402E-001
-0.642634E-001
-0.616533E-001
-0.554288E-001
-0.433306E-001
-0.216107E-001
 0.160408E-001
 0.805851E-001
 0.191316E+000
 0.381149E+000
-0.211975E-001
-0.221152E-001
-0.230874E-001
-0.241178E-001
-0.252099E-001
-0.263677E-001
-0.275953E-001
-0.288962E-001
-0.302742E-001
-0.317321E-001
-0.332721E-001
-0.348944E-001
-0.365975E-001
-0.383758E-001
-0.402188E-001
-0.421084E-001
-0.440150E-001
-0.458929E-001
-0.476722E-001
-0.492468E-001
-0.504569E-001
-0.510621E-001
-0.506979E-001
-0.488066E-001
-0.445309E-001
-0.365276E-001
-0.226519E-001
 0.563875E-003
 0.388316E-001
 0.101789E+000
 0.205670E+000
 0.376672E+000
-0.181328E-001
-0.188804E-001
-0.196683E-001
-0.204987E-001
-0.213735E-001
-0.222947E-001
-0.232641E-001
-0.242827E-001
-0.253513E-001
-0.264695E-001
-0.276351E-001
-0.288443E-001
-0.300900E-001
-0.313606E-001
-0.326386E-001
-0.338980E-001
-0.351000E-001
-0.361885E-001
-0.370819E-001
-0.376616E-001
-0.377553E-001
-0.371105E-001
-0.353542E-001
-0.319312E-001
-0.260045E-001
-0.162912E-001
-0.794232E-003
 0.236340E-001
 0.620460E-001
 0.122664E+000
 0.218645E+000
 0.369772E+000
-0.145617E-001
-0.151168E-001
-0.156966E-001
-0.163017E-001
-0.169323E-001
-0.175883E-001
-0.182690E-001
-0.189730E-001
-0.196978E-001
-0.204395E-001
-0.211920E-001
-0.219467E-001
-0.226912E-001
-0.234081E-001
-0.240729E-001
-0.246516E-001
-0.250970E-001
-0.253431E-001
-0.252980E-001
-0.248325E-001
-0.237639E-001
-0.218318E-001
-0.186616E-001
-0.137083E-001
-0.616900E-002
 0.515782E-002
 0.220919E-001
 0.474237E-001
 0.854906E-001
 0.143039E+000
 0.230180E+000
 0.360634E+000
-0.104681E-001
-0.108082E-001
-0.111563E-001
-0.115110E-001
-0.118709E-001
-0.122335E-001
-0.125958E-001
-0.129536E-001
-0.133011E-001
-0.136310E-001
-0.139330E-001
-0.141940E-001
-0.143962E-001
-0.145163E-001
-0.145232E-001
-0.143755E-001
-0.140178E-001
-0.133755E-001
-0.123474E-001
-0.107959E-001
-0.853104E-002
-0.528907E-002
-0.699769E-003
 0.576230E-002
 0.148527E-001
 0.276711E-001
 0.458342E-001
 0.717408E-001
 0.108967E+000
 0.162752E+000
 0.240241E+000
 0.349466E+000
-0.584479E-002
-0.594823E-002
-0.604150E-002
-0.612166E-002
-0.618511E-002
-0.622734E-002
-0.624275E-002
-0.622428E-002
-0.616308E-002
-0.604797E-002
-0.586485E-002
-0.559580E-002
-0.521806E-002
-0.470252E-002
-0.401178E-002
-0.309757E-002
-0.189709E-002
-0.328133E-003
 0.171775E-002
 0.438483E-002
 0.786681E-002
 0.124262E-001
 0.184222E-001
 0.263517E-001
 0.369095E-001
 0.510752E-001
 0.702395E-001
 0.963798E-001
 0.132279E+000
 0.181662E+000
 0.248820E+000
 0.336497E+000
-0.696506E-003
-0.542524E-003
-0.359241E-003
-0.141941E-003
 0.115004E-003
 0.418341E-003
 0.776235E-003
 0.119858E-002
 0.169746E-002
 0.228762E-002
 0.298720E-002
 0.381854E-002
 0.480936E-002
 0.599417E-002
 0.741622E-002
 0.913006E-002
 0.112049E-001
 0.137294E-001
 0.168175E-001
 0.206175E-001
 0.253235E-001
 0.311921E-001
 0.385650E-001
 0.479015E-001
 0.598229E-001
 0.751733E-001
 0.950969E-001
 0.121126E+000
 0.155230E+000
 0.199643E+000
 0.255937E+000
 0.321980E+000
 0.495858E-002
 0.538900E-002
 0.586871E-002
 0.640426E-002
 0.700328E-002
 0.767480E-002
 0.842954E-002
 0.928023E-002
 0.102421E-001
 0.113335E-001
 0.125763E-001
 0.139972E-001
 0.156286E-001
 0.175100E-001
 0.196899E-001
 0.222284E-001
 0.252002E-001
 0.286987E-001
 0.328419E-001
 0.377793E-001
 0.437019E-001
 0.508557E-001
 0.595587E-001
 0.702240E-001
 0.833886E-001
 0.997467E-001
 0.120180E+000
 0.145760E+000
 0.177637E+000
 0.216592E+000
 0.261639E+000
 0.306181E+000
 0.110867E-001
 0.118102E-001
 0.126037E-001
 0.134754E-001
 0.144352E-001
 0.154941E-001
 0.166656E-001
 0.179651E-001
 0.194109E-001
 0.210246E-001
 0.228321E-001
 0.248639E-001
 0.271567E-001
 0.297545E-001
 0.327107E-001
 0.360899E-001
 0.399712E-001
 0.444514E-001
 0.496503E-001
 0.557161E-001
 0.628336E-001
 0.712335E-001
 0.812040E-001
 0.931045E-001
 0.107378E+000
 0.124558E+000
 0.145251E+000
 0.170059E+000
 0.199322E+000
 0.232425E+000
 0.265994E+000
 0.289384E+000
 0.176366E-001
 0.186670E-001
 0.197883E-001
 0.210108E-001
 0.223460E-001
 0.238076E-001
 0.254112E-001
 0.271750E-001
 0.291203E-001
 0.312720E-001
 0.336592E-001
 0.363163E-001
 0.392838E-001
 0.426098E-001
 0.463516E-001
 0.505778E-001
 0.553703E-001
 0.608282E-001
 0.670709E-001
 0.742431E-001
 0.825197E-001
 0.921120E-001
 0.103273E+000
 0.116303E+000
 0.131542E+000
 0.149355E+000
 0.170066E+000
 0.193805E+000
 0.220125E+000
 0.247082E+000
 0.269097E+000
 0.271881E+000
 0.245389E-001
 0.258861E-001
 0.273455E-001
 0.289290E-001
 0.306501E-001
 0.325246E-001
 0.345705E-001
 0.368086E-001
 0.392629E-001
 0.419614E-001
 0.449363E-001
 0.482253E-001
 0.518725E-001
 0.559295E-001
 0.604567E-001
 0.655254E-001
 0.712200E-001
 0.776396E-001
 0.849019E-001
 0.931452E-001
 0.102532E+000
 0.113251E+000
 0.125515E+000
 0.139558E+000
 0.155614E+000
 0.173873E+000
 0.194375E+000
 0.216786E+000
 0.239897E+000
 0.260522E+000
 0.271060E+000
 0.253973E+000
 0.317050E-001
 0.333750E-001
 0.351781E-001
 0.371280E-001
 0.392401E-001
 0.415323E-001
 0.440247E-001
 0.467406E-001
 0.497067E-001
 0.529535E-001
 0.565163E-001
 0.604358E-001
 0.647588E-001
 0.695398E-001
 0.748419E-001
 0.807384E-001
 0.873143E-001
 0.946681E-001
 0.102913E+000
 0.112181E+000
 0.122617E+000
 0.134384E+000
 0.147654E+000
 0.162590E+000
 0.179315E+000
 0.197842E+000
 0.217931E+000
 0.238797E+000
 0.258508E+000
 0.272726E+000
 0.272016E+000
 0.235964E+000
 0.390278E-001
 0.410215E-001
 0.431689E-001
 0.454853E-001
 0.479878E-001
 0.506963E-001
 0.536331E-001
 0.568235E-001
 0.602967E-001
 0.640857E-001
 0.682283E-001
 0.727676E-001
 0.777531E-001
 0.832416E-001
 0.892979E-001
 0.959964E-001
 0.103422E+000
 0.111671E+000
 0.120851E+000
 0.131084E+000
 0.142499E+000
 0.155229E+000
 0.169401E+000
 0.185106E+000
 0.202357E+000
 0.220991E+000
 0.240492E+000
 0.259646E+000
 0.275845E+000
 0.283693E+000
 0.272109E+000
 0.218156E+000
 0.463829E-001
 0.486962E-001
 0.511829E-001
 0.538599E-001
 0.567460E-001
 0.598629E-001
 0.632348E-001
 0.668892E-001
 0.708571E-001
 0.751739E-001
 0.798794E-001
 0.850191E-001
 0.906445E-001
 0.968138E-001
 0.103593E+000
 0.111057E+000
 0.119290E+000
 0.128384E+000
 0.138442E+000
 0.149572E+000
 0.161885E+000
 0.175487E+000
 0.190454E+000
 0.206809E+000
 0.224451E+000
 0.243048E+000
 0.261823E+000
 0.279155E+000
 0.291813E+000
 0.293441E+000
 0.271495E+000
 0.200848E+000
 0.536310E-001
 0.562541E-001
 0.590693E-001
 0.620949E-001
 0.653514E-001
 0.688619E-001
 0.726526E-001
 0.767526E-001
 0.811949E-001
 0.860167E-001
 0.912598E-001
 0.969713E-001
 0.103204E+000
 0.110018E+000
 0.117480E+000
 0.125663E+000
 0.134650E+000
 0.144530E+000
 0.155397E+000
 0.167348E+000
 0.180475E+000
 0.194851E+000
 0.210509E+000
 0.227397E+000
 0.245311E+000
 0.263754E+000
 0.281703E+000
 0.297163E+000
 0.306333E+000
 0.302000E+000
 0.270335E+000
 0.184326E+000
 0.606217E-001
 0.635390E-001
 0.666659E-001
 0.700217E-001
 0.736287E-001
 0.775112E-001
 0.816970E-001
 0.862168E-001
 0.911053E-001
 0.964011E-001
 0.102148E+000
 0.108393E+000
 0.115192E+000
 0.122605E+000
 0.130698E+000
 0.139545E+000
 0.149225E+000
 0.159822E+000
 0.171424E+000
 0.184113E+000
 0.197963E+000
 0.213016E+000
 0.229260E+000
 0.246577E+000
 0.264659E+000
 0.282858E+000
 0.299924E+000
 0.313522E+000
 0.319342E+000
 0.309413E+000
 0.268792E+000
 0.168867E+000
 0.671979E-001
 0.703882E-001
 0.738038E-001
 0.774654E-001
 0.813963E-001
 0.856223E-001
 0.901724E-001
 0.950787E-001
 0.100377E+000
 0.106108E+000
 0.112316E+000
 0.119049E+000
 0.126365E+000
 0.134322E+000
 0.142987E+000
 0.152433E+000
 0.162736E+000
 0.173975E+000
 0.186229E+000
 0.199570E+000
 0.214050E+000
 0.229684E+000
 0.246416E+000
 0.264066E+000
 0.282231E+000
 0.300127E+000
 0.316298E+000
 0.328106E+000
 0.330793E+000
 0.315731E+000
 0.267026E+000
 0.154727E+000
 0.732016E-001
 0.766382E-001
 0.803138E-001
 0.842505E-001
 0.884725E-001
 0.930069E-001
 0.978837E-001
 0.103136E+000
 0.108802E+000
 0.114921E+000
 0.121539E+000
 0.128707E+000
 0.136481E+000
 0.144920E+000
 0.154091E+000
 0.164064E+000
 0.174912E+000
 0.186711E+000
 0.199532E+000
 0.213432E+000
 0.228449E+000
 0.244569E+000
 0.261699E+000
 0.279600E+000
 0.297786E+000
 0.315350E+000
 0.330656E+000
 0.340803E+000
 0.340649E+000
 0.321008E+000
 0.265190E+000
 0.142139E+000
 0.784804E-001
 0.821311E-001
 0.860327E-001
 0.902082E-001
 0.946828E-001
 0.994844E-001
 0.104644E+000
 0.110196E+000
 0.116178E+000
 0.122632E+000
 0.129604E+000
 0.137146E+000
 0.145312E+000
 0.154164E+000
 0.163766E+000
 0.174188E+000
 0.185500E+000
 0.197772E+000
 0.211068E+000
 0.225437E+000
 0.240897E+000
 0.257413E+000
 0.274856E+000
 0.292939E+000
 0.311103E+000
 0.328336E+000
 0.342850E+000
 0.351521E+000
 0.348887E+000
 0.325301E+000
 0.263424E+000
 0.131313E+000
 0.828936E-001
 0.867217E-001
 0.908104E-001
 0.951835E-001
 0.998668E-001
 0.104889E+000
 0.110282E+000
 0.116081E+000
 0.122324E+000
 0.129053E+000
 0.136316E+000
 0.144164E+000
 0.152653E+000
 0.161842E+000
 0.171796E+000
 0.182583E+000
 0.194271E+000
 0.206925E+000
 0.220604E+000
 0.235347E+000
 0.251158E+000
 0.267983E+000
 0.285666E+000
 0.303875E+000
 0.321995E+000
 0.338926E+000
 0.352756E+000
 0.360184E+000
 0.355490E+000
 0.328663E+000
 0.261851E+000
 0.122429E+000
 0.863194E-001
 0.902841E-001
 0.945170E-001
 0.990421E-001
 0.103886E+000
 0.109078E+000
 0.114650E+000
 0.120639E+000
 0.127081E+000
 0.134022E+000
 0.141508E+000
 0.149590E+000
 0.158324E+000
 0.167770E+000
 0.177993E+000
 0.189057E+000
 0.201030E+000
 0.213973E+000
 0.227940E+000
 0.242963E+000
 0.259036E+000
 0.276089E+000
 0.293942E+000
 0.312235E+000
 0.330305E+000
 0.346987E+000
 0.360275E+000
 0.366732E+000
 0.360448E+000
 0.331138E+000
 0.260576E+000
 0.115633E+000
 0.886601E-001
 0.927178E-001
 0.970486E-001
 0.101677E+000
 0.106630E+000
 0.111937E+000
 0.117631E+000
 0.123748E+000
 0.130326E+000
 0.137410E+000
 0.145046E+000
 0.153286E+000
 0.162186E+000
 0.171806E+000
 0.182209E+000
 0.193460E+000
 0.205624E+000
 0.218761E+000
 0.232921E+000
 0.248130E+000
 0.264376E+000
 0.281578E+000
 0.299542E+000
 0.317885E+000
 0.335913E+000
 0.352417E+000
 0.365329E+000
 0.371121E+000
 0.363756E+000
 0.332767E+000
 0.259680E+000
 0.111039E+000
 0.898479E-001
 0.939526E-001
 0.983329E-001
 0.103013E+000
 0.108022E+000
 0.113387E+000
 0.119142E+000
 0.125324E+000
 0.131971E+000
 0.139126E+000
 0.146839E+000
 0.155159E+000
 0.164142E+000
 0.173850E+000
 0.184343E+000
 0.195688E+000
 0.207948E+000
 0.221182E+000
 0.235438E+000
 0.250741E+000
 0.267073E+000
 0.284349E+000
 0.302367E+000
 0.320732E+000
 0.338737E+000
 0.355149E+000
 0.367869E+000
 0.373323E+000
 0.365410E+000
 0.333574E+000
 0.259218E+000
 0.108722E+000
 0.898479E-001
 0.939526E-001
 0.983329E-001
 0.103013E+000
 0.108022E+000
 0.113387E+000
 0.119142E+000
 0.125324E+000
 0.131971E+000
 0.139126E+000
 0.146839E+000
 0.155159E+000
 0.164142E+000
 0.173850E+000
 0.184343E+000
 0.195688E+000
 0.207948E+000
 0.221182E+000
 0.235438E+000
 0.250741E+000
 0.267073E+000
 0.284349E+000
 0.302367E+000
 0.320732E+000
 0.338737E+000
 0.355149E+000
 0.367869E+000
 0.373323E+000
 0.365410E+000
 0.333574E+000
 0.259218E+000
 0.108722E+000
 0.886601E-001
 0.927178E-001
 0.970486E-001
 0.101677E+000
 0.106630E+000
 0.111937E+000
 0.117631E+000
 0.123748E+000
 0.130326E+000
 0.137410E+000
 0.145046E+000
 0.153286E+000
 0.162186E+000
 0.171806E+000
 0.182209E+000
 0.193460E+000
 0.205624E+000
 0.218761E+000
 0.232921E+000
 0.248130E+000
 0.264376E+000
 0.281578E+000
 0.299542E+000
 0.317885E+000
 0.335913E+000
 0.352417E+000
 0.365329E+000
 0.371121E+000
 0.363756E+000
 0.332767E+000
 0.259680E+000
 0.111039E+000
 0.863194E-001
 0.902841E-001
 0.945170E-001
 0.990421E-001
 0.103886E+000
 0.109078E+000
 0.114650E+000
 0.120639E+000
 0.127081E+000
 0.134022E+000
 0.141508E+000
 0.149590E+000
 0.158324E+000
 0.167770E+000
 0.177993E+000
 0.189057E+000
 0.201030E+000
 0.213973E+000
 0.227940E+000
 0.242963E+000
 0.259036E+000
 0.276089E+000
 0.293942E+000
 0.312235E+000
 0.330305E+000
 0.346987E+000
 0.360275E+000
 0.366732E+000
 0.360448E+000
 0.331138E+000
 0.260576E+000
 0.115633E+000
 0.828936E-001
 0.867217E-001
 0.908104E-001
 0.951835E-001
 0.998668E-001
 0.104889E+000
 0.110282E+000
 0.116081E+000
 0.122324E+000
 0.129053E+000
 0.136316E+000
 0.144164E+000
 0.152653E+000
 0.161842E+000
 0.171796E+000
 0.182583E+000
 0.194271E+000
 0.206925E+000
 0.220604E+000
 0.235347E+000
 0.251158E+000
 0.267983E+000
 0.285666E+000
 0.303875E+000
 0.321995E+000
 0.338926E+000
 0.352756E+000
 0.360184E+000
 0.355490E+000
 0.328663E+000
 0.261851E+000
 0.122429E+000
 0.784804E-001
 0.821311E-001
 0.860327E-001
 0.902082E-001
 0.946828E-001
 0.994844E-001
 0.104644E+000
 0.110196E+000
 0.116178E+000
 0.122632E+000
 0.129604E+000
 0.137146E+000
 0.145312E+000
 0.154164E+000
 0.163766E+000
 0.174188E+000
 0.185500E+000
 0.197772E+000
 0.211068E+000
 0.225437E+000
 0.240897E+000
 0.257413E+000
 0.274856E+000
 0.292939E+000
 0.311103E+000
 0.328336E+000
 0.342850E+000
 0.351521E+000
 0.348887E+000
 0.325301E+000
 0.263424E+000
 0.131313E+000
 0.732016E-001
 0.766382E-001
 0.803138E-001
 0.842505E-001
 0.884725E-001
 0.930069E-001
 0.978837E-001
 0.103136E+000
 0.108802E+000
 0.114921E+000
 0.121539E+000
 0.128707E+000
 0.136481E+000
 0.144920E+000
 0.154091E+000
 0.164064E+000
 0.174912E+000
 0.186711E+000
 0.199532E+000
 0.213432E+000
 0.228449E+000
 0.244569E+000
 0.261699E+000
 0.279600E+000
 0.297786E+000
 0.315350E+000
 0.330656E+000
 0.340803E+000
 0.340649E+000
 0.321008E+000
 0.265190E+000
 0.142139E+000
 0.671979E-001
 0.703882E-001
 0.738038E-001
 0.774654E-001
 0.813963E-001
 0.856223E-001
 0.901724E-001
 0.950787E-001
 0.100377E+000
 0.106108E+000
 0.112316E+000
 0.119049E+000
 0.126365E+000
 0.134322E+000
 0.142987E+000
 0.152433E+000
 0.162736E+000
 0.173975E+000
 0.186229E+000
 0.199570E+000
 0.214050E+000
 0.229684E+000
 0.246416E+000
 0.264066E+000
 0.282231E+000
 0.300127E+000
 0.316298E+000
 0.328106E+000
 0.330793E+000
 0.315731E+000
 0.267026E+000
 0.154727E+000
 0.606217E-001
 0.635390E-001
 0.666659E-001
 0.700217E-001
 0.736287E-001
 0.775112E-001
 0.816970E-001
 0.862168E-001
 0.911053E-001
 0.964011E-001
 0.102148E+000
 0.108393E+000
 0.115192E+000
 0.122605E+000
 0.130698E+000
 0.139545E+000
 0.149225E+000
 0.159822E+000
 0.171424E+000
 0.184113E+000
 0.197963E+000
 0.213016E+000
 0.229260E+000
 0.246577E+000
 0.264659E+000
 0.282858E+000
 0.299924E+000
 0.313522E+000
 0.319342E+000
 0.309413E+000
 0.268792E+000
 0.168867E+000
 0.536310E-001
 0.562541E-001
 0.590693E-001
 0.620949E-001
 0.653514E-001
 0.688619E-001
 0.726526E-001
 0.767526E-001
 0.811949E-001
 0.860167E-001
 0.912598E-001
 0.969713E-001
 0.103204E+000
 0.110018E+000
 0.117480E+000
 0.125663E+000
 0.134650E+000
 0.144530E+000
 0.155397E+000
 0.167348E+000
 0.180475E+000
 0.194851E+000
 0.210509E+000
 0.227397E+000
 0.245311E+000
 0.263754E+000
 0.281703E+000
 0.297163E+000
 0.306333E+000
 0.302000E+000
 0.270335E+000
 0.184326E+000
 0.463829E-001
 0.486962E-001
 0.511829E-001
 0.538599E-001
 0.567460E-001
 0.598629E-001
 0.632348E-001
 0.668892E-001
 0.708571E-001
 0.751739E-001
 0.798794E-001
 0.850191E-001
 0.906445E-001
 0.968138E-001
 0.103593E+000
 0.111057E+000
 0.119290E+000
 0.128384E+000
 0.138442E+000
 0.149572E+000
 0.161885E+000
 0.175487E+000
 0.190454E+000
 0.206809E+000
 0.224451E+000
 0.243048E+000
 0.261823E+000
 0.279155E+000
 0.291813E+000
 0.293441E+000
 0.271495E+000
 0.200848E+000
 0.390278E-001
 0.410215E-001
 0.431689E-001
 0.454853E-001
 0.479878E-001
 0.506963E-001
 0.536331E-001
 0.568235E-001
 0.602967E-001
 0.640857E-001
 0.682283E-001
 0.727676E-001
 0.777531E-001
 0.832416E-001
 0.892979E-001
 0.959964E-001
 0.103422E+000
 0.111671E+000
 0.120851E+000
 0.131084E+000
 0.142499E+000
 0.155229E+000
 0.169401E+000
 0.185106E+000
 0.202357E+000
 0.220991E+000
 0.240492E+000
 0.259646E+000
 0.275845E+000
 0.283693E+000
 0.272109E+000
 0.218156E+000
 0.317050E-001
 0.333750E-001
 0.351781E-001
 0.371280E-001
 0.392401E-001
 0.415323E-001
 0.440247E-001
 0.467406E-001
 0.497067E-001
 0.529535E-001
 0.565163E-001
 0.604358E-001
 0.647588E-001
 0.695398E-001
 0.748419E-001
 0.807384E-001
 0.873143E-001
 0.946681E-001
 0.102913E+000
 0.112181E+000
 0.122617E+000
 0.134384E+000
 0.147654E+000
 0.162590E+000
 0.179315E+000
 0.197842E+000
 0.217931E+000
 0.238797E+000
 0.258508E+000
 0.272726E+000
 0.272016E+000
 0.235964E+000
 0.245389E-001
 0.258861E-001
 0.273455E-001
 0.289290E-001
 0.306501E-001
 0.325246E-001
 0.345705E-001
 0.368086E-001
 0.392629E-001
 0.419614E-001
 0.449363E-001
 0.482253E-001
 0.518725E-001
 0.559295E-001
 0.604567E-001
 0.655254E-001
 0.712200E-001
 0.776396E-001
 0.849019E-001
 0.931452E-001
 0.102532E+000
 0.113251E+000
 0.125515E+000
 0.139558E+000
 0.155614E+000
 0.173873E+000
 0.194375E+000
 0.216786E+000
 0.239897E+000
 0.260522E+000
 0.271060E+000
 0.253973E+000
 0.176366E-001
 0.186670E-001
 0.197883E-001
 0.210108E-001
 0.223460E-001
 0.238076E-001
 0.254112E-001
 0.271750E-001
 0.291203E-001
 0.312720E-001
 0.336592E-001
 0.363163E-001
 0.392838E-001
 0.426098E-001
 0.463516E-001
 0.505778E-001
 0.553703E-001
 0.608282E-001
 0.670709E-001
 0.742431E-001
 0.825197E-001
 0.921120E-001
 0.103273E+000
 0.116303E+000
 0.131542E+000
 0.149355E+000
 0.170066E+000
 0.193805E+000
 0.220125E+000
 0.247082E+000
 0.269097E+000
 0.271881E+000
 0.110867E-001
 0.118102E-001
 0.126037E-001
 0.134754E-001
 0.144352E-001
 0.154941E-001
 0.166656E-001
 0.179651E-001
 0.194109E-001
 0.210246E-001
 0.228321E-001
 0.248639E-001
 0.271567E-001
 0.297545E-001
 0.327107E-001
 0.360899E-001
 0.399712E-001
 0.444514E-001
 0.496503E-001
 0.557161E-001
 0.628336E-001
 0.712335E-001
 0.812040E-001
 0.931045E-001
 0.107378E+000
 0.124558E+000
 0.145251E+000
 0.170059E+000
 0.199322E+000
 0.232425E+000
 0.265994E+000
 0.289384E+000
 0.495858E-002
 0.538900E-002
 0.586871E-002
 0.640426E-002
 0.700328E-002
 0.767480E-002
 0.842954E-002
 0.928023E-002
 0.102421E-001
 0.113335E-001
 0.125763E-001
 0.139972E-001
 0.156286E-001
 0.175100E-001
 0.196899E-001
 0.222284E-001
 0.252002E-001
 0.286987E-001
 0.328419E-001
 0.377793E-001
 0.437019E-001
 0.508557E-001
 0.595587E-001
 0.702240E-001
 0.833886E-001
 0.997467E-001
 0.120180E+000
 0.145760E+000
 0.177637E+000
 0.216592E+000
 0.261639E+000
 0.306181E+000
-0.696506E-003
-0.542524E-003
-0.359241E-003
-0.141941E-003
 0.115004E-003
 0.418341E-003
 0.776235E-003
 0.119858E-002
 0.169746E-002
 0.228762E-002
 0.298720E-002
 0.381854E-002
 0.480936E-002
 0.599417E-002
 0.741622E-002
 0.913006E-002
 0.112049E-001
 0.137294E-001
 0.168175E-001
 0.206175E-001
 0.253235E-001
 0.311921E-001
 0.385650E-001
 0.479015E-001
 0.598229E-001
 0.751733E-001
 0.950969E-001
 0.121126E+000
 0.155230E+000
 0.199643E+000
 0.255937E+000
 0.321980E+000
-0.584479E-002
-0.594823E-002
-0.604150E-002
-0.612166E-002
-0.618511E-002
-0.622734E-002
-0.624275E-002
-0.622428E-002
-0.616308E-002
-0.604797E-002
-0.586485E-002
-0.559580E-002
-0.521806E-002
-0.470252E-002
-0.401178E-002
-0.309757E-002
-0.189709E-002
-0.328133E-003
 0.171775E-002
 0.438483E-002
 0.786681E-002
 0.124262E-001
 0.184222E-001
 0.263517E-001
 0.369095E-001
 0.510752E-001
 0.702395E-001
 0.963798E-001
 0.132279E+000
 0.181662E+000
 0.248820E+000
 0.336497E+000
-0.104681E-001
-0.108082E-001
-0.111563E-001
-0.115110E-001
-0.118709E-001
-0.122335E-001
-0.125958E-001
-0.129536E-001
-0.133011E-001
-0.136310E-001
-0.139330E-001
-0.141940E-001
-0.143962E-001
-0.145163E-001
-0.145232E-001
-0.143755E-001
-0.140178E-001
-0.133755E-001
-0.123474E-001
-0.107959E-001
-0.853104E-002
-0.528907E-002
-0.699769E-003
 0.576230E-002
 0.148527E-001
 0.276711E-001
 0.458342E-001
 0.717408E-001
 0.108967E+000
 0.162752E+000
 0.240241E+000
 0.349466E+000
-0.145617E-001
-0.151168E-001
-0.156966E-001
-0.163017E-001
-0.169323E-001
-0.175883E-001
-0.182690E-001
-0.189730E-001
-0.196978E-001
-0.204395E-001
-0.211920E-001
-0.219467E-001
-0.226912E-001
-0.234081E-001
-0.240729E-001
-0.246516E-001
-0.250970E-001
-0.253431E-001
-0.252980E-001
-0.248325E-001
-0.237639E-001
-0.218318E-001
-0.186616E-001
-0.137083E-001
-0.616900E-002
 0.515782E-002
 0.220919E-001
 0.474237E-001
 0.854906E-001
 0.143039E+000
 0.230180E+000
 0.360634E+000
-0.181328E-001
-0.188804E-001
-0.196683E-001
-0.204987E-001
-0.213735E-001
-0.222947E-001
-0.232641E-001
-0.242827E-001
-0.253513E-001
-0.264695E-001
-0.276351E-001
-0.288443E-001
-0.300900E-001
-0.313606E-001
-0.326386E-001
-0.338980E-001
-0.351000E-001
-0.361885E-001
-0.370819E-001
-0.376616E-001
-0.377553E-001
-0.371105E-001
-0.353542E-001
-0.319312E-001
-0.260045E-001
-0.162912E-001
-0.794232E-003
 0.236340E-001
 0.620460E-001
 0.122664E+000
 0.218645E+000
 0.369772E+000
-0.211975E-001
-0.221152E-001
-0.230874E-001
-0.241178E-001
-0.252099E-001
-0.263677E-001
-0.275953E-001
-0.288962E-001
-0.302742E-001
-0.317321E-001
-0.332721E-001
-0.348944E-001
-0.365975E-001
-0.383758E-001
-0.402188E-001
-0.421084E-001
-0.440150E-001
-0.458929E-001
-0.476722E-001
-0.492468E-001
-0.504569E-001
-0.510621E-001
-0.506979E-001
-0.488066E-001
-0.445309E-001
-0.365276E-001
-0.226519E-001
 0.563875E-003
 0.388316E-001
 0.101789E+000
 0.205670E+000
 0.376672E+000
-0.237795E-001
-0.248453E-001
-0.259783E-001
-0.271835E-001
-0.284662E-001
-0.298321E-001
-0.312873E-001
-0.328381E-001
-0.344906E-001
-0.362513E-001
-0.381256E-001
-0.401190E-001
-0.422341E-001
-0.444722E-001
-0.468291E-001
-0.492951E-001
-0.518502E-001
-0.544594E-001
-0.570650E-001
-0.595755E-001
-0.618457E-001
-0.636506E-001
-0.646402E-001
-0.642634E-001
-0.616533E-001
-0.554288E-001
-0.433306E-001
-0.216107E-001
 0.160408E-001
 0.805851E-001
 0.191316E+000
 0.381149E+000
-0.259079E-001
-0.271004E-001
-0.283713E-001
-0.297269E-001
-0.311741E-001
-0.327202E-001
-0.343731E-001
-0.361414E-001
-0.380341E-001
-0.400603E-001
-0.422297E-001
-0.445508E-001
-0.470329E-001
-0.496809E-001
-0.524999E-001
-0.554861E-001
-0.586305E-001
-0.619087E-001
-0.652760E-001
-0.686562E-001
-0.719217E-001
-0.748643E-001
-0.771543E-001
-0.782567E-001
-0.773050E-001
-0.728983E-001
-0.627020E-001
-0.427328E-001
-0.614240E-002
 0.592369E-001
 0.175673E+000
 0.383047E+000
-0.276155E-001
-0.289142E-001
-0.303012E-001
-0.317838E-001
-0.333702E-001
-0.350694E-001
-0.368911E-001
-0.388457E-001
-0.409448E-001
-0.432005E-001
-0.456253E-001
-0.482327E-001
-0.510348E-001
-0.540453E-001
-0.572714E-001
-0.607228E-001
-0.643940E-001
-0.682771E-001
-0.723377E-001
-0.765156E-001
-0.807038E-001
-0.847137E-001
-0.882364E-001
-0.907656E-001
-0.914453E-001
-0.888664E-001
-0.806600E-001
-0.626649E-001
-0.275483E-001
 0.379338E-001
 0.158857E+000
 0.382235E+000
-0.289373E-001
-0.303229E-001
-0.318053E-001
-0.333927E-001
-0.350946E-001
-0.369211E-001
-0.388837E-001
-0.409948E-001
-0.432679E-001
-0.457178E-001
-0.483604E-001
-0.512122E-001
-0.542911E-001
-0.576131E-001
-0.611972E-001
-0.650520E-001
-0.691936E-001
-0.736101E-001
-0.782966E-001
-0.831959E-001
-0.882273E-001
-0.932272E-001
-0.979051E-001
-0.101789E+000
-0.104057E+000
-0.103291E+000
-0.971207E-001
-0.812879E-001
-0.480269E-001
 0.168647E-001
 0.141011E+000
 0.378615E+000
-0.299093E-001
-0.313639E-001
-0.329223E-001
-0.345937E-001
-0.363886E-001
-0.383184E-001
-0.403958E-001
-0.426349E-001
-0.450513E-001
-0.476620E-001
-0.504858E-001
-0.535427E-001
-0.568541E-001
-0.604426E-001
-0.643290E-001
-0.685377E-001
-0.730787E-001
-0.779744E-001
-0.832005E-001
-0.887570E-001
-0.945399E-001
-0.100447E+000
-0.106198E+000
-0.111348E+000
-0.115140E+000
-0.116159E+000
-0.112024E+000
-0.984961E-001
-0.674499E-001
-0.379204E-002
 0.122308E+000
 0.372122E+000
-0.305675E-001
-0.320746E-001
-0.336912E-001
-0.354274E-001
-0.372945E-001
-0.393049E-001
-0.414727E-001
-0.438133E-001
-0.463440E-001
-0.490841E-001
-0.520547E-001
-0.552790E-001
-0.587819E-001
-0.625903E-001
-0.667322E-001
-0.712341E-001
-0.761249E-001
-0.814169E-001
-0.871351E-001
-0.932377E-001
-0.997254E-001
-0.106412E+000
-0.113172E+000
-0.119485E+000
-0.124705E+000
-0.127476E+000
-0.125349E+000
-0.114189E+000
-0.857087E-001
-0.238824E-001
 0.102943E+000
 0.362732E+000
-0.309471E-001
-0.324915E-001
-0.341500E-001
-0.359334E-001
-0.378537E-001
-0.399241E-001
-0.421597E-001
-0.445772E-001
-0.471955E-001
-0.500356E-001
-0.531207E-001
-0.564768E-001
-0.601324E-001
-0.641178E-001
-0.684668E-001
-0.732119E-001
-0.783881E-001
-0.840248E-001
-0.901405E-001
-0.967501E-001
-0.103798E+000
-0.111253E+000
-0.118822E+000
-0.126308E+000
-0.132760E+000
-0.137260E+000
-0.137115E+000
-0.128283E+000
-0.102684E+000
-0.433098E-001
 0.831408E-001
 0.350471E+000
-0.310817E-001
-0.326498E-001
-0.343356E-001
-0.361503E-001
-0.381064E-001
-0.402180E-001
-0.425008E-001
-0.449728E-001
-0.476540E-001
-0.505669E-001
-0.537367E-001
-0.571919E-001
-0.609633E-001
-0.650860E-001
-0.695962E-001
-0.745355E-001
-0.799414E-001
-0.858581E-001
-0.923113E-001
-0.993297E-001
-0.106894E+000
-0.114949E+000
-0.123350E+000
-0.131713E+000
-0.139551E+000
-0.145355E+000
-0.147476E+000
-0.140693E+000
-0.118229E+000
-0.620287E-001
 0.630923E-001
 0.335487E+000
-0.310028E-001
-0.325827E-001
-0.342829E-001
-0.361147E-001
-0.380910E-001
-0.402267E-001
-0.425382E-001
-0.450442E-001
-0.477658E-001
-0.507268E-001
-0.539541E-001
-0.574778E-001
-0.613318E-001
-0.655534E-001
-0.701845E-001
-0.752686E-001
-0.808553E-001
-0.869878E-001
-0.937181E-001
-0.101065E+000
-0.109064E+000
-0.117638E+000
-0.126724E+000
-0.135954E+000
-0.144863E+000
-0.152215E+000
-0.155927E+000
-0.152040E+000
-0.131659E+000
-0.803173E-001
 0.430256E-001
 0.318037E+000
-0.307372E-001
-0.323210E-001
-0.340244E-001
-0.358607E-001
-0.378436E-001
-0.399882E-001
-0.423117E-001
-0.448333E-001
-0.475752E-001
-0.505620E-001
-0.538218E-001
-0.573866E-001
-0.612921E-001
-0.655786E-001
-0.702907E-001
-0.754781E-001
-0.811927E-001
-0.874918E-001
-0.944252E-001
-0.102048E+000
-0.110372E+000
-0.119413E+000
-0.129030E+000
-0.139074E+000
-0.148877E+000
-0.157663E+000
-0.162972E+000
-0.161512E+000
-0.144251E+000
-0.961313E-001
 0.207423E-001
 0.300402E+000
-0.312401E-001
-0.328581E-001
-0.345949E-001
-0.364670E-001
-0.384887E-001
-0.406756E-001
-0.430453E-001
-0.456179E-001
-0.484157E-001
-0.514645E-001
-0.547932E-001
-0.584347E-001
-0.624263E-001
-0.668096E-001
-0.716321E-001
-0.769439E-001
-0.828044E-001
-0.892658E-001
-0.964004E-001
-0.104237E+000
-0.112854E+000
-0.122180E+000
-0.132253E+000
-0.142676E+000
-0.153238E+000
-0.162532E+000
-0.169203E+000
-0.168439E+000
-0.153848E+000
-0.106706E+000
 0.415211E-002
 0.282877E+000
-0.325902E-001
-0.342668E-001
-0.360708E-001
-0.380148E-001
-0.401133E-001
-0.423824E-001
-0.448403E-001
-0.475072E-001
-0.504063E-001
-0.535640E-001
-0.570098E-001
-0.607776E-001
-0.649050E-001
-0.694356E-001
-0.744150E-001
-0.798998E-001
-0.859390E-001
-0.926065E-001
-0.999378E-001
-0.108024E+000
-0.116844E+000
-0.126477E+000
-0.136736E+000
-0.147534E+000
-0.158236E+000
-0.167978E+000
-0.174731E+000
-0.174579E+000
-0.160120E+000
-0.114695E+000
-0.526052E-002
 0.261930E+000
-0.338596E-001
-0.355921E-001
-0.374566E-001
-0.394656E-001
-0.416334E-001
-0.439765E-001
-0.465132E-001
-0.492643E-001
-0.522534E-001
-0.555072E-001
-0.590560E-001
-0.629337E-001
-0.671798E-001
-0.718353E-001
-0.769522E-001
-0.825768E-001
-0.887770E-001
-0.955956E-001
-0.103116E+000
-0.111360E+000
-0.120397E+000
-0.130190E+000
-0.140678E+000
-0.151653E+000
-0.162549E+000
-0.172535E+000
-0.179423E+000
-0.179743E+000
-0.165662E+000
-0.122024E+000
-0.153492E-001
 0.237007E+000
-0.350248E-001
-0.368074E-001
-0.387254E-001
-0.407912E-001
-0.430195E-001
-0.454266E-001
-0.480313E-001
-0.508545E-001
-0.539202E-001
-0.572555E-001
-0.608905E-001
-0.648605E-001
-0.692028E-001
-0.739633E-001
-0.791859E-001
-0.849301E-001
-0.912433E-001
-0.981966E-001
-0.105836E+000
-0.114222E+000
-0.123387E+000
-0.133309E+000
-0.143944E+000
-0.155007E+000
-0.166080E+000
-0.176138E+000
-0.183249E+000
-0.183887E+000
-0.170480E+000
-0.128769E+000
-0.264629E-001
 0.209341E+000
-0.360593E-001
-0.378847E-001
-0.398476E-001
-0.419609E-001
-0.442391E-001
-0.466989E-001
-0.493589E-001
-0.522403E-001
-0.553673E-001
-0.587667E-001
-0.624698E-001
-0.665099E-001
-0.709275E-001
-0.757632E-001
-0.810685E-001
-0.868913E-001
-0.932922E-001
-0.100327E+000
-0.108051E+000
-0.116521E+000
-0.125754E+000
-0.135761E+000
-0.146439E+000
-0.157570E+000
-0.168695E+000
-0.178802E+000
-0.186103E+000
-0.187044E+000
-0.174553E+000
-0.135121E+000
-0.384985E-001
 0.178923E+000
-0.369348E-001
-0.387938E-001
-0.407918E-001
-0.429415E-001
-0.452576E-001
-0.477568E-001
-0.504576E-001
-0.533815E-001
-0.565522E-001
-0.599971E-001
-0.637462E-001
-0.678346E-001
-0.722994E-001
-0.771850E-001
-0.825369E-001
-0.884079E-001
-0.948531E-001
-0.101927E+000
-0.109690E+000
-0.118182E+000
-0.127440E+000
-0.137449E+000
-0.148121E+000
-0.159248E+000
-0.170349E+000
-0.180485E+000
-0.187932E+000
-0.189243E+000
-0.177905E+000
-0.141176E+000
-0.515161E-001
 0.145869E+000
-0.376203E-001
-0.395026E-001
-0.415241E-001
-0.436977E-001
-0.460381E-001
-0.485617E-001
-0.512872E-001
-0.542356E-001
-0.574309E-001
-0.608995E-001
-0.646721E-001
-0.687819E-001
-0.732674E-001
-0.781699E-001
-0.835360E-001
-0.894166E-001
-0.958635E-001
-0.102935E+000
-0.110680E+000
-0.119148E+000
-0.128365E+000
-0.138316E+000
-0.148922E+000
-0.159972E+000
-0.171001E+000
-0.181138E+000
-0.188717E+000
-0.190516E+000
-0.180564E+000
-0.147055E+000
-0.655633E-001
 0.110292E+000
-0.380836E-001
-0.399771E-001
-0.420092E-001
-0.441928E-001
-0.465421E-001
-0.490736E-001
-0.518056E-001
-0.547590E-001
-0.579572E-001
-0.614267E-001
-0.651968E-001
-0.693010E-001
-0.737760E-001
-0.786628E-001
-0.840069E-001
-0.898562E-001
-0.962635E-001
-0.103282E+000
-0.110962E+000
-0.119348E+000
-0.128465E+000
-0.138301E+000
-0.148779E+000
-0.159693E+000
-0.170615E+000
-0.180728E+000
-0.188465E+000
-0.190890E+000
-0.182582E+000
-0.152872E+000
-0.806829E-001
 0.723391E-001
-0.382912E-001
-0.401827E-001
-0.422110E-001
-0.443888E-001
-0.467302E-001
-0.492513E-001
-0.519702E-001
-0.549072E-001
-0.580854E-001
-0.615303E-001
-0.652710E-001
-0.693397E-001
-0.737722E-001
-0.786084E-001
-0.838916E-001
-0.896693E-001
-0.959914E-001
-0.102909E+000
-0.110472E+000
-0.118721E+000
-0.127682E+000
-0.137346E+000
-0.147639E+000
-0.158373E+000
-0.169158E+000
-0.179241E+000
-0.187194E+000
-0.190403E+000
-0.184032E+000
-0.158740E+000
-0.969003E-001
 0.321824E-001
-0.382094E-001
-0.400841E-001
-0.420929E-001
-0.442480E-001
-0.465632E-001
-0.490543E-001
-0.517388E-001
-0.546365E-001
-0.577698E-001
-0.611636E-001
-0.648460E-001
-0.688480E-001
-0.732043E-001
-0.779533E-001
-0.831368E-001
-0.888004E-001
-0.949920E-001
-0.101761E+000
-0.109155E+000
-0.117216E+000
-0.125967E+000
-0.135406E+000
-0.145467E+000
-0.155985E+000
-0.166614E+000
-0.176682E+000
-0.184936E+000
-0.189104E+000
-0.185001E+000
-0.164758E+000
-0.114221E+000
-0.997498E-002
-0.378051E-001
-0.396473E-001
-0.416195E-001
-0.437337E-001
-0.460032E-001
-0.484432E-001
-0.510707E-001
-0.539050E-001
-0.569674E-001
-0.602822E-001
-0.638761E-001
-0.677792E-001
-0.720247E-001
-0.766493E-001
-0.816933E-001
-0.872003E-001
-0.932164E-001
-0.997895E-001
-0.106966E+000
-0.114787E+000
-0.123280E+000
-0.132447E+000
-0.142237E+000
-0.152514E+000
-0.162983E+000
-0.173075E+000
-0.181733E+000
-0.187059E+000
-0.185585E+000
-0.171015E+000
-0.132629E+000
-0.539017E-001
-0.370471E-001
-0.388400E-001
-0.407576E-001
-0.428116E-001
-0.450147E-001
-0.473816E-001
-0.499287E-001
-0.526743E-001
-0.556391E-001
-0.588460E-001
-0.623208E-001
-0.660921E-001
-0.701916E-001
-0.746546E-001
-0.795194E-001
-0.848279E-001
-0.906249E-001
-0.969566E-001
-0.103869E+000
-0.111405E+000
-0.119596E+000
-0.128451E+000
-0.137941E+000
-0.147963E+000
-0.158286E+000
-0.168458E+000
-0.177644E+000
-0.184348E+000
-0.185883E+000
-0.177585E+000
-0.152081E+000
-0.993390E-001
-0.359075E-001
-0.376333E-001
-0.394776E-001
-0.414513E-001
-0.435668E-001
-0.458379E-001
-0.482804E-001
-0.509117E-001
-0.537514E-001
-0.568214E-001
-0.601461E-001
-0.637528E-001
-0.676716E-001
-0.719361E-001
-0.765832E-001
-0.816530E-001
-0.871889E-001
-0.932367E-001
-0.998429E-001
-0.107052E+000
-0.114903E+000
-0.123417E+000
-0.132588E+000
-0.142354E+000
-0.152561E+000
-0.162888E+000
-0.172743E+000
-0.181063E+000
-0.185993E+000
-0.184523E+000
-0.172512E+000
-0.146002E+000
-0.343631E-001
-0.360037E-001
-0.377554E-001
-0.396284E-001
-0.416345E-001
-0.437870E-001
-0.461006E-001
-0.485918E-001
-0.512791E-001
-0.541834E-001
-0.573276E-001
-0.607375E-001
-0.644418E-001
-0.684725E-001
-0.728649E-001
-0.776580E-001
-0.828943E-001
-0.886195E-001
-0.948819E-001
-0.101730E+000
-0.109211E+000
-0.117362E+000
-0.126206E+000
-0.135730E+000
-0.145864E+000
-0.156438E+000
-0.167118E+000
-0.177304E+000
-0.186006E+000
-0.191866E+000
-0.193828E+000
-0.193582E+000
-0.323974E-001
-0.339346E-001
-0.355742E-001
-0.373261E-001
-0.392014E-001
-0.412124E-001
-0.433731E-001
-0.456989E-001
-0.482074E-001
-0.509179E-001
-0.538522E-001
-0.570347E-001
-0.604925E-001
-0.642562E-001
-0.683599E-001
-0.728416E-001
-0.777437E-001
-0.831126E-001
-0.889994E-001
-0.954588E-001
-0.102548E+000
-0.110326E+000
-0.118847E+000
-0.128154E+000
-0.138274E+000
-0.149199E+000
-0.160870E+000
-0.173175E+000
-0.186007E+000
-0.199630E+000
-0.215910E+000
-0.241749E+000
-0.300023E-001
-0.314179E-001
-0.329265E-001
-0.345374E-001
-0.362608E-001
-0.381084E-001
-0.400932E-001
-0.422296E-001
-0.445340E-001
-0.470244E-001
-0.497213E-001
-0.526478E-001
-0.558296E-001
-0.592962E-001
-0.630807E-001
-0.672207E-001
-0.717588E-001
-0.767435E-001
-0.822298E-001
-0.882804E-001
-0.949664E-001
-0.102369E+000
-0.110581E+000
-0.119711E+000
-0.129887E+000
-0.141275E+000
-0.154111E+000
-0.168783E+000
-0.186071E+000
-0.207809E+000
-0.238611E+000
-0.290152E+000
-0.271801E-001
-0.284567E-001
-0.298161E-001
-0.312670E-001
-0.328188E-001
-0.344824E-001
-0.362698E-001
-0.381945E-001
-0.402714E-001
-0.425177E-001
-0.449524E-001
-0.475973E-001
-0.504772E-001
-0.536205E-001
-0.570597E-001
-0.608325E-001
-0.649828E-001
-0.695618E-001
-0.746301E-001
-0.802601E-001
-0.865392E-001
-0.935754E-001
-0.101504E+000
-0.110504E+000
-0.120816E+000
-0.132789E+000
-0.146960E+000
-0.164230E+000
-0.186256E+000
-0.216376E+000
-0.261762E+000
-0.338427E+000
-0.239451E-001
-0.250666E-001
-0.262600E-001
-0.275335E-001
-0.288957E-001
-0.303567E-001
-0.319274E-001
-0.336203E-001
-0.354494E-001
-0.374304E-001
-0.395814E-001
-0.419231E-001
-0.444792E-001
-0.472776E-001
-0.503506E-001
-0.537367E-001
-0.574816E-001
-0.616405E-001
-0.662810E-001
-0.714871E-001
-0.773651E-001
-0.840528E-001
-0.917336E-001
-0.100660E+000
-0.111193E+000
-0.123871E+000
-0.139542E+000
-0.159618E+000
-0.186610E+000
-0.225282E+000
-0.285170E+000
-0.386197E+000
-0.203254E-001
-0.212772E-001
-0.222899E-001
-0.233707E-001
-0.245277E-001
-0.257700E-001
-0.271076E-001
-0.285521E-001
-0.301161E-001
-0.318146E-001
-0.336645E-001
-0.356856E-001
-0.379010E-001
-0.403382E-001
-0.430301E-001
-0.460161E-001
-0.493450E-001
-0.530769E-001
-0.572878E-001
-0.620750E-001
-0.675660E-001
-0.739315E-001
-0.814060E-001
-0.903213E-001
-0.101162E+000
-0.114662E+000
-0.131982E+000
-0.155037E+000
-0.187161E+000
-0.234455E+000
-0.308620E+000
-0.433076E+000
-0.163639E-001
-0.171339E-001
-0.179534E-001
-0.188290E-001
-0.197682E-001
-0.207790E-001
-0.218706E-001
-0.230535E-001
-0.243395E-001
-0.257425E-001
-0.272786E-001
-0.289669E-001
-0.308302E-001
-0.328960E-001
-0.351979E-001
-0.377776E-001
-0.406870E-001
-0.439925E-001
-0.477796E-001
-0.521607E-001
-0.572865E-001
-0.633629E-001
-0.706785E-001
-0.796474E-001
-0.908812E-001
-0.105311E+000
-0.124406E+000
-0.150572E+000
-0.187924E+000
-0.243804E+000
-0.331881E+000
-0.478675E+000
-0.121190E-001
-0.126978E-001
-0.133149E-001
-0.139763E-001
-0.146884E-001
-0.154587E-001
-0.162955E-001
-0.172081E-001
-0.182077E-001
-0.193072E-001
-0.205221E-001
-0.218710E-001
-0.233767E-001
-0.250671E-001
-0.269771E-001
-0.291508E-001
-0.316446E-001
-0.345316E-001
-0.379082E-001
-0.419032E-001
-0.466918E-001
-0.525174E-001
-0.597242E-001
-0.688107E-001
-0.805160E-001
-0.959673E-001
-0.116935E+000
-0.146295E+000
-0.188895E+000
-0.253220E+000
-0.354708E+000
-0.522603E+000
-0.766471E-002
-0.804631E-002
-0.845531E-002
-0.889699E-002
-0.937713E-002
-0.990223E-002
-0.104797E-001
-0.111182E-001
-0.118281E-001
-0.126215E-001
-0.135135E-001
-0.145225E-001
-0.156713E-001
-0.169889E-001
-0.185118E-001
-0.202871E-001
-0.223762E-001
-0.248597E-001
-0.278458E-001
-0.314804E-001
-0.359650E-001
-0.415809E-001
-0.487291E-001
-0.579927E-001
-0.702373E-001
-0.867809E-001
-0.109684E+000
-0.142267E+000
-0.190058E+000
-0.262578E+000
-0.376845E+000
-0.564478E+000
-0.308955E-002
-0.327174E-002
-0.347101E-002
-0.369191E-002
-0.393944E-002
-0.421931E-002
-0.453816E-002
-0.490388E-002
-0.532609E-002
-0.581654E-002
-0.638991E-002
-0.706459E-002
-0.786396E-002
-0.881795E-002
-0.996528E-002
-0.113565E-001
-0.130583E-001
-0.151598E-001
-0.177810E-001
-0.210861E-001
-0.253028E-001
-0.307510E-001
-0.378884E-001
-0.473809E-001
-0.602175E-001
-0.778992E-001
-0.102761E+000
-0.138538E+000
-0.191378E+000
-0.271740E+000
-0.398034E+000
-0.603926E+000
 0.150500E-002
 0.152027E-002
 0.152800E-002
 0.152443E-002
 0.150529E-002
 0.146568E-002
 0.139967E-002
 0.129999E-002
 0.115762E-002
 0.961158E-003
 0.696089E-003
 0.343803E-003
-0.119754E-003
-0.725902E-003
-0.151573E-002
-0.254355E-002
-0.388183E-002
-0.562807E-002
-0.791491E-002
-0.109247E-001
-0.149112E-001
-0.202325E-001
-0.274014E-001
-0.371640E-001
-0.506267E-001
-0.694633E-001
-0.962650E-001
-0.135144E+000
-0.192813E+000
-0.280561E+000
-0.418014E+000
-0.640586E+000
 0.600736E-002
 0.621370E-002
 0.642113E-002
 0.662665E-002
 0.682679E-002
 0.701734E-002
 0.719304E-002
 0.734718E-002
 0.747116E-002
 0.755384E-002
 0.758070E-002
 0.753277E-002
 0.738512E-002
 0.710488E-002
 0.664840E-002
 0.595743E-002
 0.495367E-002
 0.353101E-002
 0.154445E-002
-0.120614E-002
-0.500011E-002
-0.102321E-001
-0.174672E-001
-0.275277E-001
-0.416294E-001
-0.616061E-001
-0.902823E-001
-0.132113E+000
-0.194310E+000
-0.288890E+000
-0.436531E+000
-0.674118E+000
 0.102995E-001
 0.106860E-001
 0.110811E-001
 0.114827E-001
 0.118881E-001
 0.122936E-001
 0.126946E-001
 0.130849E-001
 0.134562E-001
 0.137975E-001
 0.140941E-001
 0.143267E-001
 0.144692E-001
 0.144872E-001
 0.143343E-001
 0.139485E-001
 0.132456E-001
 0.121112E-001
 0.103884E-001
 0.786005E-002
 0.422273E-002
-0.952439E-003
-0.827949E-002
-0.186502E-001
-0.333809E-001
-0.544498E-001
-0.848902E-001
-0.129459E+000
-0.195807E+000
-0.296578E+000
-0.453341E+000
-0.704208E+000
 0.142616E-001
 0.148127E-001
 0.153789E-001
 0.159589E-001
 0.165506E-001
 0.171510E-001
 0.177559E-001
 0.183595E-001
 0.189538E-001
 0.195278E-001
 0.200667E-001
 0.205504E-001
 0.209520E-001
 0.212354E-001
 0.213516E-001
 0.212348E-001
 0.207954E-001
 0.199112E-001
 0.184141E-001
 0.160714E-001
 0.125577E-001
 0.741289E-002
-0.210199E-004
-0.106983E-001
-0.260243E-001
-0.481043E-001
-0.801541E-001
-0.127192E+000
-0.197242E+000
-0.303481E+000
-0.468217E+000
-0.730567E+000
 0.177766E-001
 0.184726E-001
 0.191891E-001
 0.199253E-001
 0.206799E-001
 0.214505E-001
 0.222333E-001
 0.230226E-001
 0.238108E-001
 0.245867E-001
 0.253354E-001
 0.260361E-001
 0.266611E-001
 0.271725E-001
 0.275191E-001
 0.276316E-001
 0.274154E-001
 0.267412E-001
 0.254313E-001
 0.232390E-001
 0.198195E-001
 0.146855E-001
 0.714078E-002
-0.382293E-002
-0.196873E-001
-0.426660E-001
-0.761288E-001
-0.125314E+000
-0.198554E+000
-0.309463E+000
-0.480954E+000
-0.752941E+000
 0.207364E-001
 0.215535E-001
 0.223953E-001
 0.232618E-001
 0.241520E-001
 0.250640E-001
 0.259943E-001
 0.269377E-001
 0.278864E-001
 0.288292E-001
 0.297510E-001
 0.306306E-001
 0.314391E-001
 0.321374E-001
 0.326723E-001
 0.329713E-001
 0.329358E-001
 0.324305E-001
 0.312692E-001
 0.291938E-001
 0.258432E-001
 0.207074E-001
 0.130587E-001
 0.184421E-002
-0.144801E-001
-0.382161E-001
-0.728583E-001
-0.123820E+000
-0.199683E+000
-0.314406E+000
-0.491371E+000
-0.771111E+000
 0.230463E-001
 0.239575E-001
 0.248964E-001
 0.258637E-001
 0.268588E-001
 0.278800E-001
 0.289242E-001
 0.299863E-001
 0.310586E-001
 0.321298E-001
 0.331846E-001
 0.342012E-001
 0.351503E-001
 0.359914E-001
 0.366697E-001
 0.371104E-001
 0.372116E-001
 0.368332E-001
 0.357826E-001
 0.337926E-001
 0.304894E-001
 0.253458E-001
 0.176095E-001
 0.619374E-002
-0.104933E-001
-0.348206E-001
-0.703767E-001
-0.122708E+000
-0.200579E+000
-0.318206E+000
-0.499320E+000
-0.784899E+000
 0.246307E-001
 0.256061E-001
 0.266113E-001
 0.276473E-001
 0.287138E-001
 0.298094E-001
 0.309311E-001
 0.320739E-001
 0.332301E-001
 0.343885E-001
 0.355334E-001
 0.366429E-001
 0.376870E-001
 0.386246E-001
 0.393996E-001
 0.399356E-001
 0.401283E-001
 0.398346E-001
 0.388574E-001
 0.369230E-001
 0.336494E-001
 0.284973E-001
 0.206979E-001
 0.914135E-002
-0.779634E-002
-0.325291E-001
-0.687088E-001
-0.121970E+000
-0.201201E+000
-0.320786E+000
-0.504685E+000
-0.794168E+000
 0.254365E-001
 0.264445E-001
 0.274834E-001
 0.285542E-001
 0.296568E-001
 0.307901E-001
 0.319510E-001
 0.331346E-001
 0.343332E-001
 0.355357E-001
 0.367261E-001
 0.378825E-001
 0.389745E-001
 0.399607E-001
 0.407843E-001
 0.413683E-001
 0.416069E-001
 0.413556E-001
 0.404148E-001
 0.385079E-001
 0.352485E-001
 0.300911E-001
 0.222586E-001
 0.106297E-001
-0.643603E-002
-0.313751E-001
-0.678709E-001
-0.121602E+000
-0.201519E+000
-0.322090E+000
-0.507387E+000
-0.798825E+000
 0.254365E-001
 0.264445E-001
 0.274834E-001
 0.285542E-001
 0.296568E-001
 0.307901E-001
 0.319510E-001
 0.331346E-001
 0.343332E-001
 0.355357E-001
 0.367261E-001
 0.378825E-001
 0.389745E-001
 0.399607E-001
 0.407843E-001
 0.413683E-001
 0.416069E-001
 0.413556E-001
 0.404148E-001
 0.385079E-001
 0.352485E-001
 0.300911E-001
 0.222586E-001
 0.106297E-001
-0.643603E-002
-0.313751E-001
-0.678709E-001
-0.121602E+000
-0.201519E+000
-0.322090E+000
-0.507387E+000
-0.798825E+000
 0.246307E-001
 0.256061E-001
 0.266113E-001
 0.276473E-001
 0.287138E-001
 0.298094E-001
 0.309311E-001
 0.320739E-001
 0.332301E-001
 0.343885E-001
 0.355334E-001
 0.366429E-001
 0.376870E-001
 0.386246E-001
 0.393996E-001
 0.399356E-001
 0.401283E-001
 0.398346E-001
 0.388574E-001
 0.369230E-001
 0.336494E-001
 0.284973E-001
 0.206979E-001
 0.914135E-002
-0.779634E-002
-0.325291E-001
-0.687088E-001
-0.121970E+000
-0.201201E+000
-0.320786E+000
-0.504685E+000
-0.794168E+000
 0.230463E-001
 0.239575E-001
 0.248964E-001
 0.258637E-001
 0.268588E-001
 0.278800E-001
 0.289242E-001
 0.299863E-001
 0.310586E-001
 0.321298E-001
 0.331846E-001
 0.342012E-001
 0.351503E-001
 0.359914E-001
 0.366697E-001
 0.371104E-001
 0.372116E-001
 0.368332E-001
 0.357826E-001
 0.337926E-001
 0.304894E-001
 0.253458E-001
 0.176095E-001
 0.619374E-002
-0.104933E-001
-0.348206E-001
-0.703767E-001
-0.122708E+000
-0.200579E+000
-0.318206E+000
-0.499320E+000
-0.784899E+000
 0.207364E-001
 0.215535E-001
 0.223953E-001
 0.232618E-001
 0.241520E-001
 0.250640E-001
 0.259943E-001
 0.269377E-001
 0.278864E-001
 0.288292E-001
 0.297510E-001
 0.306306E-001
 0.314391E-001
 0.321374E-001
 0.326723E-001
 0.329713E-001
 0.329358E-001
 0.324305E-001
 0.312692E-001
 0.291938E-001
 0.258432E-001
 0.207074E-001
 0.130587E-001
 0.184421E-002
-0.144801E-001
-0.382161E-001
-0.728583E-001
-0.123820E+000
-0.199683E+000
-0.314406E+000
-0.491371E+000
-0.771111E+000
 0.177766E-001
 0.184726E-001
 0.191891E-001
 0.199253E-001
 0.206799E-001
 0.214505E-001
 0.222333E-001
 0.230226E-001
 0.238108E-001
 0.245867E-001
 0.253354E-001
 0.260361E-001
 0.266611E-001
 0.271725E-001
 0.275191E-001
 0.276316E-001
 0.274154E-001
 0.267412E-001
 0.254313E-001
 0.232390E-001
 0.198195E-001
 0.146855E-001
 0.714078E-002
-0.382293E-002
-0.196873E-001
-0.426660E-001
-0.761288E-001
-0.125314E+000
-0.198554E+000
-0.309463E+000
-0.480954E+000
-0.752941E+000
 0.142616E-001
 0.148127E-001
 0.153789E-001
 0.159589E-001
 0.165506E-001
 0.171510E-001
 0.177559E-001
 0.183595E-001
 0.189538E-001
 0.195278E-001
 0.200667E-001
 0.205504E-001
 0.209520E-001
 0.212354E-001
 0.213516E-001
 0.212348E-001
 0.207954E-001
 0.199112E-001
 0.184141E-001
 0.160714E-001
 0.125577E-001
 0.741289E-002
-0.210199E-004
-0.106983E-001
-0.260243E-001
-0.481043E-001
-0.801541E-001
-0.127192E+000
-0.197242E+000
-0.303481E+000
-0.468217E+000
-0.730567E+000
 0.102995E-001
 0.106860E-001
 0.110811E-001
 0.114827E-001
 0.118881E-001
 0.122936E-001
 0.126946E-001
 0.130849E-001
 0.134562E-001
 0.137975E-001
 0.140941E-001
 0.143267E-001
 0.144692E-001
 0.144872E-001
 0.143343E-001
 0.139485E-001
 0.132456E-001
 0.121112E-001
 0.103884E-001
 0.786005E-002
 0.422273E-002
-0.952439E-003
-0.827949E-002
-0.186502E-001
-0.333809E-001
-0.544498E-001
-0.848902E-001
-0.129459E+000
-0.195807E+000
-0.296578E+000
-0.453341E+000
-0.704208E+000
 0.600736E-002
 0.621370E-002
 0.642113E-002
 0.662665E-002
 0.682679E-002
 0.701734E-002
 0.719304E-002
 0.734718E-002
 0.747116E-002
 0.755384E-002
 0.758070E-002
 0.753277E-002
 0.738512E-002
 0.710488E-002
 0.664840E-002
 0.595743E-002
 0.495367E-002
 0.353101E-002
 0.154445E-002
-0.120614E-002
-0.500011E-002
-0.102321E-001
-0.174672E-001
-0.275277E-001
-0.416294E-001
-0.616061E-001
-0.902823E-001
-0.132113E+000
-0.194310E+000
-0.288890E+000
-0.436531E+000
-0.674118E+000
 0.150500E-002
 0.152027E-002
 0.152800E-002
 0.152443E-002
 0.150529E-002
 0.146568E-002
 0.139967E-002
 0.129999E-002
 0.115762E-002
 0.961158E-003
 0.696089E-003
 0.343803E-003
-0.119754E-003
-0.725902E-003
-0.151573E-002
-0.254355E-002
-0.388183E-002
-0.562807E-002
-0.791491E-002
-0.109247E-001
-0.149112E-001
-0.202325E-001
-0.274014E-001
-0.371640E-001
-0.506267E-001
-0.694633E-001
-0.962650E-001
-0.135144E+000
-0.192813E+000
-0.280561E+000
-0.418014E+000
-0.640586E+000
-0.308955E-002
-0.327174E-002
-0.347101E-002
-0.369191E-002
-0.393944E-002
-0.421931E-002
-0.453816E-002
-0.490388E-002
-0.532609E-002
-0.581654E-002
-0.638991E-002
-0.706459E-002
-0.786396E-002
-0.881795E-002
-0.996528E-002
-0.113565E-001
-0.130583E-001
-0.151598E-001
-0.177810E-001
-0.210861E-001
-0.253028E-001
-0.307510E-001
-0.378884E-001
-0.473809E-001
-0.602175E-001
-0.778992E-001
-0.102761E+000
-0.138538E+000
-0.191378E+000
-0.271740E+000
-0.398034E+000
-0.603926E+000
-0.766471E-002
-0.804631E-002
-0.845531E-002
-0.889699E-002
-0.937713E-002
-0.990223E-002
-0.104797E-001
-0.111182E-001
-0.118281E-001
-0.126215E-001
-0.135135E-001
-0.145225E-001
-0.156713E-001
-0.169889E-001
-0.185118E-001
-0.202871E-001
-0.223762E-001
-0.248597E-001
-0.278458E-001
-0.314804E-001
-0.359650E-001
-0.415809E-001
-0.487291E-001
-0.579927E-001
-0.702373E-001
-0.867809E-001
-0.109684E+000
-0.142267E+000
-0.190058E+000
-0.262578E+000
-0.376845E+000
-0.564478E+000
-0.121190E-001
-0.126978E-001
-0.133149E-001
-0.139763E-001
-0.146884E-001
-0.154587E-001
-0.162955E-001
-0.172081E-001
-0.182077E-001
-0.193072E-001
-0.205221E-001
-0.218710E-001
-0.233767E-001
-0.250671E-001
-0.269771E-001
-0.291508E-001
-0.316446E-001
-0.345316E-001
-0.379082E-001
-0.419032E-001
-0.466918E-001
-0.525174E-001
-0.597242E-001
-0.688107E-001
-0.805160E-001
-0.959673E-001
-0.116935E+000
-0.146295E+000
-0.188895E+000
-0.253220E+000
-0.354708E+000
-0.522603E+000
-0.163639E-001
-0.171339E-001
-0.179534E-001
-0.188290E-001
-0.197682E-001
-0.207790E-001
-0.218706E-001
-0.230535E-001
-0.243395E-001
-0.257425E-001
-0.272786E-001
-0.289669E-001
-0.308302E-001
-0.328960E-001
-0.351979E-001
-0.377776E-001
-0.406870E-001
-0.439925E-001
-0.477796E-001
-0.521607E-001
-0.572865E-001
-0.633629E-001
-0.706785E-001
-0.796474E-001
-0.908812E-001
-0.105311E+000
-0.124406E+000
-0.150572E+000
-0.187924E+000
-0.243804E+000
-0.331881E+000
-0.478675E+000
-0.203254E-001
-0.212772E-001
-0.222899E-001
-0.233707E-001
-0.245277E-001
-0.257700E-001
-0.271076E-001
-0.285521E-001
-0.301161E-001
-0.318146E-001
-0.336645E-001
-0.356856E-001
-0.379010E-001
-0.403382E-001
-0.430301E-001
-0.460161E-001
-0.493450E-001
-0.530769E-001
-0.572878E-001
-0.620750E-001
-0.675660E-001
-0.739315E-001
-0.814060E-001
-0.903213E-001
-0.101162E+000
-0.114662E+000
-0.131982E+000
-0.155037E+000
-0.187161E+000
-0.234455E+000
-0.308620E+000
-0.433076E+000
-0.239451E-001
-0.250666E-001
-0.262600E-001
-0.275335E-001
-0.288957E-001
-0.303567E-001
-0.319274E-001
-0.336203E-001
-0.354494E-001
-0.374304E-001
-0.395814E-001
-0.419231E-001
-0.444792E-001
-0.472776E-001
-0.503506E-001
-0.537367E-001
-0.574816E-001
-0.616405E-001
-0.662810E-001
-0.714871E-001
-0.773651E-001
-0.840528E-001
-0.917336E-001
-0.100660E+000
-0.111193E+000
-0.123871E+000
-0.139542E+000
-0.159618E+000
-0.186610E+000
-0.225282E+000
-0.285170E+000
-0.386197E+000
-0.271801E-001
-0.284567E-001
-0.298161E-001
-0.312670E-001
-0.328188E-001
-0.344824E-001
-0.362698E-001
-0.381945E-001
-0.402714E-001
-0.425177E-001
-0.449524E-001
-0.475973E-001
-0.504772E-001
-0.536205E-001
-0.570597E-001
-0.608325E-001
-0.649828E-001
-0.695618E-001
-0.746301E-001
-0.802601E-001
-0.865392E-001
-0.935754E-001
-0.101504E+000
-0.110504E+000
-0.120816E+000
-0.132789E+000
-0.146960E+000
-0.164230E+000
-0.186256E+000
-0.216376E+000
-0.261762E+000
-0.338427E+000
-0.300023E-001
-0.314179E-001
-0.329265E-001
-0.345374E-001
-0.362608E-001
-0.381084E-001
-0.400932E-001
-0.422296E-001
-0.445340E-001
-0.470244E-001
-0.497213E-001
-0.526478E-001
-0.558296E-001
-0.592962E-001
-0.630807E-001
-0.672207E-001
-0.717588E-001
-0.767435E-001
-0.822298E-001
-0.882804E-001
-0.949664E-001
-0.102369E+000
-0.110581E+000
-0.119711E+000
-0.129887E+000
-0.141275E+000
-0.154111E+000
-0.168783E+000
-0.186071E+000
-0.207809E+000
-0.238611E+000
-0.290152E+000
-0.323974E-001
-0.339346E-001
-0.355742E-001
-0.373261E-001
-0.392014E-001
-0.412124E-001
-0.433731E-001
-0.456989E-001
-0.482074E-001
-0.509179E-001
-0.538522E-001
-0.570347E-001
-0.604925E-001
-0.642562E-001
-0.683599E-001
-0.728416E-001
-0.777437E-001
-0.831126E-001
-0.889994E-001
-0.954588E-001
-0.102548E+000
-0.110326E+000
-0.118847E+000
-0.128154E+000
-0.138274E+000
-0.149199E+000
-0.160870E+000
-0.173175E+000
-0.186007E+000
-0.199630E+000
-0.215910E+000
-0.241749E+000
-0.343631E-001
-0.360037E-001
-0.377554E-001
-0.396284E-001
-0.416345E-001
-0.437870E-001
-0.461006E-001
-0.485918E-001
-0.512791E-001
-0.541834E-001
-0.573276E-001
-0.607375E-001
-0.644418E-001
-0.684725E-001
-0.728649E-001
-0.776580E-001
-0.828943E-001
-0.886195E-001
-0.948819E-001
-0.101730E+000
-0.109211E+000
-0.117362E+000
-0.126206E+000
-0.135730E+000
-0.145864E+000
-0.156438E+000
-0.167118E+000
-0.177304E+000
-0.186006E+000
-0.191866E+000
-0.193828E+000
-0.193582E+000
-0.359075E-001
-0.376333E-001
-0.394776E-001
-0.414513E-001
-0.435668E-001
-0.458379E-001
-0.482804E-001
-0.509117E-001
-0.537514E-001
-0.568214E-001
-0.601461E-001
-0.637528E-001
-0.676716E-001
-0.719361E-001
-0.765832E-001
-0.816530E-001
-0.871889E-001
-0.932367E-001
-0.998429E-001
-0.107052E+000
-0.114903E+000
-0.123417E+000
-0.132588E+000
-0.142354E+000
-0.152561E+000
-0.162888E+000
-0.172743E+000
-0.181063E+000
-0.185993E+000
-0.184523E+000
-0.172512E+000
-0.146002E+000
-0.370471E-001
-0.388400E-001
-0.407576E-001
-0.428116E-001
-0.450147E-001
-0.473816E-001
-0.499287E-001
-0.526743E-001
-0.556391E-001
-0.588460E-001
-0.623208E-001
-0.660921E-001
-0.701916E-001
-0.746546E-001
-0.795194E-001
-0.848279E-001
-0.906249E-001
-0.969566E-001
-0.103869E+000
-0.111405E+000
-0.119596E+000
-0.128451E+000
-0.137941E+000
-0.147963E+000
-0.158286E+000
-0.168458E+000
-0.177644E+000
-0.184348E+000
-0.185883E+000
-0.177585E+000
-0.152081E+000
-0.993390E-001
-0.378051E-001
-0.396473E-001
-0.416195E-001
-0.437337E-001
-0.460032E-001
-0.484432E-001
-0.510707E-001
-0.539050E-001
-0.569674E-001
-0.602822E-001
-0.638761E-001
-0.677792E-001
-0.720247E-001
-0.766493E-001
-0.816933E-001
-0.872003E-001
-0.932164E-001
-0.997895E-001
-0.106966E+000
-0.114787E+000
-0.123280E+000
-0.132447E+000
-0.142237E+000
-0.152514E+000
-0.162983E+000
-0.173075E+000
-0.181733E+000
-0.187059E+000
-0.185585E+000
-0.171015E+000
-0.132629E+000
-0.539017E-001
-0.382094E-001
-0.400841E-001
-0.420929E-001
-0.442480E-001
-0.465632E-001
-0.490543E-001
-0.517388E-001
-0.546365E-001
-0.577698E-001
-0.611636E-001
-0.648460E-001
-0.688480E-001
-0.732043E-001
-0.779533E-001
-0.831368E-001
-0.888004E-001
-0.949920E-001
-0.101761E+000
-0.109155E+000
-0.117216E+000
-0.125967E+000
-0.135406E+000
-0.145467E+000
-0.155985E+000
-0.166614E+000
-0.176682E+000
-0.184936E+000
-0.189104E+000
-0.185001E+000
-0.164758E+000
-0.114221E+000
-0.997498E-002
-0.382912E-001
-0.401827E-001
-0.422110E-001
-0.443888E-001
-0.467302E-001
-0.492513E-001
-0.519702E-001
-0.549072E-001
-0.580854E-001
-0.615303E-001
-0.652710E-001
-0.693397E-001
-0.737722E-001
-0.786084E-001
-0.838916E-001
-0.896693E-001
-0.959914E-001
-0.102909E+000
-0.110472E+000
-0.118721E+000
-0.127682E+000
-0.137346E+000
-0.147639E+000
-0.158373E+000
-0.169158E+000
-0.179241E+000
-0.187194E+000
-0.190403E+000
-0.184032E+000
-0.158740E+000
-0.969003E-001
 0.321824E-001
-0.380836E-001
-0.399771E-001
-0.420092E-001
-0.441928E-001
-0.465421E-001
-0.490736E-001
-0.518056E-001
-0.547590E-001
-0.579572E-001
-0.614267E-001
-0.651968E-001
-0.693010E-001
-0.737760E-001
-0.786628E-001
-0.840069E-001
-0.898562E-001
-0.962635E-001
-0.103282E+000
-0.110962E+000
-0.119348E+000
-0.128465E+000
-0.138301E+000
-0.148779E+000
-0.159693E+000
-0.170615E+000
-0.180728E+000
-0.188465E+000
-0.190890E+000
-0.182582E+000
-0.152872E+000
-0.806829E-001
 0.723391E-001
-0.376203E-001
-0.395026E-001
-0.415241E-001
-0.436977E-001
-0.460381E-001
-0.485617E-001
-0.512872E-001
-0.542356E-001
-0.574309E-001
-0.608995E-001
-0.646721E-001
-0.687819E-001
-0.732674E-001
-0.781699E-001
-0.835360E-001
-0.894166E-001
-0.958635E-001
-0.102935E+000
-0.110680E+000
-0.119148E+000
-0.128365E+000
-0.138316E+000
-0.148922E+000
-0.159972E+000
-0.171001E+000
-0.181138E+000
-0.188717E+000
-0.190516E+000
-0.180564E+000
-0.147055E+000
-0.655633E-001
 0.110292E+000
-0.369348E-001
-0.387938E-001
-0.407918E-001
-0.429415E-001
-0.452576E-001
-0.477568E-001
-0.504576E-001
-0.533815E-001
-0.565522E-001
-0.599971E-001
-0.637462E-001
-0.678346E-001
-0.722994E-001
-0.771850E-001
-0.825369E-001
-0.884079E-001
-0.948531E-001
-0.101927E+000
-0.109690E+000
-0.118182E+000
-0.127440E+000
-0.137449E+000
-0.148121E+000
-0.159248E+000
-0.170349E+000
-0.180485E+000
-0.187932E+000
-0.189243E+000
-0.177905E+000
-0.141176E+000
-0.515161E-001
 0.145869E+000
-0.360593E-001
-0.378847E-001
-0.398476E-001
-0.419609E-001
-0.442391E-001
-0.466989E-001
-0.493589E-001
-0.522403E-001
-0.553673E-001
-0.587667E-001
-0.624698E-001
-0.665099E-001
-0.709275E-001
-0.757632E-001
-0.810685E-001
-0.868913E-001
-0.932922E-001
-0.100327E+000
-0.108051E+000
-0.116521E+000
-0.125754E+000
-0.135761E+000
-0.146439E+000
-0.157570E+000
-0.168695E+000
-0.178802E+000
-0.186103E+000
-0.187044E+000
-0.174553E+000
-0.135121E+000
-0.384985E-001
 0.178923E+000
-0.350248E-001
-0.368074E-001
-0.387254E-001
-0.407912E-001
-0.430195E-001
-0.454266E-001
-0.480313E-001
-0.508545E-001
-0.539202E-001
-0.572555E-001
-0.608905E-001
-0.648605E-001
-0.692028E-001
-0.739633E-001
-0.791859E-001
-0.849301E-001
-0.912433E-001
-0.981966E-001
-0.105836E+000
-0.114222E+000
-0.123387E+000
-0.133309E+000
-0.143944E+000
-0.155007E+000
-0.166080E+000
-0.176138E+000
-0.183249E+000
-0.183887E+000
-0.170480E+000
-0.128769E+000
-0.264629E-001
 0.209341E+000
-0.338596E-001
-0.355921E-001
-0.374566E-001
-0.394656E-001
-0.416334E-001
-0.439765E-001
-0.465132E-001
-0.492643E-001
-0.522534E-001
-0.555072E-001
-0.590560E-001
-0.629337E-001
-0.671798E-001
-0.718353E-001
-0.769522E-001
-0.825768E-001
-0.887770E-001
-0.955956E-001
-0.103116E+000
-0.111360E+000
-0.120397E+000
-0.130190E+000
-0.140678E+000
-0.151653E+000
-0.162549E+000
-0.172535E+000
-0.179423E+000
-0.179743E+000
-0.165662E+000
-0.122024E+000
-0.153492E-001
 0.237007E+000
-0.325902E-001
-0.342668E-001
-0.360708E-001
-0.380148E-001
-0.401133E-001
-0.423824E-001
-0.448403E-001
-0.475072E-001
-0.504063E-001
-0.535640E-001
-0.570098E-001
-0.607776E-001
-0.649050E-001
-0.694356E-001
-0.744150E-001
-0.798998E-001
-0.859390E-001
-0.926065E-001
-0.999378E-001
-0.108024E+000
-0.116844E+000
-0.126477E+000
-0.136736E+000
-0.147534E+000
-0.158236E+000
-0.167978E+000
-0.174731E+000
-0.174579E+000
-0.160120E+000
-0.114695E+000
-0.526052E-002
 0.261930E+000
-0.312401E-001
-0.328581E-001
-0.345949E-001
-0.364670E-001
-0.384887E-001
-0.406756E-001
-0.430453E-001
-0.456179E-001
-0.484157E-001
-0.514645E-001
-0.547932E-001
-0.584347E-001
-0.624263E-001
-0.668096E-001
-0.716321E-001
-0.769439E-001
-0.828044E-001
-0.892658E-001
-0.964004E-001
-0.104237E+000
-0.112854E+000
-0.122180E+000
-0.132253E+000
-0.142676E+000
-0.153238E+000
-0.162532E+000
-0.169203E+000
-0.168439E+000
-0.153848E+000
-0.106706E+000
 0.415211E-002
 0.282877E+000
-0.307372E-001
-0.323210E-001
-0.340244E-001
-0.358607E-001
-0.378436E-001
-0.399882E-001
-0.423117E-001
-0.448333E-001
-0.475752E-001
-0.505620E-001
-0.538218E-001
-0.573866E-001
-0.612921E-001
-0.655786E-001
-0.702907E-001
-0.754781E-001
-0.811927E-001
-0.874918E-001
-0.944252E-001
-0.102048E+000
-0.110372E+000
-0.119413E+000
-0.129030E+000
-0.139074E+000
-0.148877E+000
-0.157663E+000
-0.162972E+000
-0.161512E+000
-0.144251E+000
-0.961313E-001
 0.207423E-001
 0.300402E+000
-0.310028E-001
-0.325827E-001
-0.342829E-001
-0.361147E-001
-0.380910E-001
-0.402267E-001
-0.425382E-001
-0.450442E-001
-0.477658E-001
-0.507268E-001
-0.539541E-001
-0.574778E-001
-0.613318E-001
-0.655534E-001
-0.701845E-001
-0.752686E-001
-0.808553E-001
-0.869878E-001
-0.937181E-001
-0.101065E+000
-0.109064E+000
-0.117638E+000
-0.126724E+000
-0.135954E+000
-0.144863E+000
-0.152215E+000
-0.155927E+000
-0.152040E+000
-0.131659E+000
-0.803173E-001
 0.430256E-001
 0.318037E+000
-0.310817E-001
-0.326498E-001
-0.343356E-001
-0.361503E-001
-0.381064E-001
-0.402180E-001
-0.425008E-001
-0.449728E-001
-0.476540E-001
-0.505669E-001
-0.537367E-001
-0.571919E-001
-0.609633E-001
-0.650860E-001
-0.695962E-001
-0.745355E-001
-0.799414E-001
-0.858581E-001
-0.923113E-001
-0.993297E-001
-0.106894E+000
-0.114949E+000
-0.123350E+000
-0.131713E+000
-0.139551E+000
-0.145355E+000
-0.147476E+000
-0.140693E+000
-0.118229E+000
-0.620287E-001
 0.630923E-001
 0.335487E+000
-0.309471E-001
-0.324915E-001
-0.341500E-001
-0.359334E-001
-0.378537E-001
-0.399241E-001
-0.421597E-001
-0.445772E-001
-0.471955E-001
-0.500356E-001
-0.531207E-001
-0.564768E-001
-0.601324E-001
-0.641178E-001
-0.684668E-001
-0.732119E-001
-0.783881E-001
-0.840248E-001
-0.901405E-001
-0.967501E-001
-0.103798E+000
-0.111253E+000
-0.118822E+000
-0.126308E+000
-0.132760E+000
-0.137260E+000
-0.137115E+000
-0.128283E+000
-0.102684E+000
-0.433098E-001
 0.831408E-001
 0.350471E+000
-0.305675E-001
-0.320746E-001
-0.336912E-001
-0.354274E-001
-0.372945E-001
-0.393049E-001
-0.414727E-001
-0.438133E-001
-0.463440E-001
-0.490841E-001
-0.520547E-001
-0.552790E-001
-0.587819E-001
-0.625903E-001
-0.667322E-001
-0.712341E-001
-0.761249E-001
-0.814169E-001
-0.871351E-001
-0.932377E-001
-0.997254E-001
-0.106412E+000
-0.113172E+000
-0.119485E+000
-0.124705E+000
-0.127476E+000
-0.125349E+000
-0.114189E+000
-0.857087E-001
-0.238824E-001
 0.102943E+000
 0.362732E+000
-0.299093E-001
-0.313639E-001
-0.329223E-001
-0.345937E-001
-0.363886E-001
-0.383184E-001
-0.403958E-001
-0.426349E-001
-0.450513E-001
-0.476620E-001
-0.504858E-001
-0.535427E-001
-0.568541E-001
-0.604426E-001
-0.643290E-001
-0.685377E-001
-0.730787E-001
-0.779744E-001
-0.832005E-001
-0.887570E-001
-0.945399E-001
-0.100447E+000
-0.106198E+000
-0.111348E+000
-0.115140E+000
-0.116159E+000
-0.112024E+000
-0.984961E-001
-0.674499E-001
-0.379204E-002
 0.122308E+000
 0.372122E+000
-0.289373E-001
-0.303229E-001
-0.318053E-001
-0.333927E-001
-0.350946E-001
-0.369211E-001
-0.388837E-001
-0.409948E-001
-0.432679E-001
-0.457178E-001
-0.483604E-001
-0.512122E-001
-0.542911E-001
-0.576131E-001
-0.611972E-001
-0.650520E-001
-0.691936E-001
-0.736101E-001
-0.782966E-001
-0.831959E-001
-0.882273E-001
-0.932272E-001
-0.979051E-001
-0.101789E+000
-0.104057E+000
-0.103291E+000
-0.971207E-001
-0.812879E-001
-0.480269E-001
 0.168647E-001
 0.141011E+000
 0.378615E+000
-0.276155E-001
-0.289142E-001
-0.303012E-001
-0.317838E-001
-0.333702E-001
-0.350694E-001
-0.368911E-001
-0.388457E-001
-0.409448E-001
-0.432005E-001
-0.456253E-001
-0.482327E-001
-0.510348E-001
-0.540453E-001
-0.572714E-001
-0.607228E-001
-0.643940E-001
-0.682771E-001
-0.723377E-001
-0.765156E-001
-0.807038E-001
-0.847137E-001
-0.882364E-001
-0.907656E-001
-0.914453E-001
-0.888664E-001
-0.806600E-001
-0.626649E-001
-0.275483E-001
 0.379338E-001
 0.158857E+000
 0.382235E+000
-0.259079E-001
-0.271004E-001
-0.283713E-001
-0.297269E-001
-0.311741E-001
-0.327202E-001
-0.343731E-001
-0.361414E-001
-0.380341E-001
-0.400603E-001
-0.422297E-001
-0.445508E-001
-0.470329E-001
-0.496809E-001
-0.524999E-001
-0.554861E-001
-0.586305E-001
-0.619087E-001
-0.652760E-001
-0.686562E-001
-0.719217E-001
-0.748643E-001
-0.771543E-001
-0.782567E-001
-0.773050E-001
-0.728983E-001
-0.627020E-001
-0.427328E-001
-0.614240E-002
 0.592369E-001
 0.175673E+000
 0.383047E+000
-0.237795E-001
-0.248453E-001
-0.259783E-001
-0.271835E-001
-0.284662E-001
-0.298321E-001
-0.312873E-001
-0.328381E-001
-0.344906E-001
-0.362513E-001
-0.381256E-001
-0.401190E-001
-0.422341E-001
-0.444722E-001
-0.468291E-001
-0.492951E-001
-0.518502E-001
-0.544594E-001
-0.570650E-001
-0.595755E-001
-0.618457E-001
-0.636506E-001
-0.646402E-001
-0.642634E-001
-0.616533E-001
-0.554288E-001
-0.433306E-001
-0.216107E-001
 0.160408E-001
 0.805851E-001
 0.191316E+000
 0.381149E+000
-0.211975E-001
-0.221152E-001
-0.230874E-001
-0.241178E-001
-0.252099E-001
-0.263677E-001
-0.275953E-001
-0.288962E-001
-0.302742E-001
-0.317321E-001
-0.332721E-001
-0.348944E-001
-0.365975E-001
-0.383758E-001
-0.402188E-001
-0.421084E-001
-0.440150E-001
-0.458929E-001
-0.476722E-001
-0.492468E-001
-0.504569E-001
-0.510621E-001
-0.506979E-001
-0.488066E-001
-0.445309E-001
-0.365276E-001
-0.226519E-001
 0.563875E-003
 0.388316E-001
 0.101789E+000
 0.205670E+000
 0.376672E+000
-0.181328E-001
-0.188804E-001
-0.196683E-001
-0.204987E-001
-0.213735E-001
-0.222947E-001
-0.232641E-001
-0.242827E-001
-0.253513E-001
-0.264695E-001
-0.276351E-001
-0.288443E-001
-0.300900E-001
-0.313606E-001
-0.326386E-001
-0.338980E-001
-0.351000E-001
-0.361885E-001
-0.370819E-001
-0.376616E-001
-0.377553E-001
-0.371105E-001
-0.353542E-001
-0.319312E-001
-0.260045E-001
-0.162912E-001
-0.794232E-003
 0.236340E-001
 0.620460E-001
 0.122664E+000
 0.218645E+000
 0.369772E+000
-0.145617E-001
-0.151168E-001
-0.156966E-001
-0.163017E-001
-0.169323E-001
-0.175883E-001
-0.182690E-001
-0.189730E-001
-0.196978E-001
-0.204395E-001
-0.211920E-001
-0.219467E-001
-0.226912E-001
-0.234081E-001
-0.240729E-001
-0.246516E-001
-0.250970E-001
-0.253431E-001
-0.252980E-001
-0.248325E-001
-0.237639E-001
-0.218318E-001
-0.186616E-001
-0.137083E-001
-0.616900E-002
 0.515782E-002
 0.220919E-001
 0.474237E-001
 0.854906E-001
 0.143039E+000
 0.230180E+000
 0.360634E+000
-0.104681E-001
-0.108082E-001
-0.111563E-001
-0.115110E-001
-0.118709E-001
-0.122335E-001
-0.125958E-001
-0.129536E-001
-0.133011E-001
-0.136310E-001
-0.139330E-001
-0.141940E-001
-0.143962E-001
-0.145163E-001
-0.145232E-001
-0.143755E-001
-0.140178E-001
-0.133755E-001
-0.123474E-001
-0.107959E-001
-0.853104E-002
-0.528907E-002
-0.699769E-003
 0.576230E-002
 0.148527E-001
 0.276711E-001
 0.458342E-001
 0.717408E-001
 0.108967E+000
 0.162752E+000
 0.240241E+000
 0.349466E+000
-0.584479E-002
-0.594823E-002
-0.604150E-002
-0.612166E-002
-0.618511E-002
-0.622734E-002
-0.624275E-002
-0.622428E-002
-0.616308E-002
-0.604797E-002
-0.586485E-002
-0.559580E-002
-0.521806E-002
-0.470252E-002
-0.401178E-002
-0.309757E-002
-0.189709E-002
-0.328133E-003
 0.171775E-002
 0.438483E-002
 0.786681E-002
 0.124262E-001
 0.184222E-001
 0.263517E-001
 0.369095E-001
 0.510752E-001
 0.702395E-001
 0.963798E-001
 0.132279E+000
 0.181662E+000
 0.248820E+000
 0.336497E+000
-0.696506E-003
-0.542524E-003
-0.359241E-003
-0.141941E-003
 0.115004E-003
 0.418341E-003
 0.776235E-003
 0.119858E-002
 0.169746E-002
 0.228762E-002
 0.298720E-002
 0.381854E-002
 0.480936E-002
 0.599417E-002
 0.741622E-002
 0.913006E-002
 0.112049E-001
 0.137294E-001
 0.168175E-001
 0.206175E-001
 0.253235E-001
 0.311921E-001
 0.385650E-001
 0.479015E-001
 0.598229E-001
 0.751733E-001
 0.950969E-001
 0.121126E+000
 0.155230E+000
 0.199643E+000
 0.255937E+000
 0.321980E+000
 0.495858E-002
 0.538900E-002
 0.586871E-002
 0.640426E-002
 0.700328E-002
 0.767480E-002
 0.842954E-002
 0.928023E-002
 0.102421E-001
 0.113335E-001
 0.125763E-001
 0.139972E-001
 0.156286E-001
 0.175100E-001
 0.196899E-001
 0.222284E-001
 0.252002E-001
 0.286987E-001
 0.328419E-001
 0.377793E-001
 0.437019E-001
 0.508557E-001
 0.595587E-001
 0.702240E-001
 0.833886E-001
 0.997467E-001
 0.120180E+000
 0.145760E+000
 0.177637E+000
 0.216592E+000
 0.261639E+000
 0.306181E+000
 0.110867E-001
 0.118102E-001
 0.126037E-001
 0.134754E-001
 0.144352E-001
 0.154941E-001
 0.166656E-001
 0.179651E-001
 0.194109E-001
 0.210246E-001
 0.228321E-001
 0.248639E-001
 0.271567E-001
 0.297545E-001
 0.327107E-001
 0.360899E-001
 0.399712E-001
 0.444514E-001
 0.496503E-001
 0.557161E-001
 0.628336E-001
 0.712335E-001
 0.812040E-001
 0.931045E-001
 0.107378E+000
 0.124558E+000
 0.145251E+000
 0.170059E+000
 0.199322E+000
 0.232425E+000
 0.265994E+000
 0.289384E+000
 0.176366E-001
 0.186670E-001
 0.197883E-001
 0.210108E-001
 0.223460E-001
 0.238076E-001
 0.254112E-001
 0.271750E-001
 0.291203E-001
 0.312720E-001
 0.336592E-001
 0.363163E-001
 0.392838E-001
 0.426098E-001
 0.463516E-001
 0.505778E-001
 0.553703E-001
 0.608282E-001
 0.670709E-001
 0.742431E-001
 0.825197E-001
 0.921120E-001
 0.103273E+000
 0.116303E+000
 0.131542E+000
 0.149355E+000
 0.170066E+000
 0.193805E+000
 0.220125E+000
 0.247082E+000
 0.269097E+000
 0.271881E+000
 0.245389E-001
 0.258861E-001
 0.273455E-001
 0.289290E-001
 0.306501E-001
 0.325246E-001
 0.345705E-001
 0.368086E-001
 0.392629E-001
 0.419614E-001
 0.449363E-001
 0.482253E-001
 0.518725E-001
 0.559295E-001
 0.604567E-001
 0.655254E-001
 0.712200E-001
 0.776396E-001
 0.849019E-001
 0.931452E-001
 0.102532E+000
 0.113251E+000
 0.125515E+000
 0.139558E+000
 0.155614E+000
 0.173873E+000
 0.194375E+000
 0.216786E+000
 0.239897E+000
 0.260522E+000
 0.271060E+000
 0.253973E+000
 0.317050E-001
 0.333750E-001
 0.351781E-001
 0.371280E-001
 0.392401E-001
 0.415323E-001
 0.440247E-001
 0.467406E-001
 0.497067E-001
 0.529535E-001
 0.565163E-001
 0.604358E-001
 0.647588E-001
 0.695398E-001
 0.748419E-001
 0.807384E-001
 0.873143E-001
 0.946681E-001
 0.102913E+000
 0.112181E+000
 0.122617E+000
 0.134384E+000
 0.147654E+000
 0.162590E+000
 0.179315E+000
 0.197842E+000
 0.217931E+000
 0.238797E+000
 0.258508E+000
 0.272726E+000
 0.272016E+000
 0.235964E+000
 0.390278E-001
 0.410215E-001
 0.431689E-001
 0.454853E-001
 0.479878E-001
 0.506963E-001
 0.536331E-001
 0.568235E-001
 0.602967E-001
 0.640857E-001
 0.682283E-001
 0.727676E-001
 0.777531E-001
 0.832416E-001
 0.892979E-001
 0.959964E-001
 0.103422E+000
 0.111671E+000
 0.120851E+000
 0.131084E+000
 0.142499E+000
 0.155229E+000
 0.169401E+000
 0.185106E+000
 0.202357E+000
 0.220991E+000
 0.240492E+000
 0.259646E+000
 0.275845E+000
 0.283693E+000
 0.272109E+000
 0.218156E+000
 0.463829E-001
 0.486962E-001
 0.511829E-001
 0.538599E-001
 0.567460E-001
 0.598629E-001
 0.632348E-001
 0.668892E-001
 0.708571E-001
 0.751739E-001
 0.798794E-001
 0.850191E-001
 0.906445E-001
 0.968138E-001
 0.103593E+000
 0.111057E+000
 0.119290E+000
 0.128384E+000
 0.138442E+000
 0.149572E+000
 0.161885E+000
 0.175487E+000
 0.190454E+000
 0.206809E+000
 0.224451E+000
 0.243048E+000
 0.261823E+000
 0.279155E+000
 0.291813E+000
 0.293441E+000
 0.271495E+000
 0.200848E+000
 0.536310E-001
 0.562541E-001
 0.590693E-001
 0.620949E-001
 0.653514E-001
 0.688619E-001
 0.726526E-001
 0.767526E-001
 0.811949E-001
 0.860167E-001
 0.912598E-001
 0.969713E-001
 0.103204E+000
 0.110018E+000
 0.117480E+000
 0.125663E+000
 0.134650E+000
 0.144530E+000
 0.155397E+000
 0.167348E+000
 0.180475E+000
 0.194851E+000
 0.210509E+000
 0.227397E+000
 0.245311E+000
 0.263754E+000
 0.281703E+000
 0.297163E+000
 0.306333E+000
 0.302000E+000
 0.270335E+000
 0.184326E+000
 0.606217E-001
 0.635390E-001
 0.666659E-001
 0.700217E-001
 0.736287E-001
 0.775112E-001
 0.816970E-001
 0.862168E-001
 0.911053E-001
 0.964011E-001
 0.102148E+000
 0.108393E+000
 0.115192E+000
 0.122605E+000
 0.130698E+000
 0.139545E+000
 0.149225E+000
 0.159822E+000
 0.171424E+000
 0.184113E+000
 0.197963E+000
 0.213016E+000
 0.229260E+000
 0.246577E+000
 0.264659E+000
 0.282858E+000
 0.299924E+000
 0.313522E+000
 0.319342E+000
 0.309413E+000
 0.268792E+000
 0.168867E+000
 0.671979E-001
 0.703882E-001
 0.738038E-001
 0.774654E-001
 0.813963E-001
 0.856223E-001
 0.901724E-001
 0.950787E-001
 0.100377E+000
 0.106108E+000
 0.112316E+000
 0.119049E+000
 0.126365E+000
 0.134322E+000
 0.142987E+000
 0.152433E+000
 0.162736E+000
 0.173975E+000
 0.186229E+000
 0.199570E+000
 0.214050E+000
 0.229684E+000
 0.246416E+000
 0.264066E+000
 0.282231E+000
 0.300127E+000
 0.316298E+000
 0.328106E+000
 0.330793E+000
 0.315731E+000
 0.267026E+000
 0.154727E+000
 0.732016E-001
 0.766382E-001
 0.803138E-001
 0.842505E-001
 0.884725E-001
 0.930069E-001
 0.978837E-001
 0.103136E+000
 0.108802E+000
 0.114921E+000
 0.121539E+000
 0.128707E+000
 0.136481E+000
 0.144920E+000
 0.154091E+000
 0.164064E+000
 0.174912E+000
 0.186711E+000
 0.199532E+000
 0.213432E+000
 0.228449E+000
 0.244569E+000
 0.261699E+000
 0.279600E+000
 0.297786E+000
 0.315350E+000
 0.330656E+000
 0.340803E+000
 0.340649E+000
 0.321008E+000
 0.265190E+000
 0.142139E+000
 0.784804E-001
 0.821311E-001
 0.860327E-001
 0.902082E-001
 0.946828E-001
 0.994844E-001
 0.104644E+000
 0.110196E+000
 0.116178E+000
 0.122632E+000
 0.129604E+000
 0.137146E+000
 0.145312E+000
 0.154164E+000
 0.163766E+000
 0.174188E+000
 0.185500E+000
 0.197772E+000
 0.211068E+000
 0.225437E+000
 0.240897E+000
 0.257413E+000
 0.274856E+000
 0.292939E+000
 0.311103E+000
 0.328336E+000
 0.342850E+000
 0.351521E+000
 0.348887E+000
 0.325301E+000
 0.263424E+000
 0.131313E+000
 0.828936E-001
 0.867217E-001
 0.908104E-001
 0.951835E-001
 0.998668E-001
 0.104889E+000
 0.110282E+000
 0.116081E+000
 0.122324E+000
 0.129053E+000
 0.136316E+000
 0.144164E+000
 0.152653E+000
 0.161842E+000
 0.171796E+000
 0.182583E+000
 0.194271E+000
 0.206925E+000
 0.220604E+000
 0.235347E+000
 0.251158E+000
 0.267983E+000
 0.285666E+000
 0.303875E+000
 0.321995E+000
 0.338926E+000
 0.352756E+000
 0.360184E+000
 0.355490E+000
 0.328663E+000
 0.261851E+000
 0.122429E+000
 0.863194E-001
 0.902841E-001
 0.945170E-001
 0.990421E-001
 0.103886E+000
 0.109078E+000
 0.114650E+000
 0.120639E+000
 0.127081E+000
 0.134022E+000
 0.141508E+000
 0.149590E+000
 0.158324E+000
 0.167770E+000
 0.177993E+000
 0.189057E+000
 0.201030E+000
 0.213973E+000
 0.227940E+000
 0.242963E+000
 0.259036E+000
 0.276089E+000
 0.293942E+000
 0.312235E+000
 0.330305E+000
 0.346987E+000
 0.360275E+000
 0.366732E+000
 0.360448E+000
 0.331138E+000
 0.260576E+000
 0.115633E+000
 0.886601E-001
 0.927178E-001
 0.970486E-001
 0.101677E+000
 0.106630E+000
 0.111937E+000
 0.117631E+000
 0.123748E+000
 0.130326E+000
 0.137410E+000
 0.145046E+000
 0.153286E+000
 0.162186E+000
 0.171806E+000
 0.182209E+000
 0.193460E+000
 0.205624E+000
 0.218761E+000
 0.232921E+000
 0.248130E+000
 0.264376E+000
 0.281578E+000
 0.299542E+000
 0.317885E+000
 0.335913E+000
 0.352417E+000
 0.365329E+000
 0.371121E+000
 0.363756E+000
 0.332767E+000
 0.259680E+000
 0.111039E+000
 0.898479E-001
 0.939526E-001
 0.983329E-001
 0.103013E+000
 0.108022E+000
 0.113387E+000
 0.119142E+000
 0.125324E+000
 0.131971E+000
 0.139126E+000
 0.146839E+000
 0.155159E+000
 0.164142E+000
 0.173850E+000
 0.184343E+000
 0.195688E+000
 0.207948E+000
 0.221182E+000
 0.235438E+000
 0.250741E+000
 0.267073E+000
 0.284349E+000
 0.302367E+000
 0.320732E+000
 0.338737E+000
 0.355149E+000
 0.367869E+000
 0.373323E+000
 0.365410E+000
 0.333574E+000
 0.259218E+000
 0.108722E+000
 0.898479E-001
 0.939526E-001
 0.983329E-001
 0.103013E+000
 0.108022E+000
 0.113387E+000
 0.119142E+000
 0.125324E+000
 0.131971E+000
 0.139126E+000
 0.146839E+000
 0.155159E+000
 0.164142E+000
 0.173850E+000
 0.184343E+000
 0.195688E+000
 0.207948E+000
 0.221182E+000
 0.235438E+000
 0.250741E+000
 0.267073E+000
 0.284349E+000
 0.302367E+000
 0.320732E+000
 0.338737E+000
 0.355149E+000
 0.367869E+000
 0.373323E+000
 0.365410E+000
 0.333574E+000
 0.259218E+000
 0.108722E+000
 0.886601E-001
 0.927178E-001
 0.970486E-001
 0.101677E+000
 0.106630E+000
 0.111937E+000
 0.117631E+000
 0.123748E+000
 0.130326E+000
 0.137410E+000
 0.145046E+000
 0.153286E+000
 0.162186E+000
 0.171806E+000
 0.182209E+000
 0.193460E+000
 0.205624E+000
 0.218761E+000
 0.232921E+000
 0.248130E+000
 0.264376E+000
 0.281578E+000
 0.299542E+000
 0.317885E+000
 0.335913E+000
 0.352417E+000
 0.365329E+000
 0.371121E+000
 0.363756E+000
 0.332767E+000
 0.259680E+000
 0.111039E+000
 0.863194E-001
 0.902841E-001
 0.945170E-001
 0.990421E-001
 0.103886E+000
 0.109078E+000
 0.114650E+000
 0.120639E+000
 0.127081E+000
 0.134022E+000
 0.141508E+000
 0.149590E+000
 0.158324E+000
 0.167770E+000
 0.177993E+000
 0.189057E+000
 0.201030E+000
 0.213973E+000
 0.227940E+000
 0.242963E+000
 0.259036E+000
 0.276089E+000
 0.293942E+000
 0.312235E+000
 0.330305E+000
 0.346987E+000
 0.360275E+000
 0.366732E+000
 0.360448E+000
 0.331138E+000
 0.260576E+000
 0.115633E+000
 0.828936E-001
 0.867217E-001
 0.908104E-001
 0.951835E-001
 0.998668E-001
 0.104889E+000
 0.110282E+000
 0.116081E+000
 0.122324E+000
 0.129053E+000
 0.136316E+000
 0.144164E+000
 0.152653E+000
 0.161842E+000
 0.171796E+000
 0.182583E+000
 0.194271E+000
 0.206925E+000
 0.220604E+000
 0.235347E+000
 0.251158E+000
 0.267983E+000
 0.285666E+000
 0.303875E+000
 0.321995E+000
 0.338926E+000
 0.352756E+000
 0.360184E+000
 0.355490E+000
 0.328663E+000
 0.261851E+000
 0.122429E+000
 0.784804E-001
 0.821311E-001
 0.860327E-001
 0.902082E-001
 0.946828E-001
 0.994844E-001
 0.104644E+000
 0.110196E+000
 0.116178E+000
 0.122632E+000
 0.129604E+000
 0.137146E+000
 0.145312E+000
 0.154164E+000
 0.163766E+000
 0.174188E+000
 0.185500E+000
 0.197772E+000
 0.211068E+000
 0.225437E+000
 0.240897E+000
 0.257413E+000
 0.274856E+000
 0.292939E+000
 0.311103E+000
 0.328336E+000
 0.342850E+000
 0.351521E+000
 0.348887E+000
 0.325301E+000
 0.263424E+000
 0.131313E+000
 0.732016E-001
 0.766382E-001
 0.803138E-001
 0.842505E-001
 0.884725E-001
 0.930069E-001
 0.978837E-001
 0.103136E+000
 0.108802E+000
 0.114921E+000
 0.121539E+000
 0.128707E+000
 0.136481E+000
 0.144920E+000
 0.154091E+000
 0.164064E+000
 0.174912E+000
 0.186711E+000
 0.199532E+000
 0.213432E+000
 0.228449E+000
 0.244569E+000
 0.261699E+000
 0.279600E+000
 0.297786E+000
 0.315350E+000
 0.330656E+000
 0.340803E+000
 0.340649E+000
 0.321008E+000
 0.265190E+000
 0.142139E+000
 0.671979E-001
 0.703882E-001
 0.738038E-001
 0.774654E-001
 0.813963E-001
 0.856223E-001
 0.901724E-001
 0.950787E-001
 0.100377E+000
 0.106108E+000
 0.112316E+000
 0.119049E+000
 0.126365E+000
 0.134322E+000
 0.142987E+000
 0.152433E+000
 0.162736E+000
 0.173975E+000
 0.186229E+000
 0.199570E+000
 0.214050E+000
 0.229684E+000
 0.246416E+000
 0.264066E+000
 0.282231E+000
 0.300127E+000
 0.316298E+000
 0.328106E+000
 0.330793E+000
 0.315731E+000
 0.267026E+000
 0.154727E+000
 0.606217E-001
 0.635390E-001
 0.666659E-001
 0.700217E-001
 0.736287E-001
 0.775112E-001
 0.816970E-001
 0.862168E-001
 0.911053E-001
 0.964011E-001
 0.102148E+000
 0.108393E+000
 0.115192E+000
 0.122605E+000
 0.130698E+000
 0.139545E+000
 0.149225E+000
 0.159822E+000
 0.171424E+000
 0.184113E+000
 0.197963E+000
 0.213016E+000
 0.229260E+000
 0.246577E+000
 0.264659E+000
 0.282858E+000
 0.299924E+000
 0.313522E+000
 0.319342E+000
 0.309413E+000
 0.268792E+000
 0.168867E+000
 0.536310E-001
 0.562541E-001
 0.590693E-001
 0.620949E-001
 0.653514E-001
 0.688619E-001
 0.726526E-001
 0.767526E-001
 0.811949E-001
 0.860167E-001
 0.912598E-001
 0.969713E-001
 0.103204E+000
 0.110018E+000
 0.117480E+000
 0.125663E+000
 0.134650E+000
 0.144530E+000
 0.155397E+000
 0.167348E+000
 0.180475E+000
 0.194851E+000
 0.210509E+000
 0.227397E+000
 0.245311E+000
 0.263754E+000
 0.281703E+000
 0.297163E+000
 0.306333E+000
 0.302000E+000
 0.270335E+000
 0.184326E+000
 0.463829E-001
 0.486962E-001
 0.511829E-001
 0.538599E-001
 0.567460E-001
 0.598629E-001
 0.632348E-001
 0.668892E-001
 0.708571E-001
 0.751739E-001
 0.798794E-001
 0.850191E-001
 0.906445E-001
 0.968138E-001
 0.103593E+000
 0.111057E+000
 0.119290E+000
 0.128384E+000
 0.138442E+000
 0.149572E+000
 0.161885E+000
 0.175487E+000
 0.190454E+000
 0.206809E+000
 0.224451E+000
 0.243048E+000
 0.261823E+000
 0.279155E+000
 0.291813E+000
 0.293441E+000
 0.271495E+000
 0.200848E+000
 0.390278E-001
 0.410215E-001
 0.431689E-001
 0.454853E-001
 0.479878E-001
 0.506963E-001
 0.536331E-001
 0.568235E-001
 0.602967E-001
 0.640857E-001
 0.682283E-001
 0.727676E-001
 0.777531E-001
 0.832416E-001
 0.892979E-001
 0.959964E-001
 0.103422E+000
 0.111671E+000
 0.120851E+000
 0.131084E+000
 0.142499E+000
 0.155229E+000
 0.169401E+000
 0.185106E+000
 0.202357E+000
 0.220991E+000
 0.240492E+000
 0.259646E+000
 0.275845E+000
 0.283693E+000
 0.272109E+000
 0.218156E+000
 0.317050E-001
 0.333750E-001
 0.351781E-001
 0.371280E-001
 0.392401E-001
 0.415323E-001
 0.440247E-001
 0.467406E-001
 0.497067E-001
 0.529535E-001
 0.565163E-001
 0.604358E-001
 0.647588E-001
 0.695398E-001
 0.748419E-001
 0.807384E-001
 0.873143E-001
 0.946681E-001
 0.102913E+000
 0.112181E+000
 0.122617E+000
 0.134384E+000
 0.147654E+000
 0.162590E+000
 0.179315E+000
 0.197842E+000
 0.217931E+000
 0.238797E+000
 0.258508E+000
 0.272726E+000
 0.272016E+000
 0.235964E+000
 0.245389E-001
 0.258861E-001
 0.273455E-001
 0.289290E-001
 0.306501E-001
 0.325246E-001
 0.345705E-001
 0.368086E-001
 0.392629E-001
 0.419614E-001
 0.449363E-001
 0.482253E-001
 0.518725E-001
 0.559295E-001
 0.604567E-001
 0.655254E-001
 0.712200E-001
 0.776396E-001
 0.849019E-001
 0.931452E-001
 0.102532E+000
 0.113251E+000
 0.125515E+000
 0.139558E+000
 0.155614E+000
 0.173873E+000
 0.194375E+000
 0.216786E+000
 0.239897E+000
 0.260522E+000
 0.271060E+000
 0.253973E+000
 0.176366E-001
 0.186670E-001
 0.197883E-001
 0.210108E-001
 0.223460E-001
 0.238076E-001
 0.254112E-001
 0.271750E-001
 0.291203E-001
 0.312720E-001
 0.336592E-001
 0.363163E-001
 0.392838E-001
 0.426098E-001
 0.463516E-001
 0.505778E-001
 0.553703E-001
 0.608282E-001
 0.670709E-001
 0.742431E-001
 0.825197E-001
 0.921120E-001
 0.103273E+000
 0.116303E+000
 0.131542E+000
 0.149355E+000
 0.170066E+000
 0.193805E+000
 0.220125E+000
 0.247082E+000
 0.269097E+000
 0.271881E+000
 0.110867E-001
 0.118102E-001
 0.126037E-001
 0.134754E-001
 0.144352E-001
 0.154941E-001
 0.166656E-001
 0.179651E-001
 0.194109E-001
 0.210246E-001
 0.228321E-001
 0.248639E-001
 0.271567E-001
 0.297545E-001
 0.327107E-001
 0.360899E-001
 0.399712E-001
 0.444514E-001
 0.496503E-001
 0.557161E-001
 0.628336E-001
 0.712335E-001
 0.812040E-001
 0.931045E-001
 0.107378E+000
 0.124558E+000
 0.145251E+000
 0.170059E+000
 0.199322E+000
 0.232425E+000
 0.265994E+000
 0.289384E+000
 0.495858E-002
 0.538900E-002
 0.586871E-002
 0.640426E-002
 0.700328E-002
 0.767480E-002
 0.842954E-002
 0.928023E-002
 0.102421E-001
 0.113335E-001
 0.125763E-001
 0.139972E-001
 0.156286E-001
 0.175100E-001
 0.196899E-001
 0.222284E-001
 0.252002E-001
 0.286987E-001
 0.328419E-001
 0.377793E-001
 0.437019E-001
 0.508557E-001
 0.595587E-001
 0.702240E-001
 0.833886E-001
 0.997467E-001
 0.120180E+000
 0.145760E+000
 0.177637E+000
 0.216592E+000
 0.261639E+000
 0.306181E+000
-0.696506E-003
-0.542524E-003
-0.359241E-003
-0.141941E-003
 0.115004E-003
 0.418341E-003
 0.776235E-003
 0.119858E-002
 0.169746E-002
 0.228762E-002
 0.298720E-002
 0.381854E-002
 0.480936E-002
 0.599417E-002
 0.741622E-002
 0.913006E-002
 0.112049E-001
 0.137294E-001
 0.168175E-001
 0.206175E-001
 0.253235E-001
 0.311921E-001
 0.385650E-001
 0.479015E-001
 0.598229E-001
 0.751733E-001
 0.950969E-001
 0.121126E+000
 0.155230E+000
 0.199643E+000
 0.255937E+000
 0.321980E+000
-0.584479E-002
-0.594823E-002
-0.604150E-002
-0.612166E-002
-0.618511E-002
-0.622734E-002
-0.624275E-002
-0.622428E-002
-0.616308E-002
-0.604797E-002
-0.586485E-002
-0.559580E-002
-0.521806E-002
-0.470252E-002
-0.401178E-002
-0.309757E-002
-0.189709E-002
-0.328133E-003
 0.171775E-002
 0.438483E-002
 0.786681E-002
 0.124262E-001
 0.184222E-001
 0.263517E-001
 0.369095E-001
 0.510752E-001
 0.702395E-001
 0.963798E-001
 0.132279E+000
 0.181662E+000
 0.248820E+000
 0.336497E+000
-0.104681E-001
-0.108082E-001
-0.111563E-001
-0.115110E-001
-0.118709E-001
-0.122335E-001
-0.125958E-001
-0.129536E-001
-0.133011E-001
-0.136310E-001
-0.139330E-001
-0.141940E-001
-0.143962E-001
-0.145163E-001
-0.145232E-001
-0.143755E-001
-0.140178E-001
-0.133755E-001
-0.123474E-001
-0.107959E-001
-0.853104E-002
-0.528907E-002
-0.699769E-003
 0.576230E-002
 0.148527E-001
 0.276711E-001
 0.458342E-001
 0.717408E-001
 0.108967E+000
 0.162752E+000
 0.240241E+000
 0.349466E+000
-0.145617E-001
-0.151168E-001
-0.156966E-001
-0.163017E-001
-0.169323E-001
-0.175883E-001
-0.182690E-001
-0.189730E-001
-0.196978E-001
-0.204395E-001
-0.211920E-001
-0.219467E-001
-0.226912E-001
-0.234081E-001
-0.240729E-001
-0.246516E-001
-0.250970E-001
-0.253431E-001
-0.252980E-001
-0.248325E-001
-0.237639E-001
-0.218318E-001
-0.186616E-001
-0.137083E-001
-0.616900E-002
 0.515782E-002
 0.220919E-001
 0.474237E-001
 0.854906E-001
 0.143039E+000
 0.230180E+000
 0.360634E+000
-0.181328E-001
-0.188804E-001
-0.196683E-001
-0.204987E-001
-0.213735E-001
-0.222947E-001
-0.232641E-001
-0.242827E-001
-0.253513E-001
-0.264695E-001
-0.276351E-001
-0.288443E-001
-0.300900E-001
-0.313606E-001
-0.326386E-001
-0.338980E-001
-0.351000E-001
-0.361885E-001
-0.370819E-001
-0.376616E-001
-0.377553E-001
-0.371105E-001
-0.353542E-001
-0.319312E-001
-0.260045E-001
-0.162912E-001
-0.794232E-003
 0.236340E-001
 0.620460E-001
 0.122664E+000
 0.218645E+000
 0.369772E+000
-0.211975E-001
-0.221152E-001
-0.230874E-001
-0.241178E-001
-0.252099E-001
-0.263677E-001
-0.275953E-001
-0.288962E-001
-0.302742E-001
-0.317321E-001
-0.332721E-001
-0.348944E-001
-0.365975E-001
-0.383758E-001
-0.402188E-001
-0.421084E-001
-0.440150E-001
-0.458929E-001
-0.476722E-001
-0.492468E-001
-0.504569E-001
-0.510621E-001
-0.506979E-001
-0.488066E-001
-0.445309E-001
-0.365276E-001
-0.226519E-001
 0.563875E-003
 0.388316E-001
 0.101789E+000
 0.205670E+000
 0.376672E+000
-0.237795E-001
-0.248453E-001
-0.259783E-001
-0.271835E-001
-0.284662E-001
-0.298321E-001
-0.312873E-001
-0.328381E-001
-0.344906E-001
-0.362513E-001
-0.381256E-001
-0.401190E-001
-0.422341E-001
-0.444722E-001
-0.468291E-001
-0.492951E-001
-0.518502E-001
-0.544594E-001
-0.570650E-001
-0.595755E-001
-0.618457E-001
-0.636506E-001
-0.646402E-001
-0.642634E-001
-0.616533E-001
-0.554288E-001
-0.433306E-001
-0.216107E-001
 0.160408E-001
 0.805851E-001
 0.191316E+000
 0.381149E+000
-0.259079E-001
-0.271004E-001
-0.283713E-001
-0.297269E-001
-0.311741E-001
-0.327202E-001
-0.343731E-001
-0.361414E-001
-0.380341E-001
-0.400603E-001
-0.422297E-001
-0.445508E-001
-0.470329E-001
-0.496809E-001
-0.524999E-001
-0.554861E-001
-0.586305E-001
-0.619087E-001
-0.652760E-001
-0.686562E-001
-0.719217E-001
-0.748643E-001
-0.771543E-001
-0.782567E-001
-0.773050E-001
-0.728983E-001
-0.627020E-001
-0.427328E-001
-0.614240E-002
 0.592369E-001
 0.175673E+000
 0.383047E+000
-0.276155E-001
-0.289142E-001
-0.303012E-001
-0.317838E-001
-0.333702E-001
-0.350694E-001
-0.368911E-001
-0.388457E-001
-0.409448E-001
-0.432005E-001
-0.456253E-001
-0.482327E-001
-0.510348E-001
-0.540453E-001
-0.572714E-001
-0.607228E-001
-0.643940E-001
-0.682771E-001
-0.723377E-001
-0.765156E-001
-0.807038E-001
-0.847137E-001
-0.882364E-001
-0.907656E-001
-0.914453E-001
-0.888664E-001
-0.806600E-001
-0.626649E-001
-0.275483E-001
 0.379338E-001
 0.158857E+000
 0.382235E+000
-0.289373E-001
-0.303229E-001
-0.318053E-001
-0.333927E-001
-0.350946E-001
-0.369211E-001
-0.388837E-001
-0.409948E-001
-0.432679E-001
-0.457178E-001
-0.483604E-001
-0.512122E-001
-0.542911E-001
-0.576131E-001
-0.611972E-001
-0.650520E-001
-0.691936E-001
-0.736101E-001
-0.782966E-001
-0.831959E-001
-0.882273E-001
-0.932272E-001
-0.979051E-001
-0.101789E+000
-0.104057E+000
-0.103291E+000
-0.971207E-001
-0.812879E-001
-0.480269E-001
 0.168647E-001
 0.141011E+000
 0.378615E+000
-0.299093E-001
-0.313639E-001
-0.329223E-001
-0.345937E-001
-0.363886E-001
-0.383184E-001
-0.403958E-001
-0.426349E-001
-0.450513E-001
-0.476620E-001
-0.504858E-001
-0.535427E-001
-0.568541E-001
-0.604426E-001
-0.643290E-001
-0.685377E-001
-0.730787E-001
-0.779744E-001
-0.832005E-001
-0.887570E-001
-0.945399E-001
-0.100447E+000
-0.106198E+000
-0.111348E+000
-0.115140E+000
-0.116159E+000
-0.112024E+000
-0.984961E-001
-0.674499E-001
-0.379204E-002
 0.122308E+000
 0.372122E+000
-0.305675E-001
-0.320746E-001
-0.336912E-001
-0.354274E-001
-0.372945E-001
-0.393049E-001
-0.414727E-001
-0.438133E-001
-0.463440E-001
-0.490841E-001
-0.520547E-001
-0.552790E-001
-0.587819E-001
-0.625903E-001
-0.667322E-001
-0.712341E-001
-0.761249E-001
-0.814169E-001
-0.871351E-001
-0.932377E-001
-0.997254E-001
-0.106412E+000
-0.113172E+000
-0.119485E+000
-0.124705E+000
-0.127476E+000
-0.125349E+000
-0.114189E+000
-0.857087E-001
-0.238824E-001
 0.102943E+000
 0.362732E+000
-0.309471E-001
-0.324915E-001
-0.341500E-001
-0.359334E-001
-0.378537E-001
-0.399241E-001
-0.421597E-001
-0.445772E-001
-0.471955E-001
-0.500356E-001
-0.531207E-001
-0.564768E-001
-0.601324E-001
-0.641178E-001
-0.684668E-001
-0.732119E-001
-0.783881E-001
-0.840248E-001
-0.901405E-001
-0.967501E-001
-0.103798E+000
-0.111253E+000
-0.118822E+000
-0.126308E+000
-0.132760E+000
-0.137260E+000
-0.137115E+000
-0.128283E+000
-0.102684E+000
-0.433098E-001
 0.831408E-001
 0.350471E+000
-0.310817E-001
-0.326498E-001
-0.343356E-001
-0.361503E-001
-0.381064E-001
-0.402180E-001
-0.425008E-001
-0.449728E-001
-0.476540E-001
-0.505669E-001
-0.537367E-001
-0.571919E-001
-0.609633E-001
-0.650860E-001
-0.695962E-001
-0.745355E-001
-0.799414E-001
-0.858581E-001
-0.923113E-001
-0.993297E-001
-0.106894E+000
-0.114949E+000
-0.123350E+000
-0.131713E+000
-0.139551E+000
-0.145355E+000
-0.147476E+000
-0.140693E+000
-0.118229E+000
-0.620287E-001
 0.630923E-001
 0.335487E+000
-0.310028E-001
-0.325827E-001
-0.342829E-001
-0.361147E-001
-0.380910E-001
-0.402267E-001
-0.425382E-001
-0.450442E-001
-0.477658E-001
-0.507268E-001
-0.539541E-001
-0.574778E-001
-0.613318E-001
-0.655534E-001
-0.701845E-001
-0.752686E-001
-0.808553E-001
-0.869878E-001
-0.937181E-001
-0.101065E+000
-0.109064E+000
-0.117638E+000
-0.126724E+000
-0.135954E+000
-0.144863E+000
-0.152215E+000
-0.155927E+000
-0.152040E+000
-0.131659E+000
-0.803173E-001
 0.430256E-001
 0.318037E+000
-0.307372E-001
-0.323210E-001
-0.340244E-001
-0.358607E-001
-0.378436E-001
-0.399882E-001
-0.423117E-001
-0.448333E-001
-0.475752E-001
-0.505620E-001
-0.538218E-001
-0.573866E-001
-0.612921E-001
-0.655786E-001
-0.702907E-001
-0.754781E-001
-0.811927E-001
-0.874918E-001
-0.944252E-001
-0.102048E+000
-0.110372E+000
-0.119413E+000
-0.129030E+000
-0.139074E+000
-0.148877E+000
-0.157663E+000
-0.162972E+000
-0.161512E+000
-0.144251E+000
-0.961313E-001
 0.207423E-001
 0.300402E+000
-0.312401E-001
-0.328581E-001
-0.345949E-001
-0.364670E-001
-0.384887E-001
-0.406756E-001
-0.430453E-001
-0.456179E-001
-0.484157E-001
-0.514645E-001
-0.547932E-001
-0.584347E-001
-0.624263E-001
-0.668096E-001
-0.716321E-001
-0.769439E-001
-0.828044E-001
-0.892658E-001
-0.964004E-001
-0.104237E+000
-0.112854E+000
-0.122180E+000
-0.132253E+000
-0.142676E+000
-0.153238E+000
-0.162532E+000
-0.169203E+000
-0.168439E+000
-0.153848E+000
-0.106706E+000
 0.415211E-002
 0.282877E+000
-0.325902E-001
-0.342668E-001
-0.360708E-001
-0.380148E-001
-0.401133E-001
-0.423824E-001
-0.448403E-001
-0.475072E-001
-0.504063E-001
-0.535640E-001
-0.570098E-001
-0.607776E-001
-0.649050E-001
-0.694356E-001
-0.744150E-001
-0.798998E-001
-0.859390E-001
-0.926065E-001
-0.999378E-001
-0.108024E+000
-0.116844E+000
-0.126477E+000
-0.136736E+000
-0.147534E+000
-0.158236E+000
-0.167978E+000
-0.174731E+000
-0.174579E+000
-0.160120E+000
-0.114695E+000
-0.526052E-002
 0.261930E+000
-0.338596E-001
-0.355921E-001
-0.374566E-001
-0.394656E-001
-0.416334E-001
-0.439765E-001
-0.465132E-001
-0.492643E-001
-0.522534E-001
-0.555072E-001
-0.590560E-001
-0.629337E-001
-0.671798E-001
-0.718353E-001
-0.769522E-001
-0.825768E-001
-0.887770E-001
-0.955956E-001
-0.103116E+000
-0.111360E+000
-0.120397E+000
-0.130190E+000
-0.140678E+000
-0.151653E+000
-0.162549E+000
-0.172535E+000
-0.179423E+000
-0.179743E+000
-0.165662E+000
-0.122024E+000
-0.153492E-001
 0.237007E+000
-0.350248E-001
-0.368074E-001
-0.387254E-001
-0.407912E-001
-0.430195E-001
-0.454266E-001
-0.480313E-001
-0.508545E-001
-0.539202E-001
-0.572555E-001
-0.608905E-001
-0.648605E-001
-0.692028E-001
-0.739633E-001
-0.791859E-001
-0.849301E-001
-0.912433E-001
-0.981966E-001
-0.105836E+000
-0.114222E+000
-0.123387E+000
-0.133309E+000
-0.143944E+000
-0.155007E+000
-0.166080E+000
-0.176138E+000
-0.183249E+000
-0.183887E+000
-0.170480E+000
-0.128769E+000
-0.264629E-001
 0.209341E+000
-0.360593E-001
-0.378847E-001
-0.398476E-001
-0.419609E-001
-0.442391E-001
-0.466989E-001
-0.493589E-001
-0.522403E-001
-0.553673E-001
-0.587667E-001
-0.624698E-001
-0.665099E-001
-0.709275E-001
-0.757632E-001
-0.810685E-001
-0.868913E-001
-0.932922E-001
-0.100327E+000
-0.108051E+000
-0.116521E+000
-0.125754E+000
-0.135761E+000
-0.146439E+000
-0.157570E+000
-0.168695E+000
-0.178802E+000
-0.186103E+000
-0.187044E+000
-0.174553E+000
-0.135121E+000
-0.384985E-001
 0.178923E+000
-0.369348E-001
-0.387938E-001
-0.407918E-001
-0.429415E-001
-0.452576E-001
-0.477568E-001
-0.504576E-001
-0.533815E-001
-0.565522E-001
-0.599971E-001
-0.637462E-001
-0.678346E-001
-0.722994E-001
-0.771850E-001
-0.825369E-001
-0.884079E-001
-0.948531E-001
-0.101927E+000
-0.109690E+000
-0.118182E+000
-0.127440E+000
-0.137449E+000
-0.148121E+000
-0.159248E+000
-0.170349E+000
-0.180485E+000
-0.187932E+000
-0.189243E+000
-0.177905E+000
-0.141176E+000
-0.515161E-001
 0.145869E+000
-0.376203E-001
-0.395026E-001
-0.415241E-001
-0.436977E-001
-0.460381E-001
-0.485617E-001
-0.512872E-001
-0.542356E-001
-0.574309E-001
-0.608995E-001
-0.646721E-001
-0.687819E-001
-0.732674E-001
-0.781699E-001
-0.835360E-001
-0.894166E-001
-0.958635E-001
-0.102935E+000
-0.110680E+000
-0.119148E+000
-0.128365E+000
-0.138316E+000
-0.148922E+000
-0.159972E+000
-0.171001E+000
-0.181138E+000
-0.188717E+000
-0.190516E+000
-0.180564E+000
-0.147055E+000
-0.655633E-001
 0.110292E+000
-0.380836E-001
-0.399771E-001
-0.420092E-001
-0.441928E-001
-0.465421E-001
-0.490736E-001
-0.518056E-001
-0.547590E-001
-0.579572E-001
-0.614267E-001
-0.651968E-001
-0.693010E-001
-0.737760E-001
-0.786628E-001
-0.840069E-001
-0.898562E-001
-0.962635E-001
-0.103282E+000
-0.110962E+000
-0.119348E+000
-0.128465E+000
-0.138301E+000
-0.148779E+000
-0.159693E+000
-0.170615E+000
-0.180728E+000
-0.188465E+000
-0.190890E+000
-0.182582E+000
-0.152872E+000
-0.806829E-001
 0.723391E-001
-0.382912E-001
-0.401827E-001
-0.422110E-001
-0.443888E-001
-0.467302E-001
-0.492513E-001
-0.519702E-001
-0.549072E-001
-0.580854E-001
-0.615303E-001
-0.652710E-001
-0.693397E-001
-0.737722E-001
-0.786084E-001
-0.838916E-001
-0.896693E-001
-0.959914E-001
-0.102909E+000
-0.110472E+000
-0.118721E+000
-0.127682E+000
-0.137346E+000
-0.147639E+000
-0.158373E+000
-0.169158E+000
-0.179241E+000
-0.187194E+000
-0.190403E+000
-0.184032E+000
-0.158740E+000
-0.969003E-001
 0.321824E-001
-0.382094E-001
-0.400841E-001
-0.420929E-001
-0.442480E-001
-0.465632E-001
-0.490543E-001
-0.517388E-001
-0.546365E-001
-0.577698E-001
-0.611636E-001
-0.648460E-001
-0.688480E-001
-0.732043E-001
-0.779533E-001
-0.831368E-001
-0.888004E-001
-0.949920E-001
-0.101761E+000
-0.109155E+000
-0.117216E+000
-0.125967E+000
-0.135406E+000
-0.145467E+000
-0.155985E+000
-0.166614E+000
-0.176682E+000
-0.184936E+000
-0.189104E+000
-0.185001E+000
-0.164758E+000
-0.114221E+000
-0.997498E-002
-0.378051E-001
-0.396473E-001
-0.416195E-001
-0.437337E-001
-0.460032E-001
-0.484432E-001
-0.510707E-001
-0.539050E-001
-0.569674E-001
-0.602822E-001
-0.638761E-001
-0.677792E-001
-0.720247E-001
-0.766493E-001
-0.816933E-001
-0.872003E-001
-0.932164E-001
-0.997895E-001
-0.106966E+000
-0.114787E+000
-0.123280E+000
-0.132447E+000
-0.142237E+000
-0.152514E+000
-0.162983E+000
-0.173075E+000
-0.181733E+000
-0.187059E+000
-0.185585E+000
-0.171015E+000
-0.132629E+000
-0.539017E-001
-0.370471E-001
-0.388400E-001
-0.407576E-001
-0.428116E-001
-0.450147E-001
-0.473816E-001
-0.499287E-001
-0.526743E-001
-0.556391E-001
-0.588460E-001
-0.623208E-001
-0.660921E-001
-0.701916E-001
-0.746546E-001
-0.795194E-001
-0.848279E-001
-0.906249E-001
-0.969566E-001
-0.103869E+000
-0.111405E+000
-0.119596E+000
-0.128451E+000
-0.137941E+000
-0.147963E+000
-0.158286E+000
-0.168458E+000
-0.177644E+000
-0.184348E+000
-0.185883E+000
-0.177585E+000
-0.152081E+000
-0.993390E-001
-0.359075E-001
-0.376333E-001
-0.394776E-001
-0.414513E-001
-0.435668E-001
-0.458379E-001
-0.482804E-001
-0.509117E-001
-0.537514E-001
-0.568214E-001
-0.601461E-001
-0.637528E-001
-0.676716E-001
-0.719361E-001
-0.765832E-001
-0.816530E-001
-0.871889E-001
-0.932367E-001
-0.998429E-001
-0.107052E+000
-0.114903E+000
-0.123417E+000
-0.132588E+000
-0.142354E+000
-0.152561E+000
-0.162888E+000
-0.172743E+000
-0.181063E+000
-0.185993E+000
-0.184523E+000
-0.172512E+000
-0.146002E+000
-0.343631E-001
-0.360037E-001
-0.377554E-001
-0.396284E-001
-0.416345E-001
-0.437870E-001
-0.461006E-001
-0.485918E-001
-0.512791E-001
-0.541834E-001
-0.573276E-001
-0.607375E-001
-0.644418E-001
-0.684725E-001
-0.728649E-001
-0.776580E-001
-0.828943E-001
-0.886195E-001
-0.948819E-001
-0.101730E+000
-0.109211E+000
-0.117362E+000
-0.126206E+000
-0.135730E+000
-0.145864E+000
-0.156438E+000
-0.167118E+000
-0.177304E+000
-0.186006E+000
-0.191866E+000
-0.193828E+000
-0.193582E+000
-0.323974E-001
-0.339346E-001
-0.355742E-001
-0.373261E-001
-0.392014E-001
-0.412124E-001
-0.433731E-001
-0.456989E-001
-0.482074E-001
-0.509179E-001
-0.538522E-001
-0.570347E-001
-0.604925E-001
-0.642562E-001
-0.683599E-001
-0.728416E-001
-0.777437E-001
-0.831126E-001
-0.889994E-001
-0.954588E-001
-0.102548E+000
-0.110326E+000
-0.118847E+000
-0.128154E+000
-0.138274E+000
-0.149199E+000
-0.160870E+000
-0.173175E+000
-0.186007E+000
-0.199630E+000
-0.215910E+000
-0.241749E+000
-0.300023E-001
-0.314179E-001
-0.329265E-001
-0.345374E-001
-0.362608E-001
-0.381084E-001
-0.400932E-001
-0.422296E-001
-0.445340E-001
-0.470244E-001
-0.497213E-001
-0.526478E-001
-0.558296E-001
-0.592962E-001
-0.630807E-001
-0.672207E-001
-0.717588E-001
-0.767435E-001
-0.822298E-001
-0.882804E-001
-0.949664E-001
-0.102369E+000
-0.110581E+000
-0.119711E+000
-0.129887E+000
-0.141275E+000
-0.154111E+000
-0.168783E+000
-0.186071E+000
-0.207809E+000
-0.238611E+000
-0.290152E+000
-0.271801E-001
-0.284567E-001
-0.298161E-001
-0.312670E-001
-0.328188E-001
-0.344824E-001
-0.362698E-001
-0.381945E-001
-0.402714E-001
-0.425177E-001
-0.449524E-001
-0.475973E-001
-0.504772E-001
-0.536205E-001
-0.570597E-001
-0.608325E-001
-0.649828E-001
-0.695618E-001
-0.746301E-001
-0.802601E-001
-0.865392E-001
-0.935754E-001
-0.101504E+000
-0.110504E+000
-0.120816E+000
-0.132789E+000
-0.146960E+000
-0.164230E+000
-0.186256E+000
-0.216376E+000
-0.261762E+000
-0.338427E+000
-0.239451E-001
-0.250666E-001
-0.262600E-001
-0.275335E-001
-0.288957E-001
-0.303567E-001
-0.319274E-001
-0.336203E-001
-0.354494E-001
-0.374304E-001
-0.395814E-001
-0.419231E-001
-0.444792E-001
-0.472776E-001
-0.503506E-001
-0.537367E-001
-0.574816E-001
-0.616405E-001
-0.662810E-001
-0.714871E-001
-0.773651E-001
-0.840528E-001
-0.917336E-001
-0.100660E+000
-0.111193E+000
-0.123871E+000
-0.139542E+000
-0.159618E+000
-0.186610E+000
-0.225282E+000
-0.285170E+000
-0.386197E+000
-0.203254E-001
-0.212772E-001
-0.222899E-001
-0.233707E-001
-0.245277E-001
-0.257700E-001
-0.271076E-001
-0.285521E-001
-0.301161E-001
-0.318146E-001
-0.336645E-001
-0.356856E-001
-0.379010E-001
-0.403382E-001
-0.430301E-001
-0.460161E-001
-0.493450E-001
-0.530769E-001
-0.572878E-001
-0.620750E-001
-0.675660E-001
-0.739315E-001
-0.814060E-001
-0.903213E-001
-0.101162E+000
-0.114662E+000
-0.131982E+000
-0.155037E+000
-0.187161E+000
-0.234455E+000
-0.308620E+000
-0.433076E+000
-0.163639E-001
-0.171339E-001
-0.179534E-001
-0.188290E-001
-0.197682E-001
-0.207790E-001
-0.218706E-001
-0.230535E-001
-0.243395E-001
-0.257425E-001
-0.272786E-001
-0.289669E-001
-0.308302E-001
-0.328960E-001
-0.351979E-001
-0.377776E-001
-0.406870E-001
-0.439925E-001
-0.477796E-001
-0.521607E-001
-0.572865E-001
-0.633629E-001
-0.706785E-001
-0.796474E-001
-0.908812E-001
-0.105311E+000
-0.124406E+000
-0.150572E+000
-0.187924E+000
-0.243804E+000
-0.331881E+000
-0.478675E+000
-0.121190E-001
-0.126978E-001
-0.133149E-001
-0.139763E-001
-0.146884E-001
-0.154587E-001
-0.162955E-001
-0.172081E-001
-0.182077E-001
-0.193072E-001
-0.205221E-001
-0.218710E-001
-0.233767E-001
-0.250671E-001
-0.269771E-001
-0.291508E-001
-0.316446E-001
-0.345316E-001
-0.379082E-001
-0.419032E-001
-0.466918E-001
-0.525174E-001
-0.597242E-001
-0.688107E-001
-0.805160E-001
-0.959673E-001
-0.116935E+000
-0.146295E+000
-0.188895E+000
-0.253220E+000
-0.354708E+000
-0.522603E+000
-0.766471E-002
-0.804631E-002
-0.845531E-002
-0.889699E-002
-0.937713E-002
-0.990223E-002
-0.104797E-001
-0.111182E-001
-0.118281E-001
-0.126215E-001
-0.135135E-001
-0.145225E-001
-0.156713E-001
-0.169889E-001
-0.185118E-001
-0.202871E-001
-0.223762E-001
-0.248597E-001
-0.278458E-001
-0.314804E-001
-0.359650E-001
-0.415809E-001
-0.487291E-001
-0.579927E-001
-0.702373E-001
-0.867809E-001
-0.109684E+000
-0.142267E+000
-0.190058E+000
-0.262578E+000
-0.376845E+000
-0.564478E+000
-0.308955E-002
-0.327174E-002
-0.347101E-002
-0.369191E-002
-0.393944E-002
-0.421931E-002
-0.453816E-002
-0.490388E-002
-0.532609E-002
-0.581654E-002
-0.638991E-002
-0.706459E-002
-0.786396E-002
-0.881795E-002
-0.996528E-002
-0.113565E-001
-0.130583E-001
-0.151598E-001
-0.177810E-001
-0.210861E-001
-0.253028E-001
-0.307510E-001
-0.378884E-001
-0.473809E-001
-0.602175E-001
-0.778992E-001
-0.102761E+000
-0.138538E+000
-0.191378E+000
-0.271740E+000
-0.398034E+000
-0.603926E+000
 0.150500E-002
 0.152027E-002
 0.152800E-002
 0.152443E-002
 0.150529E-002
 0.146568E-002
 0.139967E-002
 0.129999E-002
 0.115762E-002
 0.961158E-003
 0.696089E-003
 0.343803E-003
-0.119754E-003
-0.725902E-003
-0.151573E-002
-0.254355E-002
-0.388183E-002
-0.562807E-002
-0.791491E-002
-0.109247E-001
-0.149112E-001
-0.202325E-001
-0.274014E-001
-0.371640E-001
-0.506267E-001
-0.694633E-001
-0.962650E-001
-0.135144E+000
-0.192813E+000
-0.280561E+000
-0.418014E+000
-0.640586E+000
 0.600736E-002
 0.621370E-002
 0.642113E-002
 0.662665E-002
 0.682679E-002
 0.701734E-002
 0.719304E-002
 0.734718E-002
 0.747116E-002
 0.755384E-002
 0.758070E-002
 0.753277E-002
 0.738512E-002
 0.710488E-002
 0.664840E-002
 0.595743E-002
 0.495367E-002
 0.353101E-002
 0.154445E-002
-0.120614E-002
-0.500011E-002
-0.102321E-001
-0.174672E-001
-0.275277E-001
-0.416294E-001
-0.616061E-001
-0.902823E-001
-0.132113E+000
-0.194310E+000
-0.288890E+000
-0.436531E+000
-0.674118E+000
 0.102995E-001
 0.106860E-001
 0.110811E-001
 0.114827E-001
 0.118881E-001
 0.122936E-001
 0.126946E-001
 0.130849E-001
 0.134562E-001
 0.137975E-001
 0.140941E-001
 0.143267E-001
 0.144692E-001
 0.144872E-001
 0.143343E-001
 0.139485E-001
 0.132456E-001
 0.121112E-001
 0.103884E-001
 0.786005E-002
 0.422273E-002
-0.952439E-003
-0.827949E-002
-0.186502E-001
-0.333809E-001
-0.544498E-001
-0.848902E-001
-0.129459E+000
-0.195807E+000
-0.296578E+000
-0.453341E+000
-0.704208E+000
 0.142616E-001
 0.148127E-001
 0.153789E-001
 0.159589E-001
 0.165506E-001
 0.171510E-001
 0.177559E-001
 0.183595E-001
 0.189538E-001
 0.195278E-001
 0.200667E-001
 0.205504E-001
 0.209520E-001
 0.212354E-001
 0.213516E-001
 0.212348E-001
 0.207954E-001
 0.199112E-001
 0.184141E-001
 0.160714E-001
 0.125577E-001
 0.741289E-002
-0.210199E-004
-0.106983E-001
-0.260243E-001
-0.481043E-001
-0.801541E-001
-0.127192E+000
-0.197242E+000
-0.303481E+000
-0.468217E+000
-0.730567E+000
 0.177766E-001
 0.184726E-001
 0.191891E-001
 0.199253E-001
 0.206799E-001
 0.214505E-001
 0.222333E-001
 0.230226E-001
 0.238108E-001
 0.245867E-001
 0.253354E-001
 0.260361E-001
 0.266611E-001
 0.271725E-001
 0.275191E-001
 0.276316E-001
 0.274154E-001
 0.267412E-001
 0.254313E-001
 0.232390E-001
 0.198195E-001
 0.146855E-001
 0.714078E-002
-0.382293E-002
-0.196873E-001
-0.426660E-001
-0.761288E-001
-0.125314E+000
-0.198554E+000
-0.309463E+000
-0.480954E+000
-0.752941E+000
 0.207364E-001
 0.215535E-001
 0.223953E-001
 0.232618E-001
 0.241520E-001
 0.250640E-001
 0.259943E-001
 0.269377E-001
 0.278864E-001
 0.288292E-001
 0.297510E-001
 0.306306E-001
 0.314391E-001
 0.321374E-001
 0.326723E-001
 0.329713E-001
 0.329358E-001
 0.324305E-001
 0.312692E-001
 0.291938E-001
 0.258432E-001
 0.207074E-001
 0.130587E-001
 0.184421E-002
-0.144801E-001
-0.382161E-001
-0.728583E-001
-0.123820E+000
-0.199683E+000
-0.314406E+000
-0.491371E+000
-0.771111E+000
 0.230463E-001
 0.239575E-001
 0.248964E-001
 0.258637E-001
 0.268588E-001
 0.278800E-001
 0.289242E-001
 0.299863E-001
 0.310586E-001
 0.321298E-001
 0.331846E-001
 0.342012E-001
 0.351503E-001
 0.359914E-001
 0.366697E-001
 0.371104E-001
 0.372116E-001
 0.368332E-001
 0.357826E-001
 0.337926E-001
 0.304894E-001
 0.253458E-001
 0.176095E-001
 0.619374E-002
-0.104933E-001
-0.348206E-001
-0.703767E-001
-0.122708E+000
-0.200579E+000
-0.318206E+000
-0.499320E+000
-0.784899E+000
 0.246307E-001
 0.256061E-001
 0.266113E-001
 0.276473E-001
 0.287138E-001
 0.298094E-001
 0.309311E-001
 0.320739E-001
 0.332301E-001
 0.343885E-001
 0.355334E-001
 0.366429E-001
 0.376870E-001
 0.386246E-001
 0.393996E-001
 0.399356E-001
 0.401283E-001
 0.398346E-001
 0.388574E-001
 0.369230E-001
 0.336494E-001
 0.284973E-001
 0.206979E-001
 0.914135E-002
-0.779634E-002
-0.325291E-001
-0.687088E-001
-0.121970E+000
-0.201201E+000
-0.320786E+000
-0.504685E+000
-0.794168E+000
 0.254365E-001
 0.264445E-001
 0.274834E-001
 0.285542E-001
 0.296568E-001
 0.307901E-001
 0.319510E-001
 0.331346E-001
 0.343332E-001
 0.355357E-001
 0.367261E-001
 0.378825E-001
 0.389745E-001
 0.399607E-001
 0.407843E-001
 0.413683E-001
 0.416069E-001
 0.413556E-001
 0.404148E-001
 0.385079E-001
 0.352485E-001
 0.300911E-001
 0.222586E-001
 0.106297E-001
-0.643603E-002
-0.313751E-001
-0.678709E-001
-0.121602E+000
-0.201519E+000
-0.322090E+000
-0.507387E+000
-0.798825E+000
 0.254365E-001
 0.264445E-001
 0.274834E-001
 0.285542E-001
 0.296568E-001
 0.307901E-001
 0.319510E-001
 0.331346E-001
 0.343332E-001
 0.355357E-001
 0.367261E-001
 0.378825E-001
 0.389745E-001
 0.399607E-001
 0.407843E-001
 0.413683E-001
 0.416069E-001
 0.413556E-001
 0.404148E-001
 0.385079E-001
 0.352485E-001
 0.300911E-001
 0.222586E-001
 0.106297E-001
-0.643603E-002
-0.313751E-001
-0.678709E-001
-0.121602E+000
-0.201519E+000
-0.322090E+000
-0.507387E+000
-0.798825E+000
 0.246307E-001
 0.256061E-001
 0.266113E-001
 0.276473E-001
 0.287138E-001
 0.298094E-001
 0.309311E-001
 0.320739E-001
 0.332301E-001
 0.343885E-001
 0.355334E-001
 0.366429E-001
 0.376870E-001
 0.386246E-001
 0.393996E-001
 0.399356E-001
 0.401283E-001
 0.398346E-001
 0.388574E-001
 0.369230E-001
 0.336494E-001
 0.284973E-001
 0.206979E-001
 0.914135E-002
-0.779634E-002
-0.325291E-001
-0.687088E-001
-0.121970E+000
-0.201201E+000
-0.320786E+000
-0.504685E+000
-0.794168E+000
 0.230463E-001
 0.239575E-001
 0.248964E-001
 0.258637E-001
 0.268588E-001
 0.278800E-001
 0.289242E-001
 0.299863E-001
 0.310586E-001
 0.321298E-001
 0.331846E-001
 0.342012E-001
 0.351503E-001
 0.359914E-001
 0.366697E-001
 0.371104E-001
 0.372116E-001
 0.368332E-001
 0.357826E-001
 0.337926E-001
 0.304894E-001
 0.253458E-001
 0.176095E-001
 0.619374E-002
-0.104933E-001
-0.348206E-001
-0.703767E-001
-0.122708E+000
-0.200579E+000
-0.318206E+000
-0.499320E+000
-0.784899E+000
 0.207364E-001
 0.215535E-001
 0.223953E-001
 0.232618E-001
 0.241520E-001
 0.250640E-001
 0.259943E-001
 0.269377E-001
 0.278864E-001
 0.288292E-001
 0.297510E-001
 0.306306E-001
 0.314391E-001
 0.321374E-001
 0.326723E-001
 0.329713E-001
 0.329358E-001
 0.324305E-001
 0.312692E-001
 0.291938E-001
 0.258432E-001
 0.207074E-001
 0.130587E-001
 0.184421E-002
-0.144801E-001
-0.382161E-001
-0.728583E-001
-0.123820E+000
-0.199683E+000
-0.314406E+000
-0.491371E+000
-0.771111E+000
 0.177766E-001
 0.184726E-001
 0.191891E-001
 0.199253E-001
 0.206799E-001
 0.214505E-001
 0.222333E-001
 0.230226E-001
 0.238108E-001
 0.245867E-001
 0.253354E-001
 0.260361E-001
 0.266611E-001
 0.271725E-001
 0.275191E-001
 0.276316E-001
 0.274154E-001
 0.267412E-001
 0.254313E-001
 0.232390E-001
 0.198195E-001
 0.146855E-001
 0.714078E-002
-0.382293E-002
-0.196873E-001
-0.426660E-001
-0.761288E-001
-0.125314E+000
-0.198554E+000
-0.309463E+000
-0.480954E+000
-0.752941E+000
 0.142616E-001
 0.148127E-001
 0.153789E-001
 0.159589E-001
 0.165506E-001
 0.171510E-001
 0.177559E-001
 0.183595E-001
 0.189538E-001
 0.195278E-001
 0.200667E-001
 0.205504E-001
 0.209520E-001
 0.212354E-001
 0.213516E-001
 0.212348E-001
 0.207954E-001
 0.199112E-001
 0.184141E-001
 0.160714E-001
 0.125577E-001
 0.741289E-002
-0.210199E-004
-0.106983E-001
-0.260243E-001
-0.481043E-001
-0.801541E-001
-0.127192E+000
-0.197242E+000
-0.303481E+000
-0.468217E+000
-0.730567E+000
 0.102995E-001
 0.106860E-001
 0.110811E-001
 0.114827E-001
 0.118881E-001
 0.122936E-001
 0.126946E-001
 0.130849E-001
 0.134562E-001
 0.137975E-001
 0.140941E-001
 0.143267E-001
 0.144692E-001
 0.144872E-001
 0.143343E-001
 0.139485E-001
 0.132456E-001
 0.121112E-001
 0.103884E-001
 0.786005E-002
 0.422273E-002
-0.952439E-003
-0.827949E-002
-0.186502E-001
-0.333809E-001
-0.544498E-001
-0.848902E-001
-0.129459E+000
-0.195807E+000
-0.296578E+000
-0.453341E+000
-0.704208E+000
 0.600736E-002
 0.621370E-002
 0.642113E-002
 0.662665E-002
 0.682679E-002
 0.701734E-002
 0.719304E-002
 0.734718E-002
 0.747116E-002
 0.755384E-002
 0.758070E-002
 0.753277E-002
 0.738512E-002
 0.710488E-002
 0.664840E-002
 0.595743E-002
 0.495367E-002
 0.353101E-002
 0.154445E-002
-0.120614E-002
-0.500011E-002
-0.102321E-001
-0.174672E-001
-0.275277E-001
-0.416294E-001
-0.616061E-001
-0.902823E-001
-0.132113E+000
-0.194310E+000
-0.288890E+000
-0.436531E+000
-0.674118E+000
 0.150500E-002
 0.152027E-002
 0.152800E-002
 0.152443E-002
 0.150529E-002
 0.146568E-002
 0.139967E-002
 0.129999E-002
 0.115762E-002
 0.961158E-003
 0.696089E-003
 0.343803E-003
-0.119754E-003
-0.725902E-003
-0.151573E-002
-0.254355E-002
-0.388183E-002
-0.562807E-002
-0.791491E-002
-0.109247E-001
-0.149112E-001
-0.202325E-001
-0.274014E-001
-0.371640E-001
-0.506267E-001
-0.694633E-001
-0.962650E-001
-0.135144E+000
-0.192813E+000
-0.280561E+000
-0.418014E+000
-0.640586E+000
-0.308955E-002
-0.327174E-002
-0.347101E-002
-0.369191E-002
-0.393944E-002
-0.421931E-002
-0.453816E-002
-0.490388E-002
-0.532609E-002
-0.581654E-002
-0.638991E-002
-0.706459E-002
-0.786396E-002
-0.881795E-002
-0.996528E-002
-0.113565E-001
-0.130583E-001
-0.151598E-001
-0.177810E-001
-0.210861E-001
-0.253028E-001
-0.307510E-001
-0.378884E-001
-0.473809E-001
-0.602175E-001
-0.778992E-001
-0.102761E+000
-0.138538E+000
-0.191378E+000
-0.271740E+000
-0.398034E+000
-0.603926E+000
-0.766471E-002
-0.804631E-002
-0.845531E-002
-0.889699E-002
-0.937713E-002
-0.990223E-002
-0.104797E-001
-0.111182E-001
-0.118281E-001
-0.126215E-001
-0.135135E-001
-0.145225E-001
-0.156713E-001
-0.169889E-001
-0.185118E-001
-0.202871E-001
-0.223762E-001
-0.248597E-001
-0.278458E-001
-0.314804E-001
-0.359650E-001
-0.415809E-001
-0.487291E-001
-0.579927E-001
-0.702373E-001
-0.867809E-001
-0.109684E+000
-0.142267E+000
-0.190058E+000
-0.262578E+000
-0.376845E+000
-0.564478E+000
-0.121190E-001
-0.126978E-001
-0.133149E-001
-0.139763E-001
-0.146884E-001
-0.154587E-001
-0.162955E-001
-0.172081E-001
-0.182077E-001
-0.193072E-001
-0.205221E-001
-0.218710E-001
-0.233767E-001
-0.250671E-001
-0.269771E-001
-0.291508E-001
-0.316446E-001
-0.345316E-001
-0.379082E-001
-0.419032E-001
-0.466918E-001
-0.525174E-001
-0.597242E-001
-0.688107E-001
-0.805160E-001
-0.959673E-001
-0.116935E+000
-0.146295E+000
-0.188895E+000
-0.253220E+000
-0.354708E+000
-0.522603E+000
-0.163639E-001
-0.171339E-001
-0.179534E-001
-0.188290E-001
-0.197682E-001
-0.207790E-001
-0.218706E-001
-0.230535E-001
-0.243395E-001
-0.257425E-001
-0.272786E-001
-0.289669E-001
-0.308302E-001
-0.328960E-001
-0.351979E-001
-0.377776E-001
-0.406870E-001
-0.439925E-001
-0.477796E-001
-0.521607E-001
-0.572865E-001
-0.633629E-001
-0.706785E-001
-0.796474E-001
-0.908812E-001
-0.105311E+000
-0.124406E+000
-0.150572E+000
-0.187924E+000
-0.243804E+000
-0.331881E+000
-0.478675E+000
-0.203254E-001
-0.212772E-001
-0.222899E-001
-0.233707E-001
-0.245277E-001
-0.257700E-001
-0.271076E-001
-0.285521E-001
-0.301161E-001
-0.318146E-001
-0.336645E-001
-0.356856E-001
-0.379010E-001
-0.403382E-001
-0.430301E-001
-0.460161E-001
-0.493450E-001
-0.530769E-001
-0.572878E-001
-0.620750E-001
-0.675660E-001
-0.739315E-001
-0.814060E-001
-0.903213E-001
-0.101162E+000
-0.114662E+000
-0.131982E+000
-0.155037E+000
-0.187161E+000
-0.234455E+000
-0.308620E+000
-0.433076E+000
-0.239451E-001
-0.250666E-001
-0.262600E-001
-0.275335E-001
-0.288957E-001
-0.303567E-001
-0.319274E-001
-0.336203E-001
-0.354494E-001
-0.374304E-001
-0.395814E-001
-0.419231E-001
-0.444792E-001
-0.472776E-001
-0.503506E-001
-0.537367E-001
-0.574816E-001
-0.616405E-001
-0.662810E-001
-0.714871E-001
-0.773651E-001
-0.840528E-001
-0.917336E-001
-0.100660E+000
-0.111193E+000
-0.123871E+000
-0.139542E+000
-0.159618E+000
-0.186610E+000
-0.225282E+000
-0.285170E+000
-0.386197E+000
-0.271801E-001
-0.284567E-001
-0.298161E-001
-0.312670E-001
-0.328188E-001
-0.344824E-001
-0.362698E-001
-0.381945E-001
-0.402714E-001
-0.425177E-001
-0.449524E-001
-0.475973E-001
-0.504772E-001
-0.536205E-001
-0.570597E-001
-0.608325E-001
-0.649828E-001
-0.695618E-001
-0.746301E-001
-0.802601E-001
-0.865392E-001
-0.935754E-001
-0.101504E+000
-0.110504E+000
-0.120816E+000
-0.132789E+000
-0.146960E+000
-0.164230E+000
-0.186256E+000
-0.216376E+000
-0.261762E+000
-0.338427E+000
-0.300023E-001
-0.314179E-001
-0.329265E-001
-0.345374E-001
-0.362608E-001
-0.381084E-001
-0.400932E-001
-0.422296E-001
-0.445340E-001
-0.470244E-001
-0.497213E-001
-0.526478E-001
-0.558296E-001
-0.592962E-001
-0.630807E-001
-0.672207E-001
-0.717588E-001
-0.767435E-001
-0.822298E-001
-0.882804E-001
-0.949664E-001
-0.102369E+000
-0.110581E+000
-0.119711E+000
-0.129887E+000
-0.141275E+000
-0.154111E+000
-0.168783E+000
-0.186071E+000
-0.207809E+000
-0.238611E+000
-0.290152E+000
-0.323974E-001
-0.339346E-001
-0.355742E-001
-0.373261E-001
-0.392014E-001
-0.412124E-001
-0.433731E-001
-0.456989E-001
-0.482074E-001
-0.509179E-001
-0.538522E-001
-0.570347E-001
-0.604925E-001
-0.642562E-001
-0.683599E-001
-0.728416E-001
-0.777437E-001
-0.831126E-001
-0.889994E-001
-0.954588E-001
-0.102548E+000
-0.110326E+000
-0.118847E+000
-0.128154E+000
-0.138274E+000
-0.149199E+000
-0.160870E+000
-0.173175E+000
-0.186007E+000
-0.199630E+000
-0.215910E+000
-0.241749E+000
-0.343631E-001
-0.360037E-001
-0.377554E-001
-0.396284E-001
-0.416345E-001
-0.437870E-001
-0.461006E-001
-0.485918E-001
-0.512791E-001
-0.541834E-001
-0.573276E-001
-0.607375E-001
-0.644418E-001
-0.684725E-001
-0.728649E-001
-0.776580E-001
-0.828943E-001
-0.886195E-001
-0.948819E-001
-0.101730E+000
-0.109211E+000
-0.117362E+000
-0.126206E+000
-0.135730E+000
-0.145864E+000
-0.156438E+000
-0.167118E+000
-0.177304E+000
-0.186006E+000
-0.191866E+000
-0.193828E+000
-0.193582E+000
-0.359075E-001
-0.376333E-001
-0.394776E-001
-0.414513E-001
-0.435668E-001
-0.458379E-001
-0.482804E-001
-0.509117E-001
-0.537514E-001
-0.568214E-001
-0.601461E-001
-0.637528E-001
-0.676716E-001
-0.719361E-001
-0.765832E-001
-0.816530E-001
-0.871889E-001
-0.932367E-001
-0.998429E-001
-0.107052E+000
-0.114903E+000
-0.123417E+000
-0.132588E+000
-0.142354E+000
-0.152561E+000
-0.162888E+000
-0.172743E+000
-0.181063E+000
-0.185993E+000
-0.184523E+000
-0.172512E+000
-0.146002E+000
-0.370471E-001
-0.388400E-001
-0.407576E-001
-0.428116E-001
-0.450147E-001
-0.473816E-001
-0.499287E-001
-0.526743E-001
-0.556391E-001
-0.588460E-001
-0.623208E-001
-0.660921E-001
-0.701916E-001
-0.746546E-001
-0.795194E-001
-0.848279E-001
-0.906249E-001
-0.969566E-001
-0.103869E+000
-0.111405E+000
-0.119596E+000
-0.128451E+000
-0.137941E+000
-0.147963E+000
-0.158286E+000
-0.168458E+000
-0.177644E+000
-0.184348E+000
-0.185883E+000
-0.177585E+000
-0.152081E+000
-0.993390E-001
-0.378051E-001
-0.396473E-001
-0.416195E-001
-0.437337E-001
-0.460032E-001
-0.484432E-001
-0.510707E-001
-0.539050E-001
-0.569674E-001
-0.602822E-001
-0.638761E-001
-0.677792E-001
-0.720247E-001
-0.766493E-001
-0.816933E-001
-0.872003E-001
-0.932164E-001
-0.997895E-001
-0.106966E+000
-0.114787E+000
-0.123280E+000
-0.132447E+000
-0.142237E+000
-0.152514E+000
-0.162983E+000
-0.173075E+000
-0.181733E+000
-0.187059E+000
-0.185585E+000
-0.171015E+000
-0.132629E+000
-0.539017E-001
-0.382094E-001
-0.400841E-001
-0.420929E-001
-0.442480E-001
-0.465632E-001
-0.490543E-001
-0.517388E-001
-0.546365E-001
-0.577698E-001
-0.611636E-001
-0.648460E-001
-0.688480E-001
-0.732043E-001
-0.779533E-001
-0.831368E-001
-0.888004E-001
-0.949920E-001
-0.101761E+000
-0.109155E+000
-0.117216E+000
-0.125967E+000
-0.135406E+000
-0.145467E+000
-0.155985E+000
-0.166614E+000
-0.176682E+000
-0.184936E+000
-0.189104E+000
-0.185001E+000
-0.164758E+000
-0.114221E+000
-0.997498E-002
-0.382912E-001
-0.401827E-001
-0.422110E-001
-0.443888E-001
-0.467302E-001
-0.492513E-001
-0.519702E-001
-0.549072E-001
-0.580854E-001
-0.615303E-001
-0.652710E-001
-0.693397E-001
-0.737722E-001
-0.786084E-001
-0.838916E-001
-0.896693E-001
-0.959914E-001
-0.102909E+000
-0.110472E+000
-0.118721E+000
-0.127682E+000
-0.137346E+000
-0.147639E+000
-0.158373E+000
-0.169158E+000
-0.179241E+000
-0.187194E+000
-0.190403E+000
-0.184032E+000
-0.158740E+000
-0.969003E-001
 0.321824E-001
-0.380836E-001
-0.399771E-001
-0.420092E-001
-0.441928E-001
-0.465421E-001
-0.490736E-001
-0.518056E-001
-0.547590E-001
-0.579572E-001
-0.614267E-001
-0.651968E-001
-0.693010E-001
-0.737760E-001
-0.786628E-001
-0.840069E-001
-0.898562E-001
-0.962635E-001
-0.103282E+000
-0.110962E+000
-0.119348E+000
-0.128465E+000
-0.138301E+000
-0.148779E+000
-0.159693E+000
-0.170615E+000
-0.180728E+000
-0.188465E+000
-0.190890E+000
-0.182582E+000
-0.152872E+000
-0.806829E-001
 0.723391E-001
-0.376203E-001
-0.395026E-001
-0.415241E-001
-0.436977E-001
-0.460381E-001
-0.485617E-001
-0.512872E-001
-0.542356E-001
-0.574309E-001
-0.608995E-001
-0.646721E-001
-0.687819E-001
-0.732674E-001
-0.781699E-001
-0.835360E-001
-0.894166E-001
-0.958635E-001
-0.102935E+000
-0.110680E+000
-0.119148E+000
-0.128365E+000
-0.138316E+000
-0.148922E+000
-0.159972E+000
-0.171001E+000
-0.181138E+000
-0.188717E+000
-0.190516E+000
-0.180564E+000
-0.147055E+000
-0.655633E-001
 0.110292E+000
-0.369348E-001
-0.387938E-001
-0.407918E-001
-0.429415E-001
-0.452576E-001
-0.477568E-001
-0.504576E-001
-0.533815E-001
-0.565522E-001
-0.599971E-001
-0.637462E-001
-0.678346E-001
-0.722994E-001
-0.771850E-001
-0.825369E-001
-0.884079E-001
-0.948531E-001
-0.101927E+000
-0.109690E+000
-0.118182E+000
-0.127440E+000
-0.137449E+000
-0.148121E+000
-0.159248E+000
-0.170349E+000
-0.180485E+000
-0.187932E+000
-0.189243E+000
-0.177905E+000
-0.141176E+000
-0.515161E-001
 0.145869E+000
-0.360593E-001
-0.378847E-001
-0.398476E-001
-0.419609E-001
-0.442391E-001
-0.466989E-001
-0.493589E-001
-0.522403E-001
-0.553673E-001
-0.587667E-001
-0.624698E-001
-0.665099E-001
-0.709275E-001
-0.757632E-001
-0.810685E-001
-0.868913E-001
-0.932922E-001
-0.100327E+000
-0.108051E+000
-0.116521E+000
-0.125754E+000
-0.135761E+000
-0.146439E+000
-0.157570E+000
-0.168695E+000
-0.178802E+000
-0.186103E+000
-0.187044E+000
-0.174553E+000
-0.135121E+000
-0.384985E-001
 0.178923E+000
-0.350248E-001
-0.368074E-001
-0.387254E-001
-0.407912E-001
-0.430195E-001
-0.454266E-001
-0.480313E-001
-0.508545E-001
-0.539202E-001
-0.572555E-001
-0.608905E-001
-0.648605E-001
-0.692028E-001
-0.739633E-001
-0.791859E-001
-0.849301E-001
-0.912433E-001
-0.981966E-001
-0.105836E+000
-0.114222E+000
-0.123387E+000
-0.133309E+000
-0.143944E+000
-0.155007E+000
-0.166080E+000
-0.176138E+000
-0.183249E+000
-0.183887E+000
-0.170480E+000
-0.128769E+000
-0.264629E-001
 0.209341E+000
-0.338596E-001
-0.355921E-001
-0.374566E-001
-0.394656E-001
-0.416334E-001
-0.439765E-001
-0.465132E-001
-0.492643E-001
-0.522534E-001
-0.555072E-001
-0.590560E-001
-0.629337E-001
-0.671798E-001
-0.718353E-001
-0.769522E-001
-0.825768E-001
-0.887770E-001
-0.955956E-001
-0.103116E+000
-0.111360E+000
-0.120397E+000
-0.130190E+000
-0.140678E+000
-0.151653E+000
-0.162549E+000
-0.172535E+000
-0.179423E+000
-0.179743E+000
-0.165662E+000
-0.122024E+000
-0.153492E-001
 0.237007E+000
-0.325902E-001
-0.342668E-001
-0.360708E-001
-0.380148E-001
-0.401133E-001
-0.423824E-001
-0.448403E-001
-0.475072E-001
-0.504063E-001
-0.535640E-001
-0.570098E-001
-0.607776E-001
-0.649050E-001
-0.694356E-001
-0.744150E-001
-0.798998E-001
-0.859390E-001
-0.926065E-001
-0.999378E-001
-0.108024E+000
-0.116844E+000
-0.126477E+000
-0.136736E+000
-0.147534E+000
-0.158236E+000
-0.167978E+000
-0.174731E+000
-0.174579E+000
-0.160120E+000
-0.114695E+000
-0.526052E-002
 0.261930E+000
-0.312401E-001
-0.328581E-001
-0.345949E-001
-0.364670E-001
-0.384887E-001
-0.406756E-001
-0.430453E-001
-0.456179E-001
-0.484157E-001
-0.514645E-001
-0.547932E-001
-0.584347E-001
-0.624263E-001
-0.668096E-001
-0.716321E-001
-0.769439E-001
-0.828044E-001
-0.892658E-001
-0.964004E-001
-0.104237E+000
-0.112854E+000
-0.122180E+000
-0.132253E+000
-0.142676E+000
-0.153238E+000
-0.162532E+000
-0.169203E+000
-0.168439E+000
-0.153848E+000
-0.106706E+000
 0.415211E-002
 0.282877E+000
SCALARS stress_33 FLOAT     1
LOOKUP_TABLE default
 0.300295E+000
 0.300303E+000
 0.300317E+000
 0.300333E+000
 0.300352E+000
 0.300374E+000
 0.300398E+000
 0.300426E+000
 0.300457E+000
 0.300492E+000
 0.300532E+000
 0.300577E+000
 0.300627E+000
 0.300685E+000
 0.300751E+000
 0.300826E+000
 0.300914E+000
 0.301014E+000
 0.301133E+000
 0.301269E+000
 0.301436E+000
 0.301625E+000
 0.301870E+000
 0.302145E+000
 0.302522E+000
 0.302942E+000
 0.303561E+000
 0.304257E+000
 0.305377E+000
 0.306673E+000
 0.309026E+000
 0.312361E+000
 0.300947E+000
 0.300997E+000
 0.301052E+000
 0.301114E+000
 0.301182E+000
 0.301258E+000
 0.301342E+000
 0.301435E+000
 0.301539E+000
 0.301654E+000
 0.301783E+000
 0.301928E+000
 0.302091E+000
 0.302275E+000
 0.302485E+000
 0.302724E+000
 0.302998E+000
 0.303316E+000
 0.303684E+000
 0.304119E+000
 0.304628E+000
 0.305241E+000
 0.305978E+000
 0.306873E+000
 0.307999E+000
 0.309374E+000
 0.311218E+000
 0.313475E+000
 0.316807E+000
 0.320868E+000
 0.327896E+000
 0.336419E+000
 0.301663E+000
 0.301754E+000
 0.301855E+000
 0.301966E+000
 0.302088E+000
 0.302222E+000
 0.302370E+000
 0.302534E+000
 0.302715E+000
 0.302917E+000
 0.303142E+000
 0.303394E+000
 0.303677E+000
 0.303996E+000
 0.304358E+000
 0.304771E+000
 0.305245E+000
 0.305792E+000
 0.306426E+000
 0.307171E+000
 0.308045E+000
 0.309099E+000
 0.310344E+000
 0.311903E+000
 0.313762E+000
 0.316196E+000
 0.319163E+000
 0.323220E+000
 0.328431E+000
 0.335821E+000
 0.346494E+000
 0.361658E+000
 0.302444E+000
 0.302581E+000
 0.302730E+000
 0.302894E+000
 0.303073E+000
 0.303270E+000
 0.303487E+000
 0.303726E+000
 0.303991E+000
 0.304285E+000
 0.304612E+000
 0.304978E+000
 0.305389E+000
 0.305852E+000
 0.306377E+000
 0.306974E+000
 0.307659E+000
 0.308446E+000
 0.309364E+000
 0.310429E+000
 0.311698E+000
 0.313186E+000
 0.315007E+000
 0.317179E+000
 0.319906E+000
 0.323269E+000
 0.327589E+000
 0.333200E+000
 0.340625E+000
 0.350952E+000
 0.365535E+000
 0.387005E+000
 0.303294E+000
 0.303479E+000
 0.303680E+000
 0.303901E+000
 0.304142E+000
 0.304406E+000
 0.304696E+000
 0.305016E+000
 0.305370E+000
 0.305762E+000
 0.306199E+000
 0.306686E+000
 0.307233E+000
 0.307849E+000
 0.308545E+000
 0.309338E+000
 0.310243E+000
 0.311289E+000
 0.312494E+000
 0.313911E+000
 0.315565E+000
 0.317547E+000
 0.319907E+000
 0.322786E+000
 0.326318E+000
 0.330724E+000
 0.336331E+000
 0.343579E+000
 0.353189E+000
 0.366384E+000
 0.384887E+000
 0.412335E+000
 0.304216E+000
 0.304452E+000
 0.304709E+000
 0.304990E+000
 0.305297E+000
 0.305633E+000
 0.306002E+000
 0.306408E+000
 0.306857E+000
 0.307353E+000
 0.307906E+000
 0.308522E+000
 0.309213E+000
 0.309989E+000
 0.310868E+000
 0.311865E+000
 0.313006E+000
 0.314315E+000
 0.315834E+000
 0.317599E+000
 0.319680E+000
 0.322142E+000
 0.325092E+000
 0.328667E+000
 0.333049E+000
 0.338505E+000
 0.345414E+000
 0.354317E+000
 0.366092E+000
 0.382100E+000
 0.404478E+000
 0.437537E+000
 0.305211E+000
 0.305502E+000
 0.305819E+000
 0.306165E+000
 0.306541E+000
 0.306954E+000
 0.307406E+000
 0.307904E+000
 0.308453E+000
 0.309061E+000
 0.309736E+000
 0.310488E+000
 0.311330E+000
 0.312277E+000
 0.313345E+000
 0.314560E+000
 0.315943E+000
 0.317535E+000
 0.319371E+000
 0.321511E+000
 0.324021E+000
 0.326991E+000
 0.330542E+000
 0.334834E+000
 0.340083E+000
 0.346602E+000
 0.354824E+000
 0.365391E+000
 0.379300E+000
 0.398077E+000
 0.424226E+000
 0.462535E+000
 0.306283E+000
 0.306633E+000
 0.307013E+000
 0.307426E+000
 0.307878E+000
 0.308371E+000
 0.308912E+000
 0.309506E+000
 0.310162E+000
 0.310886E+000
 0.311690E+000
 0.312586E+000
 0.313588E+000
 0.314712E+000
 0.315982E+000
 0.317420E+000
 0.319061E+000
 0.320942E+000
 0.323113E+000
 0.325636E+000
 0.328592E+000
 0.332085E+000
 0.336252E+000
 0.341276E+000
 0.347409E+000
 0.355000E+000
 0.364544E+000
 0.376768E+000
 0.392779E+000
 0.414271E+000
 0.444054E+000
 0.487261E+000
 0.307432E+000
 0.307844E+000
 0.308291E+000
 0.308777E+000
 0.309307E+000
 0.309886E+000
 0.310520E+000
 0.311216E+000
 0.311983E+000
 0.312831E+000
 0.313771E+000
 0.314817E+000
 0.315985E+000
 0.317297E+000
 0.318774E+000
 0.320448E+000
 0.322354E+000
 0.324537E+000
 0.327054E+000
 0.329974E+000
 0.333389E+000
 0.337417E+000
 0.342213E+000
 0.347983E+000
 0.355009E+000
 0.363680E+000
 0.374547E+000
 0.388416E+000
 0.406492E+000
 0.430630E+000
 0.463889E+000
 0.511650E+000
 0.308659E+000
 0.309137E+000
 0.309654E+000
 0.310217E+000
 0.310830E+000
 0.311499E+000
 0.312231E+000
 0.313034E+000
 0.313918E+000
 0.314895E+000
 0.315977E+000
 0.317180E+000
 0.318522E+000
 0.320028E+000
 0.321723E+000
 0.323640E+000
 0.325821E+000
 0.328316E+000
 0.331188E+000
 0.334516E+000
 0.338402E+000
 0.342977E+000
 0.348413E+000
 0.354939E+000
 0.362866E+000
 0.372619E+000
 0.384805E+000
 0.400297E+000
 0.420394E+000
 0.447096E+000
 0.483657E+000
 0.535638E+000
 0.309964E+000
 0.310511E+000
 0.311103E+000
 0.311746E+000
 0.312445E+000
 0.313208E+000
 0.314043E+000
 0.314958E+000
 0.315965E+000
 0.317075E+000
 0.318305E+000
 0.319671E+000
 0.321195E+000
 0.322902E+000
 0.324821E+000
 0.326991E+000
 0.329456E+000
 0.332272E+000
 0.335508E+000
 0.339254E+000
 0.343620E+000
 0.348751E+000
 0.354836E+000
 0.362124E+000
 0.370954E+000
 0.381788E+000
 0.395280E+000
 0.412368E+000
 0.434436E+000
 0.463606E+000
 0.503288E+000
 0.559162E+000
 0.311346E+000
 0.311965E+000
 0.312634E+000
 0.313361E+000
 0.314151E+000
 0.315012E+000
 0.315954E+000
 0.316985E+000
 0.318119E+000
 0.319369E+000
 0.320752E+000
 0.322288E+000
 0.323998E+000
 0.325913E+000
 0.328064E+000
 0.330492E+000
 0.333248E+000
 0.336393E+000
 0.340002E+000
 0.344173E+000
 0.349027E+000
 0.354720E+000
 0.361459E+000
 0.369512E+000
 0.379245E+000
 0.391153E+000
 0.405934E+000
 0.424583E+000
 0.448562E+000
 0.480095E+000
 0.522707E+000
 0.582158E+000
 0.312802E+000
 0.313496E+000
 0.314246E+000
 0.315059E+000
 0.315943E+000
 0.316907E+000
 0.317958E+000
 0.319111E+000
 0.320376E+000
 0.321770E+000
 0.323311E+000
 0.325021E+000
 0.326924E+000
 0.329052E+000
 0.331440E+000
 0.334134E+000
 0.337187E+000
 0.340666E+000
 0.344655E+000
 0.349256E+000
 0.354603E+000
 0.360863E+000
 0.368258E+000
 0.377076E+000
 0.387705E+000
 0.400674E+000
 0.416720E+000
 0.436889E+000
 0.462711E+000
 0.496493E+000
 0.541844E+000
 0.604565E+000
 0.314328E+000
 0.315099E+000
 0.315932E+000
 0.316836E+000
 0.317817E+000
 0.318885E+000
 0.320051E+000
 0.321327E+000
 0.322728E+000
 0.324270E+000
 0.325974E+000
 0.327861E+000
 0.329962E+000
 0.332307E+000
 0.334937E+000
 0.337901E+000
 0.341256E+000
 0.345075E+000
 0.349446E+000
 0.354482E+000
 0.360324E+000
 0.367152E+000
 0.375201E+000
 0.384779E+000
 0.396295E+000
 0.410307E+000
 0.427588E+000
 0.449229E+000
 0.476818E+000
 0.512727E+000
 0.560623E+000
 0.626319E+000
 0.315917E+000
 0.316768E+000
 0.317687E+000
 0.318683E+000
 0.319764E+000
 0.320940E+000
 0.322223E+000
 0.323626E+000
 0.325165E+000
 0.326858E+000
 0.328727E+000
 0.330797E+000
 0.333097E+000
 0.335664E+000
 0.338540E+000
 0.341777E+000
 0.345437E+000
 0.349597E+000
 0.354354E+000
 0.359826E+000
 0.366163E+000
 0.373556E+000
 0.382255E+000
 0.392583E+000
 0.404971E+000
 0.420002E+000
 0.438482E+000
 0.461541E+000
 0.490814E+000
 0.528724E+000
 0.578973E+000
 0.647360E+000
 0.317563E+000
 0.318495E+000
 0.319502E+000
 0.320592E+000
 0.321775E+000
 0.323061E+000
 0.324462E+000
 0.325995E+000
 0.327674E+000
 0.329521E+000
 0.331558E+000
 0.333812E+000
 0.336315E+000
 0.339105E+000
 0.342228E+000
 0.345739E+000
 0.349706E+000
 0.354209E+000
 0.359350E+000
 0.365256E+000
 0.372085E+000
 0.380039E+000
 0.389378E+000
 0.400443E+000
 0.413683E+000
 0.429705E+000
 0.449342E+000
 0.473759E+000
 0.504627E+000
 0.544407E+000
 0.596818E+000
 0.667625E+000
 0.319255E+000
 0.320270E+000
 0.321366E+000
 0.322552E+000
 0.323837E+000
 0.325234E+000
 0.326756E+000
 0.328419E+000
 0.330241E+000
 0.332242E+000
 0.334448E+000
 0.336887E+000
 0.339593E+000
 0.342608E+000
 0.345979E+000
 0.349765E+000
 0.354036E+000
 0.358880E+000
 0.364404E+000
 0.370739E+000
 0.378053E+000
 0.386558E+000
 0.396526E+000
 0.408309E+000
 0.422377E+000
 0.439356E+000
 0.460103E+000
 0.485811E+000
 0.518182E+000
 0.559700E+000
 0.614086E+000
 0.687055E+000
 0.320982E+000
 0.322081E+000
 0.323266E+000
 0.324547E+000
 0.325936E+000
 0.327445E+000
 0.329088E+000
 0.330882E+000
 0.332846E+000
 0.335002E+000
 0.337377E+000
 0.340001E+000
 0.342910E+000
 0.346148E+000
 0.349765E+000
 0.353823E+000
 0.358397E+000
 0.363578E+000
 0.369478E+000
 0.376236E+000
 0.384026E+000
 0.393069E+000
 0.403648E+000
 0.416129E+000
 0.430995E+000
 0.448892E+000
 0.470696E+000
 0.497624E+000
 0.531400E+000
 0.574523E+000
 0.630704E+000
 0.705592E+000
 0.322730E+000
 0.323912E+000
 0.325186E+000
 0.326564E+000
 0.328056E+000
 0.329676E+000
 0.331439E+000
 0.333364E+000
 0.335469E+000
 0.337779E+000
 0.340322E+000
 0.343129E+000
 0.346239E+000
 0.349697E+000
 0.353557E+000
 0.357883E+000
 0.362754E+000
 0.368266E+000
 0.374534E+000
 0.381704E+000
 0.389957E+000
 0.399522E+000
 0.410692E+000
 0.423844E+000
 0.439474E+000
 0.458245E+000
 0.481049E+000
 0.509123E+000
 0.544205E+000
 0.588800E+000
 0.646599E+000
 0.723179E+000
 0.324483E+000
 0.325747E+000
 0.327110E+000
 0.328582E+000
 0.330176E+000
 0.331906E+000
 0.333788E+000
 0.335841E+000
 0.338086E+000
 0.340547E+000
 0.343255E+000
 0.346242E+000
 0.349549E+000
 0.353223E+000
 0.357320E+000
 0.361908E+000
 0.367069E+000
 0.372901E+000
 0.379527E+000
 0.387096E+000
 0.395796E+000
 0.405863E+000
 0.417599E+000
 0.431391E+000
 0.447748E+000
 0.467345E+000
 0.491089E+000
 0.520229E+000
 0.556516E+000
 0.602451E+000
 0.661701E+000
 0.739761E+000
 0.326222E+000
 0.327567E+000
 0.329016E+000
 0.330582E+000
 0.332276E+000
 0.334113E+000
 0.336111E+000
 0.338290E+000
 0.340670E+000
 0.343280E+000
 0.346148E+000
 0.349310E+000
 0.352808E+000
 0.356691E+000
 0.361019E+000
 0.365860E+000
 0.371300E+000
 0.377442E+000
 0.384411E+000
 0.392362E+000
 0.401490E+000
 0.412036E+000
 0.424309E+000
 0.438708E+000
 0.455749E+000
 0.476119E+000
 0.500738E+000
 0.530865E+000
 0.568253E+000
 0.615402E+000
 0.675942E+000
 0.755287E+000
 0.327929E+000
 0.329352E+000
 0.330885E+000
 0.332540E+000
 0.334331E+000
 0.336272E+000
 0.338383E+000
 0.340682E+000
 0.343194E+000
 0.345946E+000
 0.348969E+000
 0.352299E+000
 0.355981E+000
 0.360066E+000
 0.364613E+000
 0.369697E+000
 0.375404E+000
 0.381840E+000
 0.389136E+000
 0.397451E+000
 0.406982E+000
 0.417980E+000
 0.430760E+000
 0.445726E+000
 0.463407E+000
 0.484495E+000
 0.509921E+000
 0.540951E+000
 0.579341E+000
 0.627576E+000
 0.689256E+000
 0.769707E+000
 0.329582E+000
 0.331079E+000
 0.332692E+000
 0.334433E+000
 0.336316E+000
 0.338357E+000
 0.340575E+000
 0.342990E+000
 0.345627E+000
 0.348514E+000
 0.351684E+000
 0.355175E+000
 0.359031E+000
 0.363306E+000
 0.368063E+000
 0.373375E+000
 0.379334E+000
 0.386049E+000
 0.393652E+000
 0.402307E+000
 0.412217E+000
 0.423637E+000
 0.436887E+000
 0.452380E+000
 0.470651E+000
 0.492399E+000
 0.518563E+000
 0.550411E+000
 0.589701E+000
 0.638903E+000
 0.701579E+000
 0.782973E+000
 0.331158E+000
 0.332726E+000
 0.334414E+000
 0.336236E+000
 0.338206E+000
 0.340340E+000
 0.342659E+000
 0.345183E+000
 0.347938E+000
 0.350952E+000
 0.354260E+000
 0.357901E+000
 0.361921E+000
 0.366374E+000
 0.371325E+000
 0.376852E+000
 0.383045E+000
 0.390018E+000
 0.397906E+000
 0.406877E+000
 0.417137E+000
 0.428945E+000
 0.442628E+000
 0.458603E+000
 0.477411E+000
 0.499759E+000
 0.526588E+000
 0.559171E+000
 0.599261E+000
 0.649314E+000
 0.712854E+000
 0.795044E+000
 0.332635E+000
 0.334268E+000
 0.336026E+000
 0.337923E+000
 0.339973E+000
 0.342194E+000
 0.344606E+000
 0.347230E+000
 0.350094E+000
 0.353226E+000
 0.356662E+000
 0.360441E+000
 0.364611E+000
 0.369228E+000
 0.374359E+000
 0.380081E+000
 0.386490E+000
 0.393699E+000
 0.401847E+000
 0.411105E+000
 0.421683E+000
 0.433844E+000
 0.447918E+000
 0.464328E+000
 0.483620E+000
 0.506504E+000
 0.533926E+000
 0.567160E+000
 0.607952E+000
 0.658744E+000
 0.723023E+000
 0.805878E+000
 0.333990E+000
 0.335681E+000
 0.337503E+000
 0.339467E+000
 0.341591E+000
 0.343890E+000
 0.346387E+000
 0.349103E+000
 0.352065E+000
 0.355303E+000
 0.358854E+000
 0.362758E+000
 0.367064E+000
 0.371830E+000
 0.377122E+000
 0.383020E+000
 0.389622E+000
 0.397043E+000
 0.405425E+000
 0.414940E+000
 0.425802E+000
 0.438277E+000
 0.452699E+000
 0.469495E+000
 0.489213E+000
 0.512569E+000
 0.540510E+000
 0.574310E+000
 0.615709E+000
 0.667135E+000
 0.732038E+000
 0.815440E+000
 0.335200E+000
 0.336944E+000
 0.338821E+000
 0.340845E+000
 0.343033E+000
 0.345403E+000
 0.347974E+000
 0.350770E+000
 0.353819E+000
 0.357152E+000
 0.360804E+000
 0.364819E+000
 0.369245E+000
 0.374140E+000
 0.379574E+000
 0.385628E+000
 0.392399E+000
 0.400006E+000
 0.408592E+000
 0.418332E+000
 0.429441E+000
 0.442189E+000
 0.456913E+000
 0.474043E+000
 0.494130E+000
 0.517892E+000
 0.546278E+000
 0.580561E+000
 0.622475E+000
 0.674432E+000
 0.739853E+000
 0.823697E+000
 0.336245E+000
 0.338033E+000
 0.339958E+000
 0.342034E+000
 0.344277E+000
 0.346706E+000
 0.349341E+000
 0.352207E+000
 0.355330E+000
 0.358743E+000
 0.362482E+000
 0.366591E+000
 0.371119E+000
 0.376125E+000
 0.381680E+000
 0.387865E+000
 0.394781E+000
 0.402546E+000
 0.411304E+000
 0.421234E+000
 0.432553E+000
 0.445532E+000
 0.460510E+000
 0.477921E+000
 0.498316E+000
 0.522418E+000
 0.551175E+000
 0.585858E+000
 0.628196E+000
 0.680589E+000
 0.746428E+000
 0.830622E+000
 0.337105E+000
 0.338930E+000
 0.340894E+000
 0.343012E+000
 0.345300E+000
 0.347778E+000
 0.350465E+000
 0.353387E+000
 0.356571E+000
 0.360050E+000
 0.363860E+000
 0.368045E+000
 0.372657E+000
 0.377754E+000
 0.383406E+000
 0.389699E+000
 0.396732E+000
 0.404625E+000
 0.413524E+000
 0.423608E+000
 0.435096E+000
 0.448261E+000
 0.463445E+000
 0.481081E+000
 0.501726E+000
 0.526099E+000
 0.555152E+000
 0.590154E+000
 0.632829E+000
 0.685564E+000
 0.751730E+000
 0.836190E+000
 0.337766E+000
 0.339618E+000
 0.341612E+000
 0.343762E+000
 0.346085E+000
 0.348599E+000
 0.351327E+000
 0.354292E+000
 0.357522E+000
 0.361051E+000
 0.364915E+000
 0.369159E+000
 0.373833E+000
 0.378999E+000
 0.384727E+000
 0.391101E+000
 0.398222E+000
 0.406212E+000
 0.415218E+000
 0.425419E+000
 0.437036E+000
 0.450342E+000
 0.465681E+000
 0.483487E+000
 0.504318E+000
 0.528896E+000
 0.558171E+000
 0.593411E+000
 0.636336E+000
 0.689325E+000
 0.755730E+000
 0.840383E+000
 0.338213E+000
 0.340084E+000
 0.342098E+000
 0.344270E+000
 0.346616E+000
 0.349156E+000
 0.351910E+000
 0.354904E+000
 0.358165E+000
 0.361728E+000
 0.365628E+000
 0.369912E+000
 0.374629E+000
 0.379841E+000
 0.385619E+000
 0.392048E+000
 0.399229E+000
 0.407285E+000
 0.416362E+000
 0.426641E+000
 0.438344E+000
 0.451744E+000
 0.467187E+000
 0.485108E+000
 0.506064E+000
 0.530778E+000
 0.560201E+000
 0.595599E+000
 0.638690E+000
 0.691846E+000
 0.758409E+000
 0.843187E+000
 0.338439E+000
 0.340319E+000
 0.342343E+000
 0.344526E+000
 0.346884E+000
 0.349436E+000
 0.352204E+000
 0.355213E+000
 0.358490E+000
 0.362069E+000
 0.365988E+000
 0.370291E+000
 0.375030E+000
 0.380265E+000
 0.386069E+000
 0.392525E+000
 0.399737E+000
 0.407825E+000
 0.416938E+000
 0.427257E+000
 0.439003E+000
 0.452451E+000
 0.467945E+000
 0.485923E+000
 0.506942E+000
 0.531724E+000
 0.561221E+000
 0.596698E+000
 0.639872E+000
 0.693111E+000
 0.759752E+000
 0.844591E+000
 0.338439E+000
 0.340319E+000
 0.342343E+000
 0.344526E+000
 0.346884E+000
 0.349436E+000
 0.352204E+000
 0.355213E+000
 0.358490E+000
 0.362069E+000
 0.365988E+000
 0.370291E+000
 0.375030E+000
 0.380265E+000
 0.386069E+000
 0.392525E+000
 0.399737E+000
 0.407825E+000
 0.416938E+000
 0.427257E+000
 0.439003E+000
 0.452451E+000
 0.467945E+000
 0.485923E+000
 0.506942E+000
 0.531724E+000
 0.561221E+000
 0.596698E+000
 0.639872E+000
 0.693111E+000
 0.759752E+000
 0.844591E+000
 0.338213E+000
 0.340084E+000
 0.342098E+000
 0.344270E+000
 0.346616E+000
 0.349156E+000
 0.351910E+000
 0.354904E+000
 0.358165E+000
 0.361728E+000
 0.365628E+000
 0.369912E+000
 0.374629E+000
 0.379841E+000
 0.385619E+000
 0.392048E+000
 0.399229E+000
 0.407285E+000
 0.416362E+000
 0.426641E+000
 0.438344E+000
 0.451744E+000
 0.467187E+000
 0.485108E+000
 0.506064E+000
 0.530778E+000
 0.560201E+000
 0.595599E+000
 0.638690E+000
 0.691846E+000
 0.758409E+000
 0.843187E+000
 0.337766E+000
 0.339618E+000
 0.341612E+000
 0.343762E+000
 0.346085E+000
 0.348599E+000
 0.351327E+000
 0.354292E+000
 0.357522E+000
 0.361051E+000
 0.364915E+000
 0.369159E+000
 0.373833E+000
 0.378999E+000
 0.384727E+000
 0.391101E+000
 0.398222E+000
 0.406212E+000
 0.415218E+000
 0.425419E+000
 0.437036E+000
 0.450342E+000
 0.465681E+000
 0.483487E+000
 0.504318E+000
 0.528896E+000
 0.558171E+000
 0.593411E+000
 0.636336E+000
 0.689325E+000
 0.755730E+000
 0.840383E+000
 0.337105E+000
 0.338930E+000
 0.340894E+000
 0.343012E+000
 0.345300E+000
 0.347778E+000
 0.350465E+000
 0.353387E+000
 0.356571E+000
 0.360050E+000
 0.363860E+000
 0.368045E+000
 0.372657E+000
 0.377754E+000
 0.383406E+000
 0.389699E+000
 0.396732E+000
 0.404625E+000
 0.413524E+000
 0.423608E+000
 0.435096E+000
 0.448261E+000
 0.463445E+000
 0.481081E+000
 0.501726E+000
 0.526099E+000
 0.555152E+000
 0.590154E+000
 0.632829E+000
 0.685564E+000
 0.751730E+000
 0.836190E+000
 0.336245E+000
 0.338033E+000
 0.339958E+000
 0.342034E+000
 0.344277E+000
 0.346706E+000
 0.349341E+000
 0.352207E+000
 0.355330E+000
 0.358743E+000
 0.362482E+000
 0.366591E+000
 0.371119E+000
 0.376125E+000
 0.381680E+000
 0.387865E+000
 0.394781E+000
 0.402546E+000
 0.411304E+000
 0.421234E+000
 0.432553E+000
 0.445532E+000
 0.460510E+000
 0.477921E+000
 0.498316E+000
 0.522418E+000
 0.551175E+000
 0.585858E+000
 0.628196E+000
 0.680589E+000
 0.746428E+000
 0.830622E+000
 0.335200E+000
 0.336944E+000
 0.338821E+000
 0.340845E+000
 0.343033E+000
 0.345403E+000
 0.347974E+000
 0.350770E+000
 0.353819E+000
 0.357152E+000
 0.360804E+000
 0.364819E+000
 0.369245E+000
 0.374140E+000
 0.379574E+000
 0.385628E+000
 0.392399E+000
 0.400006E+000
 0.408592E+000
 0.418332E+000
 0.429441E+000
 0.442189E+000
 0.456913E+000
 0.474043E+000
 0.494130E+000
 0.517892E+000
 0.546278E+000
 0.580561E+000
 0.622475E+000
 0.674432E+000
 0.739853E+000
 0.823697E+000
 0.333990E+000
 0.335681E+000
 0.337503E+000
 0.339467E+000
 0.341591E+000
 0.343890E+000
 0.346387E+000
 0.349103E+000
 0.352065E+000
 0.355303E+000
 0.358854E+000
 0.362758E+000
 0.367064E+000
 0.371830E+000
 0.377122E+000
 0.383020E+000
 0.389622E+000
 0.397043E+000
 0.405425E+000
 0.414940E+000
 0.425802E+000
 0.438277E+000
 0.452699E+000
 0.469495E+000
 0.489213E+000
 0.512569E+000
 0.540510E+000
 0.574310E+000
 0.615709E+000
 0.667135E+000
 0.732038E+000
 0.815440E+000
 0.332635E+000
 0.334268E+000
 0.336026E+000
 0.337923E+000
 0.339973E+000
 0.342194E+000
 0.344606E+000
 0.347230E+000
 0.350094E+000
 0.353226E+000
 0.356662E+000
 0.360441E+000
 0.364611E+000
 0.369228E+000
 0.374359E+000
 0.380081E+000
 0.386490E+000
 0.393699E+000
 0.401847E+000
 0.411105E+000
 0.421683E+000
 0.433844E+000
 0.447918E+000
 0.464328E+000
 0.483620E+000
 0.506504E+000
 0.533926E+000
 0.567160E+000
 0.607952E+000
 0.658744E+000
 0.723023E+000
 0.805878E+000
 0.331158E+000
 0.332726E+000
 0.334414E+000
 0.336236E+000
 0.338206E+000
 0.340340E+000
 0.342659E+000
 0.345183E+000
 0.347938E+000
 0.350952E+000
 0.354260E+000
 0.357901E+000
 0.361921E+000
 0.366374E+000
 0.371325E+000
 0.376852E+000
 0.383045E+000
 0.390018E+000
 0.397906E+000
 0.406877E+000
 0.417137E+000
 0.428945E+000
 0.442628E+000
 0.458603E+000
 0.477411E+000
 0.499759E+000
 0.526588E+000
 0.559171E+000
 0.599261E+000
 0.649314E+000
 0.712854E+000
 0.795044E+000
 0.329582E+000
 0.331079E+000
 0.332692E+000
 0.334433E+000
 0.336316E+000
 0.338357E+000
 0.340575E+000
 0.342990E+000
 0.345627E+000
 0.348514E+000
 0.351684E+000
 0.355175E+000
 0.359031E+000
 0.363306E+000
 0.368063E+000
 0.373375E+000
 0.379334E+000
 0.386049E+000
 0.393652E+000
 0.402307E+000
 0.412217E+000
 0.423637E+000
 0.436887E+000
 0.452380E+000
 0.470651E+000
 0.492399E+000
 0.518563E+000
 0.550411E+000
 0.589701E+000
 0.638903E+000
 0.701579E+000
 0.782973E+000
 0.327929E+000
 0.329352E+000
 0.330885E+000
 0.332540E+000
 0.334331E+000
 0.336272E+000
 0.338383E+000
 0.340682E+000
 0.343194E+000
 0.345946E+000
 0.348969E+000
 0.352299E+000
 0.355981E+000
 0.360066E+000
 0.364613E+000
 0.369697E+000
 0.375404E+000
 0.381840E+000
 0.389136E+000
 0.397451E+000
 0.406982E+000
 0.417980E+000
 0.430760E+000
 0.445726E+000
 0.463407E+000
 0.484495E+000
 0.509921E+000
 0.540951E+000
 0.579341E+000
 0.627576E+000
 0.689256E+000
 0.769707E+000
 0.326222E+000
 0.327567E+000
 0.329016E+000
 0.330582E+000
 0.332276E+000
 0.334113E+000
 0.336111E+000
 0.338290E+000
 0.340670E+000
 0.343280E+000
 0.346148E+000
 0.349310E+000
 0.352808E+000
 0.356691E+000
 0.361019E+000
 0.365860E+000
 0.371300E+000
 0.377442E+000
 0.384411E+000
 0.392362E+000
 0.401490E+000
 0.412036E+000
 0.424309E+000
 0.438708E+000
 0.455749E+000
 0.476119E+000
 0.500738E+000
 0.530865E+000
 0.568253E+000
 0.615402E+000
 0.675942E+000
 0.755287E+000
 0.324483E+000
 0.325747E+000
 0.327110E+000
 0.328582E+000
 0.330176E+000
 0.331906E+000
 0.333788E+000
 0.335841E+000
 0.338086E+000
 0.340547E+000
 0.343255E+000
 0.346242E+000
 0.349549E+000
 0.353223E+000
 0.357320E+000
 0.361908E+000
 0.367069E+000
 0.372901E+000
 0.379527E+000
 0.387096E+000
 0.395796E+000
 0.405863E+000
 0.417599E+000
 0.431391E+000
 0.447748E+000
 0.467345E+000
 0.491089E+000
 0.520229E+000
 0.556516E+000
 0.602451E+000
 0.661701E+000
 0.739761E+000
 0.322730E+000
 0.323912E+000
 0.325186E+000
 0.326564E+000
 0.328056E+000
 0.329676E+000
 0.331439E+000
 0.333364E+000
 0.335469E+000
 0.337779E+000
 0.340322E+000
 0.343129E+000
 0.346239E+000
 0.349697E+000
 0.353557E+000
 0.357883E+000
 0.362754E+000
 0.368266E+000
 0.374534E+000
 0.381704E+000
 0.389957E+000
 0.399522E+000
 0.410692E+000
 0.423844E+000
 0.439474E+000
 0.458245E+000
 0.481049E+000
 0.509123E+000
 0.544205E+000
 0.588800E+000
 0.646599E+000
 0.723179E+000
 0.320982E+000
 0.322081E+000
 0.323266E+000
 0.324547E+000
 0.325936E+000
 0.327445E+000
 0.329088E+000
 0.330882E+000
 0.332846E+000
 0.335002E+000
 0.337377E+000
 0.340001E+000
 0.342910E+000
 0.346148E+000
 0.349765E+000
 0.353823E+000
 0.358397E+000
 0.363578E+000
 0.369478E+000
 0.376236E+000
 0.384026E+000
 0.393069E+000
 0.403648E+000
 0.416129E+000
 0.430995E+000
 0.448892E+000
 0.470696E+000
 0.497624E+000
 0.531400E+000
 0.574523E+000
 0.630704E+000
 0.705592E+000
 0.319255E+000
 0.320270E+000
 0.321366E+000
 0.322552E+000
 0.323837E+000
 0.325234E+000
 0.326756E+000
 0.328419E+000
 0.330241E+000
 0.332242E+000
 0.334448E+000
 0.336887E+000
 0.339593E+000
 0.342608E+000
 0.345979E+000
 0.349765E+000
 0.354036E+000
 0.358880E+000
 0.364404E+000
 0.370739E+000
 0.378053E+000
 0.386558E+000
 0.396526E+000
 0.408309E+000
 0.422377E+000
 0.439356E+000
 0.460103E+000
 0.485811E+000
 0.518182E+000
 0.559700E+000
 0.614086E+000
 0.687055E+000
 0.317563E+000
 0.318495E+000
 0.319502E+000
 0.320592E+000
 0.321775E+000
 0.323061E+000
 0.324462E+000
 0.325995E+000
 0.327674E+000
 0.329521E+000
 0.331558E+000
 0.333812E+000
 0.336315E+000
 0.339105E+000
 0.342228E+000
 0.345739E+000
 0.349706E+000
 0.354209E+000
 0.359350E+000
 0.365256E+000
 0.372085E+000
 0.380039E+000
 0.389378E+000
 0.400443E+000
 0.413683E+000
 0.429705E+000
 0.449342E+000
 0.473759E+000
 0.504627E+000
 0.544407E+000
 0.596818E+000
 0.667625E+000
 0.315917E+000
 0.316768E+000
 0.317687E+000
 0.318683E+000
 0.319764E+000
 0.320940E+000
 0.322223E+000
 0.323626E+000
 0.325165E+000
 0.326858E+000
 0.328727E+000
 0.330797E+000
 0.333097E+000
 0.335664E+000
 0.338540E+000
 0.341777E+000
 0.345437E+000
 0.349597E+000
 0.354354E+000
 0.359826E+000
 0.366163E+000
 0.373556E+000
 0.382255E+000
 0.392583E+000
 0.404971E+000
 0.420002E+000
 0.438482E+000
 0.461541E+000
 0.490814E+000
 0.528724E+000
 0.578973E+000
 0.647360E+000
 0.314328E+000
 0.315099E+000
 0.315932E+000
 0.316836E+000
 0.317817E+000
 0.318885E+000
 0.320051E+000
 0.321327E+000
 0.322728E+000
 0.324270E+000
 0.325974E+000
 0.327861E+000
 0.329962E+000
 0.332307E+000
 0.334937E+000
 0.337901E+000
 0.341256E+000
 0.345075E+000
 0.349446E+000
 0.354482E+000
 0.360324E+000
 0.367152E+000
 0.375201E+000
 0.384779E+000
 0.396295E+000
 0.410307E+000
 0.427588E+000
 0.449229E+000
 0.476818E+000
 0.512727E+000
 0.560623E+000
 0.626319E+000
 0.312802E+000
 0.313496E+000
 0.314246E+000
 0.315059E+000
 0.315943E+000
 0.316907E+000
 0.317958E+000
 0.319111E+000
 0.320376E+000
 0.321770E+000
 0.323311E+000
 0.325021E+000
 0.326924E+000
 0.329052E+000
 0.331440E+000
 0.334134E+000
 0.337187E+000
 0.340666E+000
 0.344655E+000
 0.349256E+000
 0.354603E+000
 0.360863E+000
 0.368258E+000
 0.377076E+000
 0.387705E+000
 0.400674E+000
 0.416720E+000
 0.436889E+000
 0.462711E+000
 0.496493E+000
 0.541844E+000
 0.604565E+000
 0.311346E+000
 0.311965E+000
 0.312634E+000
 0.313361E+000
 0.314151E+000
 0.315012E+000
 0.315954E+000
 0.316985E+000
 0.318119E+000
 0.319369E+000
 0.320752E+000
 0.322288E+000
 0.323998E+000
 0.325913E+000
 0.328064E+000
 0.330492E+000
 0.333248E+000
 0.336393E+000
 0.340002E+000
 0.344173E+000
 0.349027E+000
 0.354720E+000
 0.361459E+000
 0.369512E+000
 0.379245E+000
 0.391153E+000
 0.405934E+000
 0.424583E+000
 0.448562E+000
 0.480095E+000
 0.522707E+000
 0.582158E+000
 0.309964E+000
 0.310511E+000
 0.311103E+000
 0.311746E+000
 0.312445E+000
 0.313208E+000
 0.314043E+000
 0.314958E+000
 0.315965E+000
 0.317075E+000
 0.318305E+000
 0.319671E+000
 0.321195E+000
 0.322902E+000
 0.324821E+000
 0.326991E+000
 0.329456E+000
 0.332272E+000
 0.335508E+000
 0.339254E+000
 0.343620E+000
 0.348751E+000
 0.354836E+000
 0.362124E+000
 0.370954E+000
 0.381788E+000
 0.395280E+000
 0.412368E+000
 0.434436E+000
 0.463606E+000
 0.503288E+000
 0.559162E+000
 0.308659E+000
 0.309137E+000
 0.309654E+000
 0.310217E+000
 0.310830E+000
 0.311499E+000
 0.312231E+000
 0.313034E+000
 0.313918E+000
 0.314895E+000
 0.315977E+000
 0.317180E+000
 0.318522E+000
 0.320028E+000
 0.321723E+000
 0.323640E+000
 0.325821E+000
 0.328316E+000
 0.331188E+000
 0.334516E+000
 0.338402E+000
 0.342977E+000
 0.348413E+000
 0.354939E+000
 0.362866E+000
 0.372619E+000
 0.384805E+000
 0.400297E+000
 0.420394E+000
 0.447096E+000
 0.483657E+000
 0.535638E+000
 0.307432E+000
 0.307844E+000
 0.308291E+000
 0.308777E+000
 0.309307E+000
 0.309886E+000
 0.310520E+000
 0.311216E+000
 0.311983E+000
 0.312831E+000
 0.313771E+000
 0.314817E+000
 0.315985E+000
 0.317297E+000
 0.318774E+000
 0.320448E+000
 0.322354E+000
 0.324537E+000
 0.327054E+000
 0.329974E+000
 0.333389E+000
 0.337417E+000
 0.342213E+000
 0.347983E+000
 0.355009E+000
 0.363680E+000
 0.374547E+000
 0.388416E+000
 0.406492E+000
 0.430630E+000
 0.463889E+000
 0.511650E+000
 0.306283E+000
 0.306633E+000
 0.307013E+000
 0.307426E+000
 0.307878E+000
 0.308371E+000
 0.308912E+000
 0.309506E+000
 0.310162E+000
 0.310886E+000
 0.311690E+000
 0.312586E+000
 0.313588E+000
 0.314712E+000
 0.315982E+000
 0.317420E+000
 0.319061E+000
 0.320942E+000
 0.323113E+000
 0.325636E+000
 0.328592E+000
 0.332085E+000
 0.336252E+000
 0.341276E+000
 0.347409E+000
 0.355000E+000
 0.364544E+000
 0.376768E+000
 0.392779E+000
 0.414271E+000
 0.444054E+000
 0.487261E+000
 0.305211E+000
 0.305502E+000
 0.305819E+000
 0.306165E+000
 0.306541E+000
 0.306954E+000
 0.307406E+000
 0.307904E+000
 0.308453E+000
 0.309061E+000
 0.309736E+000
 0.310488E+000
 0.311330E+000
 0.312277E+000
 0.313345E+000
 0.314560E+000
 0.315943E+000
 0.317535E+000
 0.319371E+000
 0.321511E+000
 0.324021E+000
 0.326991E+000
 0.330542E+000
 0.334834E+000
 0.340083E+000
 0.346602E+000
 0.354824E+000
 0.365391E+000
 0.379300E+000
 0.398077E+000
 0.424226E+000
 0.462535E+000
 0.304216E+000
 0.304452E+000
 0.304709E+000
 0.304990E+000
 0.305297E+000
 0.305633E+000
 0.306002E+000
 0.306408E+000
 0.306857E+000
 0.307353E+000
 0.307906E+000
 0.308522E+000
 0.309213E+000
 0.309989E+000
 0.310868E+000
 0.311865E+000
 0.313006E+000
 0.314315E+000
 0.315834E+000
 0.317599E+000
 0.319680E+000
 0.322142E+000
 0.325092E+000
 0.328667E+000
 0.333049E+000
 0.338505E+000
 0.345414E+000
 0.354317E+000
 0.366092E+000
 0.382100E+000
 0.404478E+000
 0.437537E+000
 0.303294E+000
 0.303479E+000
 0.303680E+000
 0.303901E+000
 0.304142E+000
 0.304406E+000
 0.304696E+000
 0.305016E+000
 0.305370E+000
 0.305762E+000
 0.306199E+000
 0.306686E+000
 0.307233E+000
 0.307849E+000
 0.308545E+000
 0.309338E+000
 0.310243E+000
 0.311289E+000
 0.312494E+000
 0.313911E+000
 0.315565E+000
 0.317547E+000
 0.319907E+000
 0.322786E+000
 0.326318E+000
 0.330724E+000
 0.336331E+000
 0.343579E+000
 0.353189E+000
 0.366384E+000
 0.384887E+000
 0.412335E+000
 0.302444E+000
 0.302581E+000
 0.302730E+000
 0.302894E+000
 0.303073E+000
 0.303270E+000
 0.303487E+000
 0.303726E+000
 0.303991E+000
 0.304285E+000
 0.304612E+000
 0.304978E+000
 0.305389E+000
 0.305852E+000
 0.306377E+000
 0.306974E+000
 0.307659E+000
 0.308446E+000
 0.309364E+000
 0.310429E+000
 0.311698E+000
 0.313186E+000
 0.315007E+000
 0.317179E+000
 0.319906E+000
 0.323269E+000
 0.327589E+000
 0.333200E+000
 0.340625E+000
 0.350952E+000
 0.365535E+000
 0.387005E+000
 0.301663E+000
 0.301754E+000
 0.301855E+000
 0.301966E+000
 0.302088E+000
 0.302222E+000
 0.302370E+000
 0.302534E+000
 0.302715E+000
 0.302917E+000
 0.303142E+000
 0.303394E+000
 0.303677E+000
 0.303996E+000
 0.304358E+000
 0.304771E+000
 0.305245E+000
 0.305792E+000
 0.306426E+000
 0.307171E+000
 0.308045E+000
 0.309099E+000
 0.310344E+000
 0.311903E+000
 0.313762E+000
 0.316196E+000
 0.319163E+000
 0.323220E+000
 0.328431E+000
 0.335821E+000
 0.346494E+000
 0.361658E+000
 0.300947E+000
 0.300997E+000
 0.301052E+000
 0.301114E+000
 0.301182E+000
 0.301258E+000
 0.301342E+000
 0.301435E+000
 0.301539E+000
 0.301654E+000
 0.301783E+000
 0.301928E+000
 0.302091E+000
 0.302275E+000
 0.302485E+000
 0.302724E+000
 0.302998E+000
 0.303316E+000
 0.303684E+000
 0.304119E+000
 0.304628E+000
 0.305241E+000
 0.305978E+000
 0.306873E+000
 0.307999E+000
 0.309374E+000
 0.311218E+000
 0.313475E+000
 0.316807E+000
 0.320868E+000
 0.327896E+000
 0.336419E+000
 0.300295E+000
 0.300303E+000
 0.300317E+000
 0.300333E+000
 0.300352E+000
 0.300374E+000
 0.300398E+000
 0.300426E+000
 0.300457E+000
 0.300492E+000
 0.300532E+000
 0.300577E+000
 0.300627E+000
 0.300685E+000
 0.300751E+000
 0.300826E+000
 0.300914E+000
 0.301014E+000
 0.301133E+000
 0.301269E+000
 0.301436E+000
 0.301625E+000
 0.301870E+000
 0.302145E+000
 0.302522E+000
 0.302942E+000
 0.303561E+000
 0.304257E+000
 0.305377E+000
 0.306673E+000
 0.309026E+000
 0.312361E+000
 0.299677E+000
 0.299651E+000
 0.299625E+000
 0.299600E+000
 0.299572E+000
 0.299543E+000
 0.299512E+000
 0.299478E+000
 0.299441E+000
 0.299401E+000
 0.299357E+000
 0.299307E+000
 0.299253E+000
 0.299191E+000
 0.299122E+000
 0.299044E+000
 0.298954E+000
 0.298852E+000
 0.298730E+000
 0.298593E+000
 0.298420E+000
 0.298230E+000
 0.297972E+000
 0.297700E+000
 0.297292E+000
 0.296882E+000
 0.296189E+000
 0.295531E+000
 0.294236E+000
 0.293122E+000
 0.290284E+000
 0.288930E+000
 0.299010E+000
 0.298949E+000
 0.298884E+000
 0.298814E+000
 0.298738E+000
 0.298655E+000
 0.298565E+000
 0.298466E+000
 0.298357E+000
 0.298237E+000
 0.298103E+000
 0.297954E+000
 0.297787E+000
 0.297599E+000
 0.297387E+000
 0.297145E+000
 0.296869E+000
 0.296547E+000
 0.296179E+000
 0.295736E+000
 0.295232E+000
 0.294600E+000
 0.293879E+000
 0.292940E+000
 0.291851E+000
 0.290386E+000
 0.288613E+000
 0.286183E+000
 0.282983E+000
 0.278645E+000
 0.271866E+000
 0.264010E+000
 0.298285E+000
 0.298184E+000
 0.298075E+000
 0.297957E+000
 0.297828E+000
 0.297688E+000
 0.297534E+000
 0.297365E+000
 0.297178E+000
 0.296972E+000
 0.296742E+000
 0.296487E+000
 0.296200E+000
 0.295878E+000
 0.295511E+000
 0.295097E+000
 0.294618E+000
 0.294073E+000
 0.293430E+000
 0.292690E+000
 0.291799E+000
 0.290759E+000
 0.289481E+000
 0.287945E+000
 0.286031E+000
 0.283622E+000
 0.280586E+000
 0.276514E+000
 0.271273E+000
 0.263729E+000
 0.253330E+000
 0.238199E+000
 0.297495E+000
 0.297351E+000
 0.297195E+000
 0.297024E+000
 0.296839E+000
 0.296636E+000
 0.296414E+000
 0.296169E+000
 0.295900E+000
 0.295601E+000
 0.295270E+000
 0.294900E+000
 0.294486E+000
 0.294019E+000
 0.293492E+000
 0.292890E+000
 0.292206E+000
 0.291411E+000
 0.290497E+000
 0.289420E+000
 0.288158E+000
 0.286650E+000
 0.284836E+000
 0.282640E+000
 0.279906E+000
 0.276523E+000
 0.272161E+000
 0.266534E+000
 0.259038E+000
 0.248641E+000
 0.234223E+000
 0.212481E+000
 0.296638E+000
 0.296447E+000
 0.296239E+000
 0.296013E+000
 0.295766E+000
 0.295496E+000
 0.295201E+000
 0.294876E+000
 0.294518E+000
 0.294121E+000
 0.293681E+000
 0.293190E+000
 0.292639E+000
 0.292021E+000
 0.291321E+000
 0.290527E+000
 0.289616E+000
 0.288571E+000
 0.287358E+000
 0.285942E+000
 0.284278E+000
 0.282295E+000
 0.279925E+000
 0.277033E+000
 0.273489E+000
 0.269056E+000
 0.263420E+000
 0.256141E+000
 0.246457E+000
 0.233226E+000
 0.214770E+000
 0.186883E+000
 0.295711E+000
 0.295468E+000
 0.295205E+000
 0.294919E+000
 0.294607E+000
 0.294266E+000
 0.293892E+000
 0.293481E+000
 0.293028E+000
 0.292527E+000
 0.291972E+000
 0.291352E+000
 0.290658E+000
 0.289878E+000
 0.288998E+000
 0.287996E+000
 0.286854E+000
 0.285540E+000
 0.284019E+000
 0.282248E+000
 0.280163E+000
 0.277695E+000
 0.274734E+000
 0.271148E+000
 0.266750E+000
 0.261268E+000
 0.254332E+000
 0.245387E+000
 0.233544E+000
 0.217501E+000
 0.195068E+000
 0.161483E+000
 0.294710E+000
 0.294413E+000
 0.294090E+000
 0.293740E+000
 0.293358E+000
 0.292941E+000
 0.292484E+000
 0.291982E+000
 0.291429E+000
 0.290818E+000
 0.290139E+000
 0.289384E+000
 0.288538E+000
 0.287589E+000
 0.286517E+000
 0.285300E+000
 0.283913E+000
 0.282319E+000
 0.280478E+000
 0.278334E+000
 0.275819E+000
 0.272841E+000
 0.269280E+000
 0.264977E+000
 0.259708E+000
 0.253165E+000
 0.244913E+000
 0.234298E+000
 0.220327E+000
 0.201498E+000
 0.175214E+000
 0.136336E+000
 0.293633E+000
 0.293278E+000
 0.292892E+000
 0.292474E+000
 0.292018E+000
 0.291520E+000
 0.290975E+000
 0.290376E+000
 0.289717E+000
 0.288989E+000
 0.288182E+000
 0.287283E+000
 0.286278E+000
 0.285151E+000
 0.283879E+000
 0.282437E+000
 0.280793E+000
 0.278909E+000
 0.276734E+000
 0.274206E+000
 0.271244E+000
 0.267743E+000
 0.263566E+000
 0.258528E+000
 0.252376E+000
 0.244759E+000
 0.235182E+000
 0.222907E+000
 0.206834E+000
 0.185267E+000
 0.155288E+000
 0.111496E+000
 0.292478E+000
 0.292061E+000
 0.291610E+000
 0.291119E+000
 0.290584E+000
 0.290001E+000
 0.289363E+000
 0.288663E+000
 0.287892E+000
 0.287041E+000
 0.286098E+000
 0.285049E+000
 0.283878E+000
 0.282564E+000
 0.281083E+000
 0.279406E+000
 0.277497E+000
 0.275310E+000
 0.272790E+000
 0.269865E+000
 0.266443E+000
 0.262406E+000
 0.257599E+000
 0.251814E+000
 0.244768E+000
 0.236071E+000
 0.225167E+000
 0.211245E+000
 0.193102E+000
 0.168864E+000
 0.135366E+000
 0.870196E-001
 0.291246E+000
 0.290764E+000
 0.290241E+000
 0.289674E+000
 0.289057E+000
 0.288385E+000
 0.287649E+000
 0.286842E+000
 0.285954E+000
 0.284974E+000
 0.283890E+000
 0.282684E+000
 0.281338E+000
 0.279830E+000
 0.278132E+000
 0.276212E+000
 0.274027E+000
 0.271528E+000
 0.268652E+000
 0.265318E+000
 0.261425E+000
 0.256841E+000
 0.251393E+000
 0.244852E+000
 0.236904E+000
 0.227122E+000
 0.214897E+000
 0.199350E+000
 0.179177E+000
 0.152352E+000
 0.115520E+000
 0.629634E-001
 0.289935E+000
 0.289385E+000
 0.288788E+000
 0.288141E+000
 0.287438E+000
 0.286671E+000
 0.285833E+000
 0.284914E+000
 0.283904E+000
 0.282791E+000
 0.281558E+000
 0.280189E+000
 0.278662E+000
 0.276953E+000
 0.275031E+000
 0.272858E+000
 0.270390E+000
 0.267570E+000
 0.264328E+000
 0.260577E+000
 0.256203E+000
 0.251062E+000
 0.244965E+000
 0.237660E+000
 0.228808E+000
 0.217943E+000
 0.204408E+000
 0.187262E+000
 0.165110E+000
 0.135795E+000
 0.958232E-001
 0.393861E-001
 0.288548E+000
 0.287926E+000
 0.287252E+000
 0.286522E+000
 0.285728E+000
 0.284863E+000
 0.283918E+000
 0.282883E+000
 0.281746E+000
 0.280493E+000
 0.279108E+000
 0.277570E+000
 0.275856E+000
 0.273939E+000
 0.271785E+000
 0.269354E+000
 0.266594E+000
 0.263445E+000
 0.259831E+000
 0.255653E+000
 0.250792E+000
 0.245087E+000
 0.238335E+000
 0.230264E+000
 0.220508E+000
 0.208567E+000
 0.193741E+000
 0.175029E+000
 0.150956E+000
 0.119261E+000
 0.763457E-001
 0.163475E-001
 0.287087E+000
 0.286390E+000
 0.285636E+000
 0.284819E+000
 0.283931E+000
 0.282964E+000
 0.281909E+000
 0.280754E+000
 0.279486E+000
 0.278089E+000
 0.276545E+000
 0.274833E+000
 0.272927E+000
 0.270797E+000
 0.268406E+000
 0.265709E+000
 0.262652E+000
 0.259168E+000
 0.255174E+000
 0.250566E+000
 0.245210E+000
 0.238939E+000
 0.231530E+000
 0.222693E+000
 0.212038E+000
 0.199034E+000
 0.182940E+000
 0.162703E+000
 0.136778E+000
 0.102821E+000
 0.571596E-001
-0.609246E-002
 0.285557E+000
 0.284782E+000
 0.283944E+000
 0.283037E+000
 0.282053E+000
 0.280981E+000
 0.279812E+000
 0.278533E+000
 0.277130E+000
 0.275585E+000
 0.273880E+000
 0.271989E+000
 0.269886E+000
 0.267538E+000
 0.264905E+000
 0.261938E+000
 0.258579E+000
 0.254755E+000
 0.250378E+000
 0.245335E+000
 0.239484E+000
 0.232643E+000
 0.224579E+000
 0.214981E+000
 0.203438E+000
 0.189389E+000
 0.172056E+000
 0.150342E+000
 0.122641E+000
 0.865471E-001
 0.383371E-001
-0.278732E-001
 0.283962E+000
 0.283107E+000
 0.282184E+000
 0.281185E+000
 0.280101E+000
 0.278922E+000
 0.277637E+000
 0.276231E+000
 0.274689E+000
 0.272994E+000
 0.271122E+000
 0.269050E+000
 0.266747E+000
 0.264178E+000
 0.261299E+000
 0.258059E+000
 0.254394E+000
 0.250229E+000
 0.245466E+000
 0.239986E+000
 0.233640E+000
 0.226233E+000
 0.217518E+000
 0.207169E+000
 0.194752E+000
 0.179680E+000
 0.161146E+000
 0.138008E+000
 0.108616E+000
 0.705141E-001
 0.199511E-001
-0.489344E-001
 0.282310E+000
 0.281374E+000
 0.280364E+000
 0.279271E+000
 0.278086E+000
 0.276797E+000
 0.275393E+000
 0.273858E+000
 0.272176E+000
 0.270327E+000
 0.268288E+000
 0.266032E+000
 0.263526E+000
 0.260733E+000
 0.257607E+000
 0.254092E+000
 0.250121E+000
 0.245613E+000
 0.240465E+000
 0.234551E+000
 0.227711E+000
 0.219744E+000
 0.210387E+000
 0.199300E+000
 0.186029E+000
 0.169964E+000
 0.150270E+000
 0.125770E+000
 0.947757E-001
 0.547980E-001
 0.207423E-002
-0.692164E-001
 0.280612E+000
 0.279594E+000
 0.278495E+000
 0.277306E+000
 0.276018E+000
 0.274619E+000
 0.273094E+000
 0.271429E+000
 0.269606E+000
 0.267602E+000
 0.265394E+000
 0.262953E+000
 0.260244E+000
 0.257227E+000
 0.253853E+000
 0.250063E+000
 0.245787E+000
 0.240937E+000
 0.235406E+000
 0.229062E+000
 0.221737E+000
 0.213218E+000
 0.203232E+000
 0.191423E+000
 0.177323E+000
 0.160300E+000
 0.139492E+000
 0.113696E+000
 0.811950E-001
 0.394761E-001
-0.152206E-001
-0.886601E-001
 0.278879E+000
 0.277777E+000
 0.276589E+000
 0.275305E+000
 0.273914E+000
 0.272403E+000
 0.270758E+000
 0.268962E+000
 0.266996E+000
 0.264838E+000
 0.262461E+000
 0.259835E+000
 0.256923E+000
 0.253683E+000
 0.250062E+000
 0.246000E+000
 0.241421E+000
 0.236234E+000
 0.230327E+000
 0.223560E+000
 0.215758E+000
 0.206699E+000
 0.196101E+000
 0.183594E+000
 0.168694E+000
 0.150751E+000
 0.128882E+000
 0.101862E+000
 0.679517E-001
 0.246263E-001
-0.318610E-001
-0.107208E+000
 0.277125E+000
 0.275940E+000
 0.274663E+000
 0.273284E+000
 0.271789E+000
 0.270167E+000
 0.268402E+000
 0.266476E+000
 0.264369E+000
 0.262057E+000
 0.259513E+000
 0.256704E+000
 0.253591E+000
 0.250130E+000
 0.246267E+000
 0.241936E+000
 0.237060E+000
 0.231542E+000
 0.225266E+000
 0.218086E+000
 0.209820E+000
 0.200239E+000
 0.189049E+000
 0.175870E+000
 0.160203E+000
 0.141384E+000
 0.118513E+000
 0.903442E-001
 0.551247E-001
 0.103265E-001
-0.477756E-001
-0.124804E+000
 0.275365E+000
 0.274099E+000
 0.272734E+000
 0.271260E+000
 0.269664E+000
 0.267932E+000
 0.266049E+000
 0.263995E+000
 0.261748E+000
 0.259285E+000
 0.256576E+000
 0.253587E+000
 0.250277E+000
 0.246600E+000
 0.242500E+000
 0.237907E+000
 0.232741E+000
 0.226902E+000
 0.220268E+000
 0.212688E+000
 0.203975E+000
 0.193891E+000
 0.182134E+000
 0.168313E+000
 0.151918E+000
 0.132271E+000
 0.108458E+000
 0.792195E-001
 0.427934E-001
-0.334580E-002
-0.628945E-001
-0.141394E+000
 0.273619E+000
 0.272272E+000
 0.270821E+000
 0.269255E+000
 0.267560E+000
 0.265721E+000
 0.263721E+000
 0.261542E+000
 0.259160E+000
 0.256549E+000
 0.253679E+000
 0.250515E+000
 0.247014E+000
 0.243128E+000
 0.238797E+000
 0.233951E+000
 0.228505E+000
 0.222357E+000
 0.215379E+000
 0.207416E+000
 0.198275E+000
 0.187711E+000
 0.175415E+000
 0.160987E+000
 0.143906E+000
 0.123483E+000
 0.987930E-001
 0.685669E-001
 0.310369E-001
-0.163144E-001
-0.771497E-001
-0.156926E+000
 0.271905E+000
 0.270481E+000
 0.268947E+000
 0.267291E+000
 0.265500E+000
 0.263557E+000
 0.261446E+000
 0.259145E+000
 0.256632E+000
 0.253879E+000
 0.250855E+000
 0.247522E+000
 0.243838E+000
 0.239750E+000
 0.235199E+000
 0.230110E+000
 0.224397E+000
 0.217953E+000
 0.210648E+000
 0.202322E+000
 0.192776E+000
 0.181760E+000
 0.168956E+000
 0.153959E+000
 0.136238E+000
 0.115095E+000
 0.895956E-001
 0.584647E-001
 0.199332E-001
-0.285048E-001
-0.904754E-001
-0.171351E+000
 0.270245E+000
 0.268747E+000
 0.267134E+000
 0.265392E+000
 0.263509E+000
 0.261468E+000
 0.259250E+000
 0.256834E+000
 0.254196E+000
 0.251307E+000
 0.248136E+000
 0.244643E+000
 0.240784E+000
 0.236506E+000
 0.231745E+000
 0.226428E+000
 0.220463E+000
 0.213740E+000
 0.206128E+000
 0.197460E+000
 0.187535E+000
 0.176096E+000
 0.162821E+000
 0.147296E+000
 0.128984E+000
 0.107180E+000
 0.809412E-001
 0.489899E-001
 0.955822E-002
-0.398455E-001
-0.102809E+000
-0.184622E+000
 0.268662E+000
 0.267094E+000
 0.265406E+000
 0.263584E+000
 0.261615E+000
 0.259480E+000
 0.257161E+000
 0.254637E+000
 0.251881E+000
 0.248866E+000
 0.245556E+000
 0.241914E+000
 0.237891E+000
 0.233435E+000
 0.228479E+000
 0.222948E+000
 0.216748E+000
 0.209767E+000
 0.201869E+000
 0.192886E+000
 0.182610E+000
 0.170782E+000
 0.157073E+000
 0.141065E+000
 0.122214E+000
 0.998093E-001
 0.729040E-001
 0.402171E-001
-0.149959E-004
-0.502681E-001
-0.114092E+000
-0.196697E+000
 0.267178E+000
 0.265546E+000
 0.263789E+000
 0.261893E+000
 0.259843E+000
 0.257622E+000
 0.255211E+000
 0.252586E+000
 0.249722E+000
 0.246589E+000
 0.243152E+000
 0.239371E+000
 0.235198E+000
 0.230577E+000
 0.225443E+000
 0.219715E+000
 0.213300E+000
 0.206082E+000
 0.197923E+000
 0.188652E+000
 0.178058E+000
 0.165877E+000
 0.151776E+000
 0.135331E+000
 0.115996E+000
 0.930543E-001
 0.655551E-001
 0.322174E-001
-0.871736E-002
-0.597087E-001
-0.124270E+000
-0.207534E+000
 0.265817E+000
 0.264127E+000
 0.262307E+000
 0.260344E+000
 0.258221E+000
 0.255922E+000
 0.253426E+000
 0.250710E+000
 0.247748E+000
 0.244509E+000
 0.240957E+000
 0.237050E+000
 0.232742E+000
 0.227973E+000
 0.222677E+000
 0.216773E+000
 0.210164E+000
 0.202734E+000
 0.194341E+000
 0.184813E+000
 0.173934E+000
 0.161438E+000
 0.146989E+000
 0.130158E+000
 0.110395E+000
 0.869808E-001
 0.589617E-001
 0.250574E-001
-0.164846E-001
-0.681079E-001
-0.133291E+000
-0.217099E+000
 0.264601E+000
 0.262859E+000
 0.260984E+000
 0.258961E+000
 0.256775E+000
 0.254407E+000
 0.251836E+000
 0.249040E+000
 0.245991E+000
 0.242657E+000
 0.239004E+000
 0.234987E+000
 0.230559E+000
 0.225660E+000
 0.220222E+000
 0.214162E+000
 0.207384E+000
 0.199768E+000
 0.191171E+000
 0.181417E+000
 0.170290E+000
 0.157521E+000
 0.142769E+000
 0.125604E+000
 0.105472E+000
 0.816501E-001
 0.531856E-001
 0.187983E-001
-0.232582E-001
-0.754122E-001
-0.141111E+000
-0.225358E+000
 0.263551E+000
 0.261766E+000
 0.259843E+000
 0.257769E+000
 0.255528E+000
 0.253100E+000
 0.250466E+000
 0.247601E+000
 0.244478E+000
 0.241064E+000
 0.237324E+000
 0.233213E+000
 0.228683E+000
 0.223673E+000
 0.218114E+000
 0.211922E+000
 0.205000E+000
 0.197226E+000
 0.188455E+000
 0.178511E+000
 0.167175E+000
 0.154174E+000
 0.139167E+000
 0.121721E+000
 0.101279E+000
 0.771176E-001
 0.482821E-001
 0.134943E-001
-0.289863E-001
-0.815745E-001
-0.147690E+000
-0.232285E+000
 0.262686E+000
 0.260865E+000
 0.258904E+000
 0.256788E+000
 0.254502E+000
 0.252026E+000
 0.249340E+000
 0.246418E+000
 0.243234E+000
 0.239755E+000
 0.235944E+000
 0.231757E+000
 0.227143E+000
 0.222042E+000
 0.216385E+000
 0.210086E+000
 0.203046E+000
 0.195144E+000
 0.186233E+000
 0.176135E+000
 0.164628E+000
 0.151441E+000
 0.136228E+000
 0.118556E+000
 0.978651E-001
 0.734312E-001
 0.442991E-001
 0.919255E-002
-0.336241E-001
-0.865542E-001
-0.152995E+000
-0.237855E+000
 0.262022E+000
 0.260174E+000
 0.258183E+000
 0.256036E+000
 0.253715E+000
 0.251203E+000
 0.248477E+000
 0.245513E+000
 0.242282E+000
 0.238753E+000
 0.234888E+000
 0.230642E+000
 0.225965E+000
 0.220796E+000
 0.215063E+000
 0.208683E+000
 0.201554E+000
 0.193554E+000
 0.184537E+000
 0.174321E+000
 0.162687E+000
 0.149358E+000
 0.133990E+000
 0.116147E+000
 0.952690E-001
 0.706304E-001
 0.412763E-001
 0.593149E-002
-0.371353E-001
-0.903184E-001
-0.156997E+000
-0.242050E+000
 0.261572E+000
 0.259706E+000
 0.257695E+000
 0.255527E+000
 0.253183E+000
 0.250645E+000
 0.247892E+000
 0.244899E+000
 0.241638E+000
 0.238075E+000
 0.234173E+000
 0.229888E+000
 0.225168E+000
 0.219953E+000
 0.214170E+000
 0.207735E+000
 0.200546E+000
 0.192481E+000
 0.183392E+000
 0.173098E+000
 0.161377E+000
 0.147953E+000
 0.132481E+000
 0.114524E+000
 0.935211E-001
 0.687459E-001
 0.392438E-001
 0.374074E-002
-0.394918E-001
-0.928420E-001
-0.159678E+000
-0.244854E+000
 0.261345E+000
 0.259469E+000
 0.257449E+000
 0.255269E+000
 0.252914E+000
 0.250364E+000
 0.247597E+000
 0.244590E+000
 0.241313E+000
 0.237733E+000
 0.233813E+000
 0.229508E+000
 0.224767E+000
 0.219528E+000
 0.213720E+000
 0.207257E+000
 0.200038E+000
 0.191940E+000
 0.182815E+000
 0.172481E+000
 0.160717E+000
 0.147246E+000
 0.131722E+000
 0.113708E+000
 0.926419E-001
 0.677984E-001
 0.382224E-001
 0.264031E-002
-0.406748E-001
-0.941081E-001
-0.161021E+000
-0.246259E+000
 0.261345E+000
 0.259469E+000
 0.257449E+000
 0.255269E+000
 0.252914E+000
 0.250364E+000
 0.247597E+000
 0.244590E+000
 0.241313E+000
 0.237733E+000
 0.233813E+000
 0.229508E+000
 0.224767E+000
 0.219528E+000
 0.213720E+000
 0.207257E+000
 0.200038E+000
 0.191940E+000
 0.182815E+000
 0.172481E+000
 0.160717E+000
 0.147246E+000
 0.131722E+000
 0.113708E+000
 0.926419E-001
 0.677984E-001
 0.382224E-001
 0.264031E-002
-0.406748E-001
-0.941081E-001
-0.161021E+000
-0.246259E+000
 0.261572E+000
 0.259706E+000
 0.257695E+000
 0.255527E+000
 0.253183E+000
 0.250645E+000
 0.247892E+000
 0.244899E+000
 0.241638E+000
 0.238075E+000
 0.234173E+000
 0.229888E+000
 0.225168E+000
 0.219953E+000
 0.214170E+000
 0.207735E+000
 0.200546E+000
 0.192481E+000
 0.183392E+000
 0.173098E+000
 0.161377E+000
 0.147953E+000
 0.132481E+000
 0.114524E+000
 0.935211E-001
 0.687459E-001
 0.392438E-001
 0.374074E-002
-0.394918E-001
-0.928420E-001
-0.159678E+000
-0.244854E+000
 0.262022E+000
 0.260174E+000
 0.258183E+000
 0.256036E+000
 0.253715E+000
 0.251203E+000
 0.248477E+000
 0.245513E+000
 0.242282E+000
 0.238753E+000
 0.234888E+000
 0.230642E+000
 0.225965E+000
 0.220796E+000
 0.215063E+000
 0.208683E+000
 0.201554E+000
 0.193554E+000
 0.184537E+000
 0.174321E+000
 0.162687E+000
 0.149358E+000
 0.133990E+000
 0.116147E+000
 0.952690E-001
 0.706304E-001
 0.412763E-001
 0.593149E-002
-0.371353E-001
-0.903184E-001
-0.156997E+000
-0.242050E+000
 0.262686E+000
 0.260865E+000
 0.258904E+000
 0.256788E+000
 0.254502E+000
 0.252026E+000
 0.249340E+000
 0.246418E+000
 0.243234E+000
 0.239755E+000
 0.235944E+000
 0.231757E+000
 0.227143E+000
 0.222042E+000
 0.216385E+000
 0.210086E+000
 0.203046E+000
 0.195144E+000
 0.186233E+000
 0.176135E+000
 0.164628E+000
 0.151441E+000
 0.136228E+000
 0.118556E+000
 0.978651E-001
 0.734312E-001
 0.442991E-001
 0.919255E-002
-0.336241E-001
-0.865542E-001
-0.152995E+000
-0.237855E+000
 0.263551E+000
 0.261766E+000
 0.259843E+000
 0.257769E+000
 0.255528E+000
 0.253100E+000
 0.250466E+000
 0.247601E+000
 0.244478E+000
 0.241064E+000
 0.237324E+000
 0.233213E+000
 0.228683E+000
 0.223673E+000
 0.218114E+000
 0.211922E+000
 0.205000E+000
 0.197226E+000
 0.188455E+000
 0.178511E+000
 0.167175E+000
 0.154174E+000
 0.139167E+000
 0.121721E+000
 0.101279E+000
 0.771176E-001
 0.482821E-001
 0.134943E-001
-0.289863E-001
-0.815745E-001
-0.147690E+000
-0.232285E+000
 0.264601E+000
 0.262859E+000
 0.260984E+000
 0.258961E+000
 0.256775E+000
 0.254407E+000
 0.251836E+000
 0.249040E+000
 0.245991E+000
 0.242657E+000
 0.239004E+000
 0.234987E+000
 0.230559E+000
 0.225660E+000
 0.220222E+000
 0.214162E+000
 0.207384E+000
 0.199768E+000
 0.191171E+000
 0.181417E+000
 0.170290E+000
 0.157521E+000
 0.142769E+000
 0.125604E+000
 0.105472E+000
 0.816501E-001
 0.531856E-001
 0.187983E-001
-0.232582E-001
-0.754122E-001
-0.141111E+000
-0.225358E+000
 0.265817E+000
 0.264127E+000
 0.262307E+000
 0.260344E+000
 0.258221E+000
 0.255922E+000
 0.253426E+000
 0.250710E+000
 0.247748E+000
 0.244509E+000
 0.240957E+000
 0.237050E+000
 0.232742E+000
 0.227973E+000
 0.222677E+000
 0.216773E+000
 0.210164E+000
 0.202734E+000
 0.194341E+000
 0.184813E+000
 0.173934E+000
 0.161438E+000
 0.146989E+000
 0.130158E+000
 0.110395E+000
 0.869808E-001
 0.589617E-001
 0.250574E-001
-0.164846E-001
-0.681079E-001
-0.133291E+000
-0.217099E+000
 0.267178E+000
 0.265546E+000
 0.263789E+000
 0.261893E+000
 0.259843E+000
 0.257622E+000
 0.255211E+000
 0.252586E+000
 0.249722E+000
 0.246589E+000
 0.243152E+000
 0.239371E+000
 0.235198E+000
 0.230577E+000
 0.225443E+000
 0.219715E+000
 0.213300E+000
 0.206082E+000
 0.197923E+000
 0.188652E+000
 0.178058E+000
 0.165877E+000
 0.151776E+000
 0.135331E+000
 0.115996E+000
 0.930543E-001
 0.655551E-001
 0.322174E-001
-0.871736E-002
-0.597087E-001
-0.124270E+000
-0.207534E+000
 0.268662E+000
 0.267094E+000
 0.265406E+000
 0.263584E+000
 0.261615E+000
 0.259480E+000
 0.257161E+000
 0.254637E+000
 0.251881E+000
 0.248866E+000
 0.245556E+000
 0.241914E+000
 0.237891E+000
 0.233435E+000
 0.228479E+000
 0.222948E+000
 0.216748E+000
 0.209767E+000
 0.201869E+000
 0.192886E+000
 0.182610E+000
 0.170782E+000
 0.157073E+000
 0.141065E+000
 0.122214E+000
 0.998093E-001
 0.729040E-001
 0.402171E-001
-0.149959E-004
-0.502681E-001
-0.114092E+000
-0.196697E+000
 0.270245E+000
 0.268747E+000
 0.267134E+000
 0.265392E+000
 0.263509E+000
 0.261468E+000
 0.259250E+000
 0.256834E+000
 0.254196E+000
 0.251307E+000
 0.248136E+000
 0.244643E+000
 0.240784E+000
 0.236506E+000
 0.231745E+000
 0.226428E+000
 0.220463E+000
 0.213740E+000
 0.206128E+000
 0.197460E+000
 0.187535E+000
 0.176096E+000
 0.162821E+000
 0.147296E+000
 0.128984E+000
 0.107180E+000
 0.809412E-001
 0.489899E-001
 0.955822E-002
-0.398455E-001
-0.102809E+000
-0.184622E+000
 0.271905E+000
 0.270481E+000
 0.268947E+000
 0.267291E+000
 0.265500E+000
 0.263557E+000
 0.261446E+000
 0.259145E+000
 0.256632E+000
 0.253879E+000
 0.250855E+000
 0.247522E+000
 0.243838E+000
 0.239750E+000
 0.235199E+000
 0.230110E+000
 0.224397E+000
 0.217953E+000
 0.210648E+000
 0.202322E+000
 0.192776E+000
 0.181760E+000
 0.168956E+000
 0.153959E+000
 0.136238E+000
 0.115095E+000
 0.895956E-001
 0.584647E-001
 0.199332E-001
-0.285048E-001
-0.904754E-001
-0.171351E+000
 0.273619E+000
 0.272272E+000
 0.270821E+000
 0.269255E+000
 0.267560E+000
 0.265721E+000
 0.263721E+000
 0.261542E+000
 0.259160E+000
 0.256549E+000
 0.253679E+000
 0.250515E+000
 0.247014E+000
 0.243128E+000
 0.238797E+000
 0.233951E+000
 0.228505E+000
 0.222357E+000
 0.215379E+000
 0.207416E+000
 0.198275E+000
 0.187711E+000
 0.175415E+000
 0.160987E+000
 0.143906E+000
 0.123483E+000
 0.987930E-001
 0.685669E-001
 0.310369E-001
-0.163144E-001
-0.771497E-001
-0.156926E+000
 0.275365E+000
 0.274099E+000
 0.272734E+000
 0.271260E+000
 0.269664E+000
 0.267932E+000
 0.266049E+000
 0.263995E+000
 0.261748E+000
 0.259285E+000
 0.256576E+000
 0.253587E+000
 0.250277E+000
 0.246600E+000
 0.242500E+000
 0.237907E+000
 0.232741E+000
 0.226902E+000
 0.220268E+000
 0.212688E+000
 0.203975E+000
 0.193891E+000
 0.182134E+000
 0.168313E+000
 0.151918E+000
 0.132271E+000
 0.108458E+000
 0.792195E-001
 0.427934E-001
-0.334580E-002
-0.628945E-001
-0.141394E+000
 0.277125E+000
 0.275940E+000
 0.274663E+000
 0.273284E+000
 0.271789E+000
 0.270167E+000
 0.268402E+000
 0.266476E+000
 0.264369E+000
 0.262057E+000
 0.259513E+000
 0.256704E+000
 0.253591E+000
 0.250130E+000
 0.246267E+000
 0.241936E+000
 0.237060E+000
 0.231542E+000
 0.225266E+000
 0.218086E+000
 0.209820E+000
 0.200239E+000
 0.189049E+000
 0.175870E+000
 0.160203E+000
 0.141384E+000
 0.118513E+000
 0.903442E-001
 0.551247E-001
 0.103265E-001
-0.477756E-001
-0.124804E+000
 0.278879E+000
 0.277777E+000
 0.276589E+000
 0.275305E+000
 0.273914E+000
 0.272403E+000
 0.270758E+000
 0.268962E+000
 0.266996E+000
 0.264838E+000
 0.262461E+000
 0.259835E+000
 0.256923E+000
 0.253683E+000
 0.250062E+000
 0.246000E+000
 0.241421E+000
 0.236234E+000
 0.230327E+000
 0.223560E+000
 0.215758E+000
 0.206699E+000
 0.196101E+000
 0.183594E+000
 0.168694E+000
 0.150751E+000
 0.128882E+000
 0.101862E+000
 0.679517E-001
 0.246263E-001
-0.318610E-001
-0.107208E+000
 0.280612E+000
 0.279594E+000
 0.278495E+000
 0.277306E+000
 0.276018E+000
 0.274619E+000
 0.273094E+000
 0.271429E+000
 0.269606E+000
 0.267602E+000
 0.265394E+000
 0.262953E+000
 0.260244E+000
 0.257227E+000
 0.253853E+000
 0.250063E+000
 0.245787E+000
 0.240937E+000
 0.235406E+000
 0.229062E+000
 0.221737E+000
 0.213218E+000
 0.203232E+000
 0.191423E+000
 0.177323E+000
 0.160300E+000
 0.139492E+000
 0.113696E+000
 0.811950E-001
 0.394761E-001
-0.152206E-001
-0.886601E-001
 0.282310E+000
 0.281374E+000
 0.280364E+000
 0.279271E+000
 0.278086E+000
 0.276797E+000
 0.275393E+000
 0.273858E+000
 0.272176E+000
 0.270327E+000
 0.268288E+000
 0.266032E+000
 0.263526E+000
 0.260733E+000
 0.257607E+000
 0.254092E+000
 0.250121E+000
 0.245613E+000
 0.240465E+000
 0.234551E+000
 0.227711E+000
 0.219744E+000
 0.210387E+000
 0.199300E+000
 0.186029E+000
 0.169964E+000
 0.150270E+000
 0.125770E+000
 0.947757E-001
 0.547980E-001
 0.207423E-002
-0.692164E-001
 0.283962E+000
 0.283107E+000
 0.282184E+000
 0.281185E+000
 0.280101E+000
 0.278922E+000
 0.277637E+000
 0.276231E+000
 0.274689E+000
 0.272994E+000
 0.271122E+000
 0.269050E+000
 0.266747E+000
 0.264178E+000
 0.261299E+000
 0.258059E+000
 0.254394E+000
 0.250229E+000
 0.245466E+000
 0.239986E+000
 0.233640E+000
 0.226233E+000
 0.217518E+000
 0.207169E+000
 0.194752E+000
 0.179680E+000
 0.161146E+000
 0.138008E+000
 0.108616E+000
 0.705141E-001
 0.199511E-001
-0.489344E-001
 0.285557E+000
 0.284782E+000
 0.283944E+000
 0.283037E+000
 0.282053E+000
 0.280981E+000
 0.279812E+000
 0.278533E+000
 0.277130E+000
 0.275585E+000
 0.273880E+000
 0.271989E+000
 0.269886E+000
 0.267538E+000
 0.264905E+000
 0.261938E+000
 0.258579E+000
 0.254755E+000
 0.250378E+000
 0.245335E+000
 0.239484E+000
 0.232643E+000
 0.224579E+000
 0.214981E+000
 0.203438E+000
 0.189389E+000
 0.172056E+000
 0.150342E+000
 0.122641E+000
 0.865471E-001
 0.383371E-001
-0.278732E-001
 0.287087E+000
 0.286390E+000
 0.285636E+000
 0.284819E+000
 0.283931E+000
 0.282964E+000
 0.281909E+000
 0.280754E+000
 0.279486E+000
 0.278089E+000
 0.276545E+000
 0.274833E+000
 0.272927E+000
 0.270797E+000
 0.268406E+000
 0.265709E+000
 0.262652E+000
 0.259168E+000
 0.255174E+000
 0.250566E+000
 0.245210E+000
 0.238939E+000
 0.231530E+000
 0.222693E+000
 0.212038E+000
 0.199034E+000
 0.182940E+000
 0.162703E+000
 0.136778E+000
 0.102821E+000
 0.571596E-001
-0.609246E-002
 0.288548E+000
 0.287926E+000
 0.287252E+000
 0.286522E+000
 0.285728E+000
 0.284863E+000
 0.283918E+000
 0.282883E+000
 0.281746E+000
 0.280493E+000
 0.279108E+000
 0.277570E+000
 0.275856E+000
 0.273939E+000
 0.271785E+000
 0.269354E+000
 0.266594E+000
 0.263445E+000
 0.259831E+000
 0.255653E+000
 0.250792E+000
 0.245087E+000
 0.238335E+000
 0.230264E+000
 0.220508E+000
 0.208567E+000
 0.193741E+000
 0.175029E+000
 0.150956E+000
 0.119261E+000
 0.763457E-001
 0.163475E-001
 0.289935E+000
 0.289385E+000
 0.288788E+000
 0.288141E+000
 0.287438E+000
 0.286671E+000
 0.285833E+000
 0.284914E+000
 0.283904E+000
 0.282791E+000
 0.281558E+000
 0.280189E+000
 0.278662E+000
 0.276953E+000
 0.275031E+000
 0.272858E+000
 0.270390E+000
 0.267570E+000
 0.264328E+000
 0.260577E+000
 0.256203E+000
 0.251062E+000
 0.244965E+000
 0.237660E+000
 0.228808E+000
 0.217943E+000
 0.204408E+000
 0.187262E+000
 0.165110E+000
 0.135795E+000
 0.958232E-001
 0.393861E-001
 0.291246E+000
 0.290764E+000
 0.290241E+000
 0.289674E+000
 0.289057E+000
 0.288385E+000
 0.287649E+000
 0.286842E+000
 0.285954E+000
 0.284974E+000
 0.283890E+000
 0.282684E+000
 0.281338E+000
 0.279830E+000
 0.278132E+000
 0.276212E+000
 0.274027E+000
 0.271528E+000
 0.268652E+000
 0.265318E+000
 0.261425E+000
 0.256841E+000
 0.251393E+000
 0.244852E+000
 0.236904E+000
 0.227122E+000
 0.214897E+000
 0.199350E+000
 0.179177E+000
 0.152352E+000
 0.115520E+000
 0.629634E-001
 0.292478E+000
 0.292061E+000
 0.291610E+000
 0.291119E+000
 0.290584E+000
 0.290001E+000
 0.289363E+000
 0.288663E+000
 0.287892E+000
 0.287041E+000
 0.286098E+000
 0.285049E+000
 0.283878E+000
 0.282564E+000
 0.281083E+000
 0.279406E+000
 0.277497E+000
 0.275310E+000
 0.272790E+000
 0.269865E+000
 0.266443E+000
 0.262406E+000
 0.257599E+000
 0.251814E+000
 0.244768E+000
 0.236071E+000
 0.225167E+000
 0.211245E+000
 0.193102E+000
 0.168864E+000
 0.135366E+000
 0.870196E-001
 0.293633E+000
 0.293278E+000
 0.292892E+000
 0.292474E+000
 0.292018E+000
 0.291520E+000
 0.290975E+000
 0.290376E+000
 0.289717E+000
 0.288989E+000
 0.288182E+000
 0.287283E+000
 0.286278E+000
 0.285151E+000
 0.283879E+000
 0.282437E+000
 0.280793E+000
 0.278909E+000
 0.276734E+000
 0.274206E+000
 0.271244E+000
 0.267743E+000
 0.263566E+000
 0.258528E+000
 0.252376E+000
 0.244759E+000
 0.235182E+000
 0.222907E+000
 0.206834E+000
 0.185267E+000
 0.155288E+000
 0.111496E+000
 0.294710E+000
 0.294413E+000
 0.294090E+000
 0.293740E+000
 0.293358E+000
 0.292941E+000
 0.292484E+000
 0.291982E+000
 0.291429E+000
 0.290818E+000
 0.290139E+000
 0.289384E+000
 0.288538E+000
 0.287589E+000
 0.286517E+000
 0.285300E+000
 0.283913E+000
 0.282319E+000
 0.280478E+000
 0.278334E+000
 0.275819E+000
 0.272841E+000
 0.269280E+000
 0.264977E+000
 0.259708E+000
 0.253165E+000
 0.244913E+000
 0.234298E+000
 0.220327E+000
 0.201498E+000
 0.175214E+000
 0.136336E+000
 0.295711E+000
 0.295468E+000
 0.295205E+000
 0.294919E+000
 0.294607E+000
 0.294266E+000
 0.293892E+000
 0.293481E+000
 0.293028E+000
 0.292527E+000
 0.291972E+000
 0.291352E+000
 0.290658E+000
 0.289878E+000
 0.288998E+000
 0.287996E+000
 0.286854E+000
 0.285540E+000
 0.284019E+000
 0.282248E+000
 0.280163E+000
 0.277695E+000
 0.274734E+000
 0.271148E+000
 0.266750E+000
 0.261268E+000
 0.254332E+000
 0.245387E+000
 0.233544E+000
 0.217501E+000
 0.195068E+000
 0.161483E+000
 0.296638E+000
 0.296447E+000
 0.296239E+000
 0.296013E+000
 0.295766E+000
 0.295496E+000
 0.295201E+000
 0.294876E+000
 0.294518E+000
 0.294121E+000
 0.293681E+000
 0.293190E+000
 0.292639E+000
 0.292021E+000
 0.291321E+000
 0.290527E+000
 0.289616E+000
 0.288571E+000
 0.287358E+000
 0.285942E+000
 0.284278E+000
 0.282295E+000
 0.279925E+000
 0.277033E+000
 0.273489E+000
 0.269056E+000
 0.263420E+000
 0.256141E+000
 0.246457E+000
 0.233226E+000
 0.214770E+000
 0.186883E+000
 0.297495E+000
 0.297351E+000
 0.297195E+000
 0.297024E+000
 0.296839E+000
 0.296636E+000
 0.296414E+000
 0.296169E+000
 0.295900E+000
 0.295601E+000
 0.295270E+000
 0.294900E+000
 0.294486E+000
 0.294019E+000
 0.293492E+000
 0.292890E+000
 0.292206E+000
 0.291411E+000
 0.290497E+000
 0.289420E+000
 0.288158E+000
 0.286650E+000
 0.284836E+000
 0.282640E+000
 0.279906E+000
 0.276523E+000
 0.272161E+000
 0.266534E+000
 0.259038E+000
 0.248641E+000
 0.234223E+000
 0.212481E+000
 0.298285E+000
 0.298184E+000
 0.298075E+000
 0.297957E+000
 0.297828E+000
 0.297688E+000
 0.297534E+000
 0.297365E+000
 0.297178E+000
 0.296972E+000
 0.296742E+000
 0.296487E+000
 0.296200E+000
 0.295878E+000
 0.295511E+000
 0.295097E+000
 0.294618E+000
 0.294073E+000
 0.293430E+000
 0.292690E+000
 0.291799E+000
 0.290759E+000
 0.289481E+000
 0.287945E+000
 0.286031E+000
 0.283622E+000
 0.280586E+000
 0.276514E+000
 0.271273E+000
 0.263729E+000
 0.253330E+000
 0.238199E+000
 0.299010E+000
 0.298949E+000
 0.298884E+000
 0.298814E+000
 0.298738E+000
 0.298655E+000
 0.298565E+000
 0.298466E+000
 0.298357E+000
 0.298237E+000
 0.298103E+000
 0.297954E+000
 0.297787E+000
 0.297599E+000
 0.297387E+000
 0.297145E+000
 0.296869E+000
 0.296547E+000
 0.296179E+000
 0.295736E+000
 0.295232E+000
 0.294600E+000
 0.293879E+000
 0.292940E+000
 0.291851E+000
 0.290386E+000
 0.288613E+000
 0.286183E+000
 0.282983E+000
 0.278645E+000
 0.271866E+000
 0.264010E+000
 0.299677E+000
 0.299651E+000
 0.299625E+000
 0.299600E+000
 0.299572E+000
 0.299543E+000
 0.299512E+000
 0.299478E+000
 0.299441E+000
 0.299401E+000
 0.299357E+000
 0.299307E+000
 0.299253E+000
 0.299191E+000
 0.299122E+000
 0.299044E+000
 0.298954E+000
 0.298852E+000
 0.298730E+000
 0.298593E+000
 0.298420E+000
 0.298230E+000
 0.297972E+000
 0.297700E+000
 0.297292E+000
 0.296882E+000
 0.296189E+000
 0.295531E+000
 0.294236E+000
 0.293122E+000
 0.290284E+000
 0.288930E+000
 0.300295E+000
 0.300303E+000
 0.300317E+000
 0.300333E+000
 0.300352E+000
 0.300374E+000
 0.300398E+000
 0.300426E+000
 0.300457E+000
 0.300492E+000
 0.300532E+000
 0.300577E+000
 0.300627E+000
 0.300685E+000
 0.300751E+000
 0.300826E+000
 0.300914E+000
 0.301014E+000
 0.301133E+000
 0.301269E+000
 0.301436E+000
 0.301625E+000
 0.301870E+000
 0.302145E+000
 0.302522E+000
 0.302942E+000
 0.303561E+000
 0.304257E+000
 0.305377E+000
 0.306673E+000
 0.309026E+000
 0.312361E+000
 0.300947E+000
 0.300997E+000
 0.301052E+000
 0.301114E+000
 0.301182E+000
 0.301258E+000
 0.301342E+000
 0.301435E+000
 0.301539E+000
 0.301654E+000
 0.301783E+000
 0.301928E+000
 0.302091E+000
 0.302275E+000
 0.302485E+000
 0.302724E+000
 0.302998E+000
 0.303316E+000
 0.303684E+000
 0.304119E+000
 0.304628E+000
 0.305241E+000
 0.305978E+000
 0.306873E+000
 0.307999E+000
 0.309374E+000
 0.311218E+000
 0.313475E+000
 0.316807E+000
 0.320868E+000
 0.327896E+000
 0.336419E+000
 0.301663E+000
 0.301754E+000
 0.301855E+000
 0.301966E+000
 0.302088E+000
 0.302222E+000
 0.302370E+000
 0.302534E+000
 0.302715E+000
 0.302917E+000
 0.303142E+000
 0.303394E+000
 0.303677E+000
 0.303996E+000
 0.304358E+000
 0.304771E+000
 0.305245E+000
 0.305792E+000
 0.306426E+000
 0.307171E+000
 0.308045E+000
 0.309099E+000
 0.310344E+000
 0.311903E+000
 0.313762E+000
 0.316196E+000
 0.319163E+000
 0.323220E+000
 0.328431E+000
 0.335821E+000
 0.346494E+000
 0.361658E+000
 0.302444E+000
 0.302581E+000
 0.302730E+000
 0.302894E+000
 0.303073E+000
 0.303270E+000
 0.303487E+000
 0.303726E+000
 0.303991E+000
 0.304285E+000
 0.304612E+000
 0.304978E+000
 0.305389E+000
 0.305852E+000
 0.306377E+000
 0.306974E+000
 0.307659E+000
 0.308446E+000
 0.309364E+000
 0.310429E+000
 0.311698E+000
 0.313186E+000
 0.315007E+000
 0.317179E+000
 0.319906E+000
 0.323269E+000
 0.327589E+000
 0.333200E+000
 0.340625E+000
 0.350952E+000
 0.365535E+000
 0.387005E+000
 0.303294E+000
 0.303479E+000
 0.303680E+000
 0.303901E+000
 0.304142E+000
 0.304406E+000
 0.304696E+000
 0.305016E+000
 0.305370E+000
 0.305762E+000
 0.306199E+000
 0.306686E+000
 0.307233E+000
 0.307849E+000
 0.308545E+000
 0.309338E+000
 0.310243E+000
 0.311289E+000
 0.312494E+000
 0.313911E+000
 0.315565E+000
 0.317547E+000
 0.319907E+000
 0.322786E+000
 0.326318E+000
 0.330724E+000
 0.336331E+000
 0.343579E+000
 0.353189E+000
 0.366384E+000
 0.384887E+000
 0.412335E+000
 0.304216E+000
 0.304452E+000
 0.304709E+000
 0.304990E+000
 0.305297E+000
 0.305633E+000
 0.306002E+000
 0.306408E+000
 0.306857E+000
 0.307353E+000
 0.307906E+000
 0.308522E+000
 0.309213E+000
 0.309989E+000
 0.310868E+000
 0.311865E+000
 0.313006E+000
 0.314315E+000
 0.315834E+000
 0.317599E+000
 0.319680E+000
 0.322142E+000
 0.325092E+000
 0.328667E+000
 0.333049E+000
 0.338505E+000
 0.345414E+000
 0.354317E+000
 0.366092E+000
 0.382100E+000
 0.404478E+000
 0.437537E+000
 0.305211E+000
 0.305502E+000
 0.305819E+000
 0.306165E+000
 0.306541E+000
 0.306954E+000
 0.307406E+000
 0.307904E+000
 0.308453E+000
 0.309061E+000
 0.309736E+000
 0.310488E+000
 0.311330E+000
 0.312277E+000
 0.313345E+000
 0.314560E+000
 0.315943E+000
 0.317535E+000
 0.319371E+000
 0.321511E+000
 0.324021E+000
 0.326991E+000
 0.330542E+000
 0.334834E+000
 0.340083E+000
 0.346602E+000
 0.354824E+000
 0.365391E+000
 0.379300E+000
 0.398077E+000
 0.424226E+000
 0.462535E+000
 0.306283E+000
 0.306633E+000
 0.307013E+000
 0.307426E+000
 0.307878E+000
 0.308371E+000
 0.308912E+000
 0.309506E+000
 0.310162E+000
 0.310886E+000
 0.311690E+000
 0.312586E+000
 0.313588E+000
 0.314712E+000
 0.315982E+000
 0.317420E+000
 0.319061E+000
 0.320942E+000
 0.323113E+000
 0.325636E+000
 0.328592E+000
 0.332085E+000
 0.336252E+000
 0.341276E+000
 0.347409E+000
 0.355000E+000
 0.364544E+000
 0.376768E+000
 0.392779E+000
 0.414271E+000
 0.444054E+000
 0.487261E+000
 0.307432E+000
 0.307844E+000
 0.308291E+000
 0.308777E+000
 0.309307E+000
 0.309886E+000
 0.310520E+000
 0.311216E+000
 0.311983E+000
 0.312831E+000
 0.313771E+000
 0.314817E+000
 0.315985E+000
 0.317297E+000
 0.318774E+000
 0.320448E+000
 0.322354E+000
 0.324537E+000
 0.327054E+000
 0.329974E+000
 0.333389E+000
 0.337417E+000
 0.342213E+000
 0.347983E+000
 0.355009E+000
 0.363680E+000
 0.374547E+000
 0.388416E+000
 0.406492E+000
 0.430630E+000
 0.463889E+000
 0.511650E+000
 0.308659E+000
 0.309137E+000
 0.309654E+000
 0.310217E+000
 0.310830E+000
 0.311499E+000
 0.312231E+000
 0.313034E+000
 0.313918E+000
 0.314895E+000
 0.315977E+000
 0.317180E+000
 0.318522E+000
 0.320028E+000
 0.321723E+000
 0.323640E+000
 0.325821E+000
 0.328316E+000
 0.331188E+000
 0.334516E+000
 0.338402E+000
 0.342977E+000
 0.348413E+000
 0.354939E+000
 0.362866E+000
 0.372619E+000
 0.384805E+000
 0.400297E+000
 0.420394E+000
 0.447096E+000
 0.483657E+000
 0.535638E+000
 0.309964E+000
 0.310511E+000
 0.311103E+000
 0.311746E+000
 0.312445E+000
 0.313208E+000
 0.314043E+000
 0.314958E+000
 0.315965E+000
 0.317075E+000
 0.318305E+000
 0.319671E+000
 0.321195E+000
 0.322902E+000
 0.324821E+000
 0.326991E+000
 0.329456E+000
 0.332272E+000
 0.335508E+000
 0.339254E+000
 0.343620E+000
 0.348751E+000
 0.354836E+000
 0.362124E+000
 0.370954E+000
 0.381788E+000
 0.395280E+000
 0.412368E+000
 0.434436E+000
 0.463606E+000
 0.503288E+000
 0.559162E+000
 0.311346E+000
 0.311965E+000
 0.312634E+000
 0.313361E+000
 0.314151E+000
 0.315012E+000
 0.315954E+000
 0.316985E+000
 0.318119E+000
 0.319369E+000
 0.320752E+000
 0.322288E+000
 0.323998E+000
 0.325913E+000
 0.328064E+000
 0.330492E+000
 0.333248E+000
 0.336393E+000
 0.340002E+000
 0.344173E+000
 0.349027E+000
 0.354720E+000
 0.361459E+000
 0.369512E+000
 0.379245E+000
 0.391153E+000
 0.405934E+000
 0.424583E+000
 0.448562E+000
 0.480095E+000
 0.522707E+000
 0.582158E+000
 0.312802E+000
 0.313496E+000
 0.314246E+000
 0.315059E+000
 0.315943E+000
 0.316907E+000
 0.317958E+000
 0.319111E+000
 0.320376E+000
 0.321770E+000
 0.323311E+000
 0.325021E+000
 0.326924E+000
 0.329052E+000
 0.331440E+000
 0.334134E+000
 0.337187E+000
 0.340666E+000
 0.344655E+000
 0.349256E+000
 0.354603E+000
 0.360863E+000
 0.368258E+000
 0.377076E+000
 0.387705E+000
 0.400674E+000
 0.416720E+000
 0.436889E+000
 0.462711E+000
 0.496493E+000
 0.541844E+000
 0.604565E+000
 0.314328E+000
 0.315099E+000
 0.315932E+000
 0.316836E+000
 0.317817E+000
 0.318885E+000
 0.320051E+000
 0.321327E+000
 0.322728E+000
 0.324270E+000
 0.325974E+000
 0.327861E+000
 0.329962E+000
 0.332307E+000
 0.334937E+000
 0.337901E+000
 0.341256E+000
 0.345075E+000
 0.349446E+000
 0.354482E+000
 0.360324E+000
 0.367152E+000
 0.375201E+000
 0.384779E+000
 0.396295E+000
 0.410307E+000
 0.427588E+000
 0.449229E+000
 0.476818E+000
 0.512727E+000
 0.560623E+000
 0.626319E+000
 0.315917E+000
 0.316768E+000
 0.317687E+000
 0.318683E+000
 0.319764E+000
 0.320940E+000
 0.322223E+000
 0.323626E+000
 0.325165E+000
 0.326858E+000
 0.328727E+000
 0.330797E+000
 0.333097E+000
 0.335664E+000
 0.338540E+000
 0.341777E+000
 0.345437E+000
 0.349597E+000
 0.354354E+000
 0.359826E+000
 0.366163E+000
 0.373556E+000
 0.382255E+000
 0.392583E+000
 0.404971E+000
 0.420002E+000
 0.438482E+000
 0.461541E+000
 0.490814E+000
 0.528724E+000
 0.578973E+000
 0.647360E+000
 0.317563E+000
 0.318495E+000
 0.319502E+000
 0.320592E+000
 0.321775E+000
 0.323061E+000
 0.324462E+000
 0.325995E+000
 0.327674E+000
 0.329521E+000
 0.331558E+000
 0.333812E+000
 0.336315E+000
 0.339105E+000
 0.342228E+000
 0.345739E+000
 0.349706E+000
 0.354209E+000
 0.359350E+000
 0.365256E+000
 0.372085E+000
 0.380039E+000
 0.389378E+000
 0.400443E+000
 0.413683E+000
 0.429705E+000
 0.449342E+000
 0.473759E+000
 0.504627E+000
 0.544407E+000
 0.596818E+000
 0.667625E+000
 0.319255E+000
 0.320270E+000
 0.321366E+000
 0.322552E+000
 0.323837E+000
 0.325234E+000
 0.326756E+000
 0.328419E+000
 0.330241E+000
 0.332242E+000
 0.334448E+000
 0.336887E+000
 0.339593E+000
 0.342608E+000
 0.345979E+000
 0.349765E+000
 0.354036E+000
 0.358880E+000
 0.364404E+000
 0.370739E+000
 0.378053E+000
 0.386558E+000
 0.396526E+000
 0.408309E+000
 0.422377E+000
 0.439356E+000
 0.460103E+000
 0.485811E+000
 0.518182E+000
 0.559700E+000
 0.614086E+000
 0.687055E+000
 0.320982E+000
 0.322081E+000
 0.323266E+000
 0.324547E+000
 0.325936E+000
 0.327445E+000
 0.329088E+000
 0.330882E+000
 0.332846E+000
 0.335002E+000
 0.337377E+000
 0.340001E+000
 0.342910E+000
 0.346148E+000
 0.349765E+000
 0.353823E+000
 0.358397E+000
 0.363578E+000
 0.369478E+000
 0.376236E+000
 0.384026E+000
 0.393069E+000
 0.403648E+000
 0.416129E+000
 0.430995E+000
 0.448892E+000
 0.470696E+000
 0.497624E+000
 0.531400E+000
 0.574523E+000
 0.630704E+000
 0.705592E+000
 0.322730E+000
 0.323912E+000
 0.325186E+000
 0.326564E+000
 0.328056E+000
 0.329676E+000
 0.331439E+000
 0.333364E+000
 0.335469E+000
 0.337779E+000
 0.340322E+000
 0.343129E+000
 0.346239E+000
 0.349697E+000
 0.353557E+000
 0.357883E+000
 0.362754E+000
 0.368266E+000
 0.374534E+000
 0.381704E+000
 0.389957E+000
 0.399522E+000
 0.410692E+000
 0.423844E+000
 0.439474E+000
 0.458245E+000
 0.481049E+000
 0.509123E+000
 0.544205E+000
 0.588800E+000
 0.646599E+000
 0.723179E+000
 0.324483E+000
 0.325747E+000
 0.327110E+000
 0.328582E+000
 0.330176E+000
 0.331906E+000
 0.333788E+000
 0.335841E+000
 0.338086E+000
 0.340547E+000
 0.343255E+000
 0.346242E+000
 0.349549E+000
 0.353223E+000
 0.357320E+000
 0.361908E+000
 0.367069E+000
 0.372901E+000
 0.379527E+000
 0.387096E+000
 0.395796E+000
 0.405863E+000
 0.417599E+000
 0.431391E+000
 0.447748E+000
 0.467345E+000
 0.491089E+000
 0.520229E+000
 0.556516E+000
 0.602451E+000
 0.661701E+000
 0.739761E+000
 0.326222E+000
 0.327567E+000
 0.329016E+000
 0.330582E+000
 0.332276E+000
 0.334113E+000
 0.336111E+000
 0.338290E+000
 0.340670E+000
 0.343280E+000
 0.346148E+000
 0.349310E+000
 0.352808E+000
 0.356691E+000
 0.361019E+000
 0.365860E+000
 0.371300E+000
 0.377442E+000
 0.384411E+000
 0.392362E+000
 0.401490E+000
 0.412036E+000
 0.424309E+000
 0.438708E+000
 0.455749E+000
 0.476119E+000
 0.500738E+000
 0.530865E+000
 0.568253E+000
 0.615402E+000
 0.675942E+000
 0.755287E+000
 0.327929E+000
 0.329352E+000
 0.330885E+000
 0.332540E+000
 0.334331E+000
 0.336272E+000
 0.338383E+000
 0.340682E+000
 0.343194E+000
 0.345946E+000
 0.348969E+000
 0.352299E+000
 0.355981E+000
 0.360066E+000
 0.364613E+000
 0.369697E+000
 0.375404E+000
 0.381840E+000
 0.389136E+000
 0.397451E+000
 0.406982E+000
 0.417980E+000
 0.430760E+000
 0.445726E+000
 0.463407E+000
 0.484495E+000
 0.509921E+000
 0.540951E+000
 0.579341E+000
 0.627576E+000
 0.689256E+000
 0.769707E+000
 0.329582E+000
 0.331079E+000
 0.332692E+000
 0.334433E+000
 0.336316E+000
 0.338357E+000
 0.340575E+000
 0.342990E+000
 0.345627E+000
 0.348514E+000
 0.351684E+000
 0.355175E+000
 0.359031E+000
 0.363306E+000
 0.368063E+000
 0.373375E+000
 0.379334E+000
 0.386049E+000
 0.393652E+000
 0.402307E+000
 0.412217E+000
 0.423637E+000
 0.436887E+000
 0.452380E+000
 0.470651E+000
 0.492399E+000
 0.518563E+000
 0.550411E+000
 0.589701E+000
 0.638903E+000
 0.701579E+000
 0.782973E+000
 0.331158E+000
 0.332726E+000
 0.334414E+000
 0.336236E+000
 0.338206E+000
 0.340340E+000
 0.342659E+000
 0.345183E+000
 0.347938E+000
 0.350952E+000
 0.354260E+000
 0.357901E+000
 0.361921E+000
 0.366374E+000
 0.371325E+000
 0.376852E+000
 0.383045E+000
 0.390018E+000
 0.397906E+000
 0.406877E+000
 0.417137E+000
 0.428945E+000
 0.442628E+000
 0.458603E+000
 0.477411E+000
 0.499759E+000
 0.526588E+000
 0.559171E+000
 0.599261E+000
 0.649314E+000
 0.712854E+000
 0.795044E+000
 0.332635E+000
 0.334268E+000
 0.336026E+000
 0.337923E+000
 0.339973E+000
 0.342194E+000
 0.344606E+000
 0.347230E+000
 0.350094E+000
 0.353226E+000
 0.356662E+000
 0.360441E+000
 0.364611E+000
 0.369228E+000
 0.374359E+000
 0.380081E+000
 0.386490E+000
 0.393699E+000
 0.401847E+000
 0.411105E+000
 0.421683E+000
 0.433844E+000
 0.447918E+000
 0.464328E+000
 0.483620E+000
 0.506504E+000
 0.533926E+000
 0.567160E+000
 0.607952E+000
 0.658744E+000
 0.723023E+000
 0.805878E+000
 0.333990E+000
 0.335681E+000
 0.337503E+000
 0.339467E+000
 0.341591E+000
 0.343890E+000
 0.346387E+000
 0.349103E+000
 0.352065E+000
 0.355303E+000
 0.358854E+000
 0.362758E+000
 0.367064E+000
 0.371830E+000
 0.377122E+000
 0.383020E+000
 0.389622E+000
 0.397043E+000
 0.405425E+000
 0.414940E+000
 0.425802E+000
 0.438277E+000
 0.452699E+000
 0.469495E+000
 0.489213E+000
 0.512569E+000
 0.540510E+000
 0.574310E+000
 0.615709E+000
 0.667135E+000
 0.732038E+000
 0.815440E+000
 0.335200E+000
 0.336944E+000
 0.338821E+000
 0.340845E+000
 0.343033E+000
 0.345403E+000
 0.347974E+000
 0.350770E+000
 0.353819E+000
 0.357152E+000
 0.360804E+000
 0.364819E+000
 0.369245E+000
 0.374140E+000
 0.379574E+000
 0.385628E+000
 0.392399E+000
 0.400006E+000
 0.408592E+000
 0.418332E+000
 0.429441E+000
 0.442189E+000
 0.456913E+000
 0.474043E+000
 0.494130E+000
 0.517892E+000
 0.546278E+000
 0.580561E+000
 0.622475E+000
 0.674432E+000
 0.739853E+000
 0.823697E+000
 0.336245E+000
 0.338033E+000
 0.339958E+000
 0.342034E+000
 0.344277E+000
 0.346706E+000
 0.349341E+000
 0.352207E+000
 0.355330E+000
 0.358743E+000
 0.362482E+000
 0.366591E+000
 0.371119E+000
 0.376125E+000
 0.381680E+000
 0.387865E+000
 0.394781E+000
 0.402546E+000
 0.411304E+000
 0.421234E+000
 0.432553E+000
 0.445532E+000
 0.460510E+000
 0.477921E+000
 0.498316E+000
 0.522418E+000
 0.551175E+000
 0.585858E+000
 0.628196E+000
 0.680589E+000
 0.746428E+000
 0.830622E+000
 0.337105E+000
 0.338930E+000
 0.340894E+000
 0.343012E+000
 0.345300E+000
 0.347778E+000
 0.350465E+000
 0.353387E+000
 0.356571E+000
 0.360050E+000
 0.363860E+000
 0.368045E+000
 0.372657E+000
 0.377754E+000
 0.383406E+000
 0.389699E+000
 0.396732E+000
 0.404625E+000
 0.413524E+000
 0.423608E+000
 0.435096E+000
 0.448261E+000
 0.463445E+000
 0.481081E+000
 0.501726E+000
 0.526099E+000
 0.555152E+000
 0.590154E+000
 0.632829E+000
 0.685564E+000
 0.751730E+000
 0.836190E+000
 0.337766E+000
 0.339618E+000
 0.341612E+000
 0.343762E+000
 0.346085E+000
 0.348599E+000
 0.351327E+000
 0.354292E+000
 0.357522E+000
 0.361051E+000
 0.364915E+000
 0.369159E+000
 0.373833E+000
 0.378999E+000
 0.384727E+000
 0.391101E+000
 0.398222E+000
 0.406212E+000
 0.415218E+000
 0.425419E+000
 0.437036E+000
 0.450342E+000
 0.465681E+000
 0.483487E+000
 0.504318E+000
 0.528896E+000
 0.558171E+000
 0.593411E+000
 0.636336E+000
 0.689325E+000
 0.755730E+000
 0.840383E+000
 0.338213E+000
 0.340084E+000
 0.342098E+000
 0.344270E+000
 0.346616E+000
 0.349156E+000
 0.351910E+000
 0.354904E+000
 0.358165E+000
 0.361728E+000
 0.365628E+000
 0.369912E+000
 0.374629E+000
 0.379841E+000
 0.385619E+000
 0.392048E+000
 0.399229E+000
 0.407285E+000
 0.416362E+000
 0.426641E+000
 0.438344E+000
 0.451744E+000
 0.467187E+000
 0.485108E+000
 0.506064E+000
 0.530778E+000
 0.560201E+000
 0.595599E+000
 0.638690E+000
 0.691846E+000
 0.758409E+000
 0.843187E+000
 0.338439E+000
 0.340319E+000
 0.342343E+000
 0.344526E+000
 0.346884E+000
 0.349436E+000
 0.352204E+000
 0.355213E+000
 0.358490E+000
 0.362069E+000
 0.365988E+000
 0.370291E+000
 0.375030E+000
 0.380265E+000
 0.386069E+000
 0.392525E+000
 0.399737E+000
 0.407825E+000
 0.416938E+000
 0.427257E+000
 0.439003E+000
 0.452451E+000
 0.467945E+000
 0.485923E+000
 0.506942E+000
 0.531724E+000
 0.561221E+000
 0.596698E+000
 0.639872E+000
 0.693111E+000
 0.759752E+000
 0.844591E+000
 0.338439E+000
 0.340319E+000
 0.342343E+000
 0.344526E+000
 0.346884E+000
 0.349436E+000
 0.352204E+000
 0.355213E+000
 0.358490E+000
 0.362069E+000
 0.365988E+000
 0.370291E+000
 0.375030E+000
 0.380265E+000
 0.386069E+000
 0.392525E+000
 0.399737E+000
 0.407825E+000
 0.416938E+000
 0.427257E+000
 0.439003E+000
 0.452451E+000
 0.467945E+000
 0.485923E+000
 0.506942E+000
 0.531724E+000
 0.561221E+000
 0.596698E+000
 0.639872E+000
 0.693111E+000
 0.759752E+000
 0.844591E+000
 0.338213E+000
 0.340084E+000
 0.342098E+000
 0.344270E+000
 0.346616E+000
 0.349156E+000
 0.351910E+000
 0.354904E+000
 0.358165E+000
 0.361728E+000
 0.365628E+000
 0.369912E+000
 0.374629E+000
 0.379841E+000
 0.385619E+000
 0.392048E+000
 0.399229E+000
 0.407285E+000
 0.416362E+000
 0.426641E+000
 0.438344E+000
 0.451744E+000
 0.467187E+000
 0.485108E+000
 0.506064E+000
 0.530778E+000
 0.560201E+000
 0.595599E+000
 0.638690E+000
 0.691846E+000
 0.758409E+000
 0.843187E+000
 0.337766E+000
 0.339618E+000
 0.341612E+000
 0.343762E+000
 0.346085E+000
 0.348599E+000
 0.351327E+000
 0.354292E+000
 0.357522E+000
 0.361051E+000
 0.364915E+000
 0.369159E+000
 0.373833E+000
 0.378999E+000
 0.384727E+000
 0.391101E+000
 0.398222E+000
 0.406212E+000
 0.415218E+000
 0.425419E+000
 0.437036E+000
 0.450342E+000
 0.465681E+000
 0.483487E+000
 0.504318E+000
 0.528896E+000
 0.558171E+000
 0.593411E+000
 0.636336E+000
 0.689325E+000
 0.755730E+000
 0.840383E+000
 0.337105E+000
 0.338930E+000
 0.340894E+000
 0.343012E+000
 0.345300E+000
 0.347778E+000
 0.350465E+000
 0.353387E+000
 0.356571E+000
 0.360050E+000
 0.363860E+000
 0.368045E+000
 0.372657E+000
 0.377754E+000
 0.383406E+000
 0.389699E+000
 0.396732E+000
 0.404625E+000
 0.413524E+000
 0.423608E+000
 0.435096E+000
 0.448261E+000
 0.463445E+000
 0.481081E+000
 0.501726E+000
 0.526099E+000
 0.555152E+000
 0.590154E+000
 0.632829E+000
 0.685564E+000
 0.751730E+000
 0.836190E+000
 0.336245E+000
 0.338033E+000
 0.339958E+000
 0.342034E+000
 0.344277E+000
 0.346706E+000
 0.349341E+000
 0.352207E+000
 0.355330E+000
 0.358743E+000
 0.362482E+000
 0.366591E+000
 0.371119E+000
 0.376125E+000
 0.381680E+000
 0.387865E+000
 0.394781E+000
 0.402546E+000
 0.411304E+000
 0.421234E+000
 0.432553E+000
 0.445532E+000
 0.460510E+000
 0.477921E+000
 0.498316E+000
 0.522418E+000
 0.551175E+000
 0.585858E+000
 0.628196E+000
 0.680589E+000
 0.746428E+000
 0.830622E+000
 0.335200E+000
 0.336944E+000
 0.338821E+000
 0.340845E+000
 0.343033E+000
 0.345403E+000
 0.347974E+000
 0.350770E+000
 0.353819E+000
 0.357152E+000
 0.360804E+000
 0.364819E+000
 0.369245E+000
 0.374140E+000
 0.379574E+000
 0.385628E+000
 0.392399E+000
 0.400006E+000
 0.408592E+000
 0.418332E+000
 0.429441E+000
 0.442189E+000
 0.456913E+000
 0.474043E+000
 0.494130E+000
 0.517892E+000
 0.546278E+000
 0.580561E+000
 0.622475E+000
 0.674432E+000
 0.739853E+000
 0.823697E+000
 0.333990E+000
 0.335681E+000
 0.337503E+000
 0.339467E+000
 0.341591E+000
 0.343890E+000
 0.346387E+000
 0.349103E+000
 0.352065E+000
 0.355303E+000
 0.358854E+000
 0.362758E+000
 0.367064E+000
 0.371830E+000
 0.377122E+000
 0.383020E+000
 0.389622E+000
 0.397043E+000
 0.405425E+000
 0.414940E+000
 0.425802E+000
 0.438277E+000
 0.452699E+000
 0.469495E+000
 0.489213E+000
 0.512569E+000
 0.540510E+000
 0.574310E+000
 0.615709E+000
 0.667135E+000
 0.732038E+000
 0.815440E+000
 0.332635E+000
 0.334268E+000
 0.336026E+000
 0.337923E+000
 0.339973E+000
 0.342194E+000
 0.344606E+000
 0.347230E+000
 0.350094E+000
 0.353226E+000
 0.356662E+000
 0.360441E+000
 0.364611E+000
 0.369228E+000
 0.374359E+000
 0.380081E+000
 0.386490E+000
 0.393699E+000
 0.401847E+000
 0.411105E+000
 0.421683E+000
 0.433844E+000
 0.447918E+000
 0.464328E+000
 0.483620E+000
 0.506504E+000
 0.533926E+000
 0.567160E+000
 0.607952E+000
 0.658744E+000
 0.723023E+000
 0.805878E+000
 0.331158E+000
 0.332726E+000
 0.334414E+000
 0.336236E+000
 0.338206E+000
 0.340340E+000
 0.342659E+000
 0.345183E+000
 0.347938E+000
 0.350952E+000
 0.354260E+000
 0.357901E+000
 0.361921E+000
 0.366374E+000
 0.371325E+000
 0.376852E+000
 0.383045E+000
 0.390018E+000
 0.397906E+000
 0.406877E+000
 0.417137E+000
 0.428945E+000
 0.442628E+000
 0.458603E+000
 0.477411E+000
 0.499759E+000
 0.526588E+000
 0.559171E+000
 0.599261E+000
 0.649314E+000
 0.712854E+000
 0.795044E+000
 0.329582E+000
 0.331079E+000
 0.332692E+000
 0.334433E+000
 0.336316E+000
 0.338357E+000
 0.340575E+000
 0.342990E+000
 0.345627E+000
 0.348514E+000
 0.351684E+000
 0.355175E+000
 0.359031E+000
 0.363306E+000
 0.368063E+000
 0.373375E+000
 0.379334E+000
 0.386049E+000
 0.393652E+000
 0.402307E+000
 0.412217E+000
 0.423637E+000
 0.436887E+000
 0.452380E+000
 0.470651E+000
 0.492399E+000
 0.518563E+000
 0.550411E+000
 0.589701E+000
 0.638903E+000
 0.701579E+000
 0.782973E+000
 0.327929E+000
 0.329352E+000
 0.330885E+000
 0.332540E+000
 0.334331E+000
 0.336272E+000
 0.338383E+000
 0.340682E+000
 0.343194E+000
 0.345946E+000
 0.348969E+000
 0.352299E+000
 0.355981E+000
 0.360066E+000
 0.364613E+000
 0.369697E+000
 0.375404E+000
 0.381840E+000
 0.389136E+000
 0.397451E+000
 0.406982E+000
 0.417980E+000
 0.430760E+000
 0.445726E+000
 0.463407E+000
 0.484495E+000
 0.509921E+000
 0.540951E+000
 0.579341E+000
 0.627576E+000
 0.689256E+000
 0.769707E+000
 0.326222E+000
 0.327567E+000
 0.329016E+000
 0.330582E+000
 0.332276E+000
 0.334113E+000
 0.336111E+000
 0.338290E+000
 0.340670E+000
 0.343280E+000
 0.346148E+000
 0.349310E+000
 0.352808E+000
 0.356691E+000
 0.361019E+000
 0.365860E+000
 0.371300E+000
 0.377442E+000
 0.384411E+000
 0.392362E+000
 0.401490E+000
 0.412036E+000
 0.424309E+000
 0.438708E+000
 0.455749E+000
 0.476119E+000
 0.500738E+000
 0.530865E+000
 0.568253E+000
 0.615402E+000
 0.675942E+000
 0.755287E+000
 0.324483E+000
 0.325747E+000
 0.327110E+000
 0.328582E+000
 0.330176E+000
 0.331906E+000
 0.333788E+000
 0.335841E+000
 0.338086E+000
 0.340547E+000
 0.343255E+000
 0.346242E+000
 0.349549E+000
 0.353223E+000
 0.357320E+000
 0.361908E+000
 0.367069E+000
 0.372901E+000
 0.379527E+000
 0.387096E+000
 0.395796E+000
 0.405863E+000
 0.417599E+000
 0.431391E+000
 0.447748E+000
 0.467345E+000
 0.491089E+000
 0.520229E+000
 0.556516E+000
 0.602451E+000
 0.661701E+000
 0.739761E+000
 0.322730E+000
 0.323912E+000
 0.325186E+000
 0.326564E+000
 0.328056E+000
 0.329676E+000
 0.331439E+000
 0.333364E+000
 0.335469E+000
 0.337779E+000
 0.340322E+000
 0.343129E+000
 0.346239E+000
 0.349697E+000
 0.353557E+000
 0.357883E+000
 0.362754E+000
 0.368266E+000
 0.374534E+000
 0.381704E+000
 0.389957E+000
 0.399522E+000
 0.410692E+000
 0.423844E+000
 0.439474E+000
 0.458245E+000
 0.481049E+000
 0.509123E+000
 0.544205E+000
 0.588800E+000
 0.646599E+000
 0.723179E+000
 0.320982E+000
 0.322081E+000
 0.323266E+000
 0.324547E+000
 0.325936E+000
 0.327445E+000
 0.329088E+000
 0.330882E+000
 0.332846E+000
 0.335002E+000
 0.337377E+000
 0.340001E+000
 0.342910E+000
 0.346148E+000
 0.349765E+000
 0.353823E+000
 0.358397E+000
 0.363578E+000
 0.369478E+000
 0.376236E+000
 0.384026E+000
 0.393069E+000
 0.403648E+000
 0.416129E+000
 0.430995E+000
 0.448892E+000
 0.470696E+000
 0.497624E+000
 0.531400E+000
 0.574523E+000
 0.630704E+000
 0.705592E+000
 0.319255E+000
 0.320270E+000
 0.321366E+000
 0.322552E+000
 0.323837E+000
 0.325234E+000
 0.326756E+000
 0.328419E+000
 0.330241E+000
 0.332242E+000
 0.334448E+000
 0.336887E+000
 0.339593E+000
 0.342608E+000
 0.345979E+000
 0.349765E+000
 0.354036E+000
 0.358880E+000
 0.364404E+000
 0.370739E+000
 0.378053E+000
 0.386558E+000
 0.396526E+000
 0.408309E+000
 0.422377E+000
 0.439356E+000
 0.460103E+000
 0.485811E+000
 0.518182E+000
 0.559700E+000
 0.614086E+000
 0.687055E+000
 0.317563E+000
 0.318495E+000
 0.319502E+000
 0.320592E+000
 0.321775E+000
 0.323061E+000
 0.324462E+000
 0.325995E+000
 0.327674E+000
 0.329521E+000
 0.331558E+000
 0.333812E+000
 0.336315E+000
 0.339105E+000
 0.342228E+000
 0.345739E+000
 0.349706E+000
 0.354209E+000
 0.359350E+000
 0.365256E+000
 0.372085E+000
 0.380039E+000
 0.389378E+000
 0.400443E+000
 0.413683E+000
 0.429705E+000
 0.449342E+000
 0.473759E+000
 0.504627E+000
 0.544407E+000
 0.596818E+000
 0.667625E+000
 0.315917E+000
 0.316768E+000
 0.317687E+000
 0.318683E+000
 0.319764E+000
 0.320940E+000
 0.322223E+000
 0.323626E+000
 0.325165E+000
 0.326858E+000
 0.328727E+000
 0.330797E+000
 0.333097E+000
 0.335664E+000
 0.338540E+000
 0.341777E+000
 0.345437E+000
 0.349597E+000
 0.354354E+000
 0.359826E+000
 0.366163E+000
 0.373556E+000
 0.382255E+000
 0.392583E+000
 0.404971E+000
 0.420002E+000
 0.438482E+000
 0.461541E+000
 0.490814E+000
 0.528724E+000
 0.578973E+000
 0.647360E+000
 0.314328E+000
 0.315099E+000
 0.315932E+000
 0.316836E+000
 0.317817E+000
 0.318885E+000
 0.320051E+000
 0.321327E+000
 0.322728E+000
 0.324270E+000
 0.325974E+000
 0.327861E+000
 0.329962E+000
 0.332307E+000
 0.334937E+000
 0.337901E+000
 0.341256E+000
 0.345075E+000
 0.349446E+000
 0.354482E+000
 0.360324E+000
 0.367152E+000
 0.375201E+000
 0.384779E+000
 0.396295E+000
 0.410307E+000
 0.427588E+000
 0.449229E+000
 0.476818E+000
 0.512727E+000
 0.560623E+000
 0.626319E+000
 0.312802E+000
 0.313496E+000
 0.314246E+000
 0.315059E+000
 0.315943E+000
 0.316907E+000
 0.317958E+000
 0.319111E+000
 0.320376E+000
 0.321770E+000
 0.323311E+000
 0.325021E+000
 0.326924E+000
 0.329052E+000
 0.331440E+000
 0.334134E+000
 0.337187E+000
 0.340666E+000
 0.344655E+000
 0.349256E+000
 0.354603E+000
 0.360863E+000
 0.368258E+000
 0.377076E+000
 0.387705E+000
 0.400674E+000
 0.416720E+000
 0.436889E+000
 0.462711E+000
 0.496493E+000
 0.541844E+000
 0.604565E+000
 0.311346E+000
 0.311965E+000
 0.312634E+000
 0.313361E+000
 0.314151E+000
 0.315012E+000
 0.315954E+000
 0.316985E+000
 0.318119E+000
 0.319369E+000
 0.320752E+000
 0.322288E+000
 0.323998E+000
 0.325913E+000
 0.328064E+000
 0.330492E+000
 0.333248E+000
 0.336393E+000
 0.340002E+000
 0.344173E+000
 0.349027E+000
 0.354720E+000
 0.361459E+000
 0.369512E+000
 0.379245E+000
 0.391153E+000
 0.405934E+000
 0.424583E+000
 0.448562E+000
 0.480095E+000
 0.522707E+000
 0.582158E+000
 0.309964E+000
 0.310511E+000
 0.311103E+000
 0.311746E+000
 0.312445E+000
 0.313208E+000
 0.314043E+000
 0.314958E+000
 0.315965E+000
 0.317075E+000
 0.318305E+000
 0.319671E+000
 0.321195E+000
 0.322902E+000
 0.324821E+000
 0.326991E+000
 0.329456E+000
 0.332272E+000
 0.335508E+000
 0.339254E+000
 0.343620E+000
 0.348751E+000
 0.354836E+000
 0.362124E+000
 0.370954E+000
 0.381788E+000
 0.395280E+000
 0.412368E+000
 0.434436E+000
 0.463606E+000
 0.503288E+000
 0.559162E+000
 0.308659E+000
 0.309137E+000
 0.309654E+000
 0.310217E+000
 0.310830E+000
 0.311499E+000
 0.312231E+000
 0.313034E+000
 0.313918E+000
 0.314895E+000
 0.315977E+000
 0.317180E+000
 0.318522E+000
 0.320028E+000
 0.321723E+000
 0.323640E+000
 0.325821E+000
 0.328316E+000
 0.331188E+000
 0.334516E+000
 0.338402E+000
 0.342977E+000
 0.348413E+000
 0.354939E+000
 0.362866E+000
 0.372619E+000
 0.384805E+000
 0.400297E+000
 0.420394E+000
 0.447096E+000
 0.483657E+000
 0.535638E+000
 0.307432E+000
 0.307844E+000
 0.308291E+000
 0.308777E+000
 0.309307E+000
 0.309886E+000
 0.310520E+000
 0.311216E+000
 0.311983E+000
 0.312831E+000
 0.313771E+000
 0.314817E+000
 0.315985E+000
 0.317297E+000
 0.318774E+000
 0.320448E+000
 0.322354E+000
 0.324537E+000
 0.327054E+000
 0.329974E+000
 0.333389E+000
 0.337417E+000
 0.342213E+000
 0.347983E+000
 0.355009E+000
 0.363680E+000
 0.374547E+000
 0.388416E+000
 0.406492E+000
 0.430630E+000
 0.463889E+000
 0.511650E+000
 0.306283E+000
 0.306633E+000
 0.307013E+000
 0.307426E+000
 0.307878E+000
 0.308371E+000
 0.308912E+000
 0.309506E+000
 0.310162E+000
 0.310886E+000
 0.311690E+000
 0.312586E+000
 0.313588E+000
 0.314712E+000
 0.315982E+000
 0.317420E+000
 0.319061E+000
 0.320942E+000
 0.323113E+000
 0.325636E+000
 0.328592E+000
 0.332085E+000
 0.336252E+000
 0.341276E+000
 0.347409E+000
 0.355000E+000
 0.364544E+000
 0.376768E+000
 0.392779E+000
 0.414271E+000
 0.444054E+000
 0.487261E+000
 0.305211E+000
 0.305502E+000
 0.305819E+000
 0.306165E+000
 0.306541E+000
 0.306954E+000
 0.307406E+000
 0.307904E+000
 0.308453E+000
 0.309061E+000
 0.309736E+000
 0.310488E+000
 0.311330E+000
 0.312277E+000
 0.313345E+000
 0.314560E+000
 0.315943E+000
 0.317535E+000
 0.319371E+000
 0.321511E+000
 0.324021E+000
 0.326991E+000
 0.330542E+000
 0.334834E+000
 0.340083E+000
 0.346602E+000
 0.354824E+000
 0.365391E+000
 0.379300E+000
 0.398077E+000
 0.424226E+000
 0.462535E+000
 0.304216E+000
 0.304452E+000
 0.304709E+000
 0.304990E+000
 0.305297E+000
 0.305633E+000
 0.306002E+000
 0.306408E+000
 0.306857E+000
 0.307353E+000
 0.307906E+000
 0.308522E+000
 0.309213E+000
 0.309989E+000
 0.310868E+000
 0.311865E+000
 0.313006E+000
 0.314315E+000
 0.315834E+000
 0.317599E+000
 0.319680E+000
 0.322142E+000
 0.325092E+000
 0.328667E+000
 0.333049E+000
 0.338505E+000
 0.345414E+000
 0.354317E+000
 0.366092E+000
 0.382100E+000
 0.404478E+000
 0.437537E+000
 0.303294E+000
 0.303479E+000
 0.303680E+000
 0.303901E+000
 0.304142E+000
 0.304406E+000
 0.304696E+000
 0.305016E+000
 0.305370E+000
 0.305762E+000
 0.306199E+000
 0.306686E+000
 0.307233E+000
 0.307849E+000
 0.308545E+000
 0.309338E+000
 0.310243E+000
 0.311289E+000
 0.312494E+000
 0.313911E+000
 0.315565E+000
 0.317547E+000
 0.319907E+000
 0.322786E+000
 0.326318E+000
 0.330724E+000
 0.336331E+000
 0.343579E+000
 0.353189E+000
 0.366384E+000
 0.384887E+000
 0.412335E+000
 0.302444E+000
 0.302581E+000
 0.302730E+000
 0.302894E+000
 0.303073E+000
 0.303270E+000
 0.303487E+000
 0.303726E+000
 0.303991E+000
 0.304285E+000
 0.304612E+000
 0.304978E+000
 0.305389E+000
 0.305852E+000
 0.306377E+000
 0.306974E+000
 0.307659E+000
 0.308446E+000
 0.309364E+000
 0.310429E+000
 0.311698E+000
 0.313186E+000
 0.315007E+000
 0.317179E+000
 0.319906E+000
 0.323269E+000
 0.327589E+000
 0.333200E+000
 0.340625E+000
 0.350952E+000
 0.365535E+000
 0.387005E+000
 0.301663E+000
 0.301754E+000
 0.301855E+000
 0.301966E+000
 0.302088E+000
 0.302222E+000
 0.302370E+000
 0.302534E+000
 0.302715E+000
 0.302917E+000
 0.303142E+000
 0.303394E+000
 0.303677E+000
 0.303996E+000
 0.304358E+000
 0.304771E+000
 0.305245E+000
 0.305792E+000
 0.306426E+000
 0.307171E+000
 0.308045E+000
 0.309099E+000
 0.310344E+000
 0.311903E+000
 0.313762E+000
 0.316196E+000
 0.319163E+000
 0.323220E+000
 0.328431E+000
 0.335821E+000
 0.346494E+000
 0.361658E+000
 0.300947E+000
 0.300997E+000
 0.301052E+000
 0.301114E+000
 0.301182E+000
 0.301258E+000
 0.301342E+000
 0.301435E+000
 0.301539E+000
 0.301654E+000
 0.301783E+000
 0.301928E+000
 0.302091E+000
 0.302275E+000
 0.302485E+000
 0.302724E+000
 0.302998E+000
 0.303316E+000
 0.303684E+000
 0.304119E+000
 0.304628E+000
 0.305241E+000
 0.305978E+000
 0.306873E+000
 0.307999E+000
 0.309374E+000
 0.311218E+000
 0.313475E+000
 0.316807E+000
 0.320868E+000
 0.327896E+000
 0.336419E+000
 0.300295E+000
 0.300303E+000
 0.300317E+000
 0.300333E+000
 0.300352E+000
 0.300374E+000
 0.300398E+000
 0.300426E+000
 0.300457E+000
 0.300492E+000
 0.300532E+000
 0.300577E+000
 0.300627E+000
 0.300685E+000
 0.300751E+000
 0.300826E+000
 0.300914E+000
 0.301014E+000
 0.301133E+000
 0.301269E+000
 0.301436E+000
 0.301625E+000
 0.301870E+000
 0.302145E+000
 0.302522E+000
 0.302942E+000
 0.303561E+000
 0.304257E+000
 0.305377E+000
 0.306673E+000
 0.309026E+000
 0.312361E+000
 0.299677E+000
 0.299651E+000
 0.299625E+000
 0.299600E+000
 0.299572E+000
 0.299543E+000
 0.299512E+000
 0.299478E+000
 0.299441E+000
 0.299401E+000
 0.299357E+000
 0.299307E+000
 0.299253E+000
 0.299191E+000
 0.299122E+000
 0.299044E+000
 0.298954E+000
 0.298852E+000
 0.298730E+000
 0.298593E+000
 0.298420E+000
 0.298230E+000
 0.297972E+000
 0.297700E+000
 0.297292E+000
 0.296882E+000
 0.296189E+000
 0.295531E+000
 0.294236E+000
 0.293122E+000
 0.290284E+000
 0.288930E+000
 0.299010E+000
 0.298949E+000
 0.298884E+000
 0.298814E+000
 0.298738E+000
 0.298655E+000
 0.298565E+000
 0.298466E+000
 0.298357E+000
 0.298237E+000
 0.298103E+000
 0.297954E+000
 0.297787E+000
 0.297599E+000
 0.297387E+000
 0.297145E+000
 0.296869E+000
 0.296547E+000
 0.296179E+000
 0.295736E+000
 0.295232E+000
 0.294600E+000
 0.293879E+000
 0.292940E+000
 0.291851E+000
 0.290386E+000
 0.288613E+000
 0.286183E+000
 0.282983E+000
 0.278645E+000
 0.271866E+000
 0.264010E+000
 0.298285E+000
 0.298184E+000
 0.298075E+000
 0.297957E+000
 0.297828E+000
 0.297688E+000
 0.297534E+000
 0.297365E+000
 0.297178E+000
 0.296972E+000
 0.296742E+000
 0.296487E+000
 0.296200E+000
 0.295878E+000
 0.295511E+000
 0.295097E+000
 0.294618E+000
 0.294073E+000
 0.293430E+000
 0.292690E+000
 0.291799E+000
 0.290759E+000
 0.289481E+000
 0.287945E+000
 0.286031E+000
 0.283622E+000
 0.280586E+000
 0.276514E+000
 0.271273E+000
 0.263729E+000
 0.253330E+000
 0.238199E+000
 0.297495E+000
 0.297351E+000
 0.297195E+000
 0.297024E+000
 0.296839E+000
 0.296636E+000
 0.296414E+000
 0.296169E+000
 0.295900E+000
 0.295601E+000
 0.295270E+000
 0.294900E+000
 0.294486E+000
 0.294019E+000
 0.293492E+000
 0.292890E+000
 0.292206E+000
 0.291411E+000
 0.290497E+000
 0.289420E+000
 0.288158E+000
 0.286650E+000
 0.284836E+000
 0.282640E+000
 0.279906E+000
 0.276523E+000
 0.272161E+000
 0.266534E+000
 0.259038E+000
 0.248641E+000
 0.234223E+000
 0.212481E+000
 0.296638E+000
 0.296447E+000
 0.296239E+000
 0.296013E+000
 0.295766E+000
 0.295496E+000
 0.295201E+000
 0.294876E+000
 0.294518E+000
 0.294121E+000
 0.293681E+000
 0.293190E+000
 0.292639E+000
 0.292021E+000
 0.291321E+000
 0.290527E+000
 0.289616E+000
 0.288571E+000
 0.287358E+000
 0.285942E+000
 0.284278E+000
 0.282295E+000
 0.279925E+000
 0.277033E+000
 0.273489E+000
 0.269056E+000
 0.263420E+000
 0.256141E+000
 0.246457E+000
 0.233226E+000
 0.214770E+000
 0.186883E+000
 0.295711E+000
 0.295468E+000
 0.295205E+000
 0.294919E+000
 0.294607E+000
 0.294266E+000
 0.293892E+000
 0.293481E+000
 0.293028E+000
 0.292527E+000
 0.291972E+000
 0.291352E+000
 0.290658E+000
 0.289878E+000
 0.288998E+000
 0.287996E+000
 0.286854E+000
 0.285540E+000
 0.284019E+000
 0.282248E+000
 0.280163E+000
 0.277695E+000
 0.274734E+000
 0.271148E+000
 0.266750E+000
 0.261268E+000
 0.254332E+000
 0.245387E+000
 0.233544E+000
 0.217501E+000
 0.195068E+000
 0.161483E+000
 0.294710E+000
 0.294413E+000
 0.294090E+000
 0.293740E+000
 0.293358E+000
 0.292941E+000
 0.292484E+000
 0.291982E+000
 0.291429E+000
 0.290818E+000
 0.290139E+000
 0.289384E+000
 0.288538E+000
 0.287589E+000
 0.286517E+000
 0.285300E+000
 0.283913E+000
 0.282319E+000
 0.280478E+000
 0.278334E+000
 0.275819E+000
 0.272841E+000
 0.269280E+000
 0.264977E+000
 0.259708E+000
 0.253165E+000
 0.244913E+000
 0.234298E+000
 0.220327E+000
 0.201498E+000
 0.175214E+000
 0.136336E+000
 0.293633E+000
 0.293278E+000
 0.292892E+000
 0.292474E+000
 0.292018E+000
 0.291520E+000
 0.290975E+000
 0.290376E+000
 0.289717E+000
 0.288989E+000
 0.288182E+000
 0.287283E+000
 0.286278E+000
 0.285151E+000
 0.283879E+000
 0.282437E+000
 0.280793E+000
 0.278909E+000
 0.276734E+000
 0.274206E+000
 0.271244E+000
 0.267743E+000
 0.263566E+000
 0.258528E+000
 0.252376E+000
 0.244759E+000
 0.235182E+000
 0.222907E+000
 0.206834E+000
 0.185267E+000
 0.155288E+000
 0.111496E+000
 0.292478E+000
 0.292061E+000
 0.291610E+000
 0.291119E+000
 0.290584E+000
 0.290001E+000
 0.289363E+000
 0.288663E+000
 0.287892E+000
 0.287041E+000
 0.286098E+000
 0.285049E+000
 0.283878E+000
 0.282564E+000
 0.281083E+000
 0.279406E+000
 0.277497E+000
 0.275310E+000
 0.272790E+000
 0.269865E+000
 0.266443E+000
 0.262406E+000
 0.257599E+000
 0.251814E+000
 0.244768E+000
 0.236071E+000
 0.225167E+000
 0.211245E+000
 0.193102E+000
 0.168864E+000
 0.135366E+000
 0.870196E-001
 0.291246E+000
 0.290764E+000
 0.290241E+000
 0.289674E+000
 0.289057E+000
 0.288385E+000
 0.287649E+000
 0.286842E+000
 0.285954E+000
 0.284974E+000
 0.283890E+000
 0.282684E+000
 0.281338E+000
 0.279830E+000
 0.278132E+000
 0.276212E+000
 0.274027E+000
 0.271528E+000
 0.268652E+000
 0.265318E+000
 0.261425E+000
 0.256841E+000
 0.251393E+000
 0.244852E+000
 0.236904E+000
 0.227122E+000
 0.214897E+000
 0.199350E+000
 0.179177E+000
 0.152352E+000
 0.115520E+000
 0.629634E-001
 0.289935E+000
 0.289385E+000
 0.288788E+000
 0.288141E+000
 0.287438E+000
 0.286671E+000
 0.285833E+000
 0.284914E+000
 0.283904E+000
 0.282791E+000
 0.281558E+000
 0.280189E+000
 0.278662E+000
 0.276953E+000
 0.275031E+000
 0.272858E+000
 0.270390E+000
 0.267570E+000
 0.264328E+000
 0.260577E+000
 0.256203E+000
 0.251062E+000
 0.244965E+000
 0.237660E+000
 0.228808E+000
 0.217943E+000
 0.204408E+000
 0.187262E+000
 0.165110E+000
 0.135795E+000
 0.958232E-001
 0.393861E-001
 0.288548E+000
 0.287926E+000
 0.287252E+000
 0.286522E+000
 0.285728E+000
 0.284863E+000
 0.283918E+000
 0.282883E+000
 0.281746E+000
 0.280493E+000
 0.279108E+000
 0.277570E+000
 0.275856E+000
 0.273939E+000
 0.271785E+000
 0.269354E+000
 0.266594E+000
 0.263445E+000
 0.259831E+000
 0.255653E+000
 0.250792E+000
 0.245087E+000
 0.238335E+000
 0.230264E+000
 0.220508E+000
 0.208567E+000
 0.193741E+000
 0.175029E+000
 0.150956E+000
 0.119261E+000
 0.763457E-001
 0.163475E-001
 0.287087E+000
 0.286390E+000
 0.285636E+000
 0.284819E+000
 0.283931E+000
 0.282964E+000
 0.281909E+000
 0.280754E+000
 0.279486E+000
 0.278089E+000
 0.276545E+000
 0.274833E+000
 0.272927E+000
 0.270797E+000
 0.268406E+000
 0.265709E+000
 0.262652E+000
 0.259168E+000
 0.255174E+000
 0.250566E+000
 0.245210E+000
 0.238939E+000
 0.231530E+000
 0.222693E+000
 0.212038E+000
 0.199034E+000
 0.182940E+000
 0.162703E+000
 0.136778E+000
 0.102821E+000
 0.571596E-001
-0.609246E-002
 0.285557E+000
 0.284782E+000
 0.283944E+000
 0.283037E+000
 0.282053E+000
 0.280981E+000
 0.279812E+000
 0.278533E+000
 0.277130E+000
 0.275585E+000
 0.273880E+000
 0.271989E+000
 0.269886E+000
 0.267538E+000
 0.264905E+000
 0.261938E+000
 0.258579E+000
 0.254755E+000
 0.250378E+000
 0.245335E+000
 0.239484E+000
 0.232643E+000
 0.224579E+000
 0.214981E+000
 0.203438E+000
 0.189389E+000
 0.172056E+000
 0.150342E+000
 0.122641E+000
 0.865471E-001
 0.383371E-001
-0.278732E-001
 0.283962E+000
 0.283107E+000
 0.282184E+000
 0.281185E+000
 0.280101E+000
 0.278922E+000
 0.277637E+000
 0.276231E+000
 0.274689E+000
 0.272994E+000
 0.271122E+000
 0.269050E+000
 0.266747E+000
 0.264178E+000
 0.261299E+000
 0.258059E+000
 0.254394E+000
 0.250229E+000
 0.245466E+000
 0.239986E+000
 0.233640E+000
 0.226233E+000
 0.217518E+000
 0.207169E+000
 0.194752E+000
 0.179680E+000
 0.161146E+000
 0.138008E+000
 0.108616E+000
 0.705141E-001
 0.199511E-001
-0.489344E-001
 0.282310E+000
 0.281374E+000
 0.280364E+000
 0.279271E+000
 0.278086E+000
 0.276797E+000
 0.275393E+000
 0.273858E+000
 0.272176E+000
 0.270327E+000
 0.268288E+000
 0.266032E+000
 0.263526E+000
 0.260733E+000
 0.257607E+000
 0.254092E+000
 0.250121E+000
 0.245613E+000
 0.240465E+000
 0.234551E+000
 0.227711E+000
 0.219744E+000
 0.210387E+000
 0.199300E+000
 0.186029E+000
 0.169964E+000
 0.150270E+000
 0.125770E+000
 0.947757E-001
 0.547980E-001
 0.207423E-002
-0.692164E-001
 0.280612E+000
 0.279594E+000
 0.278495E+000
 0.277306E+000
 0.276018E+000
 0.274619E+000
 0.273094E+000
 0.271429E+000
 0.269606E+000
 0.267602E+000
 0.265394E+000
 0.262953E+000
 0.260244E+000
 0.257227E+000
 0.253853E+000
 0.250063E+000
 0.245787E+000
 0.240937E+000
 0.235406E+000
 0.229062E+000
 0.221737E+000
 0.213218E+000
 0.203232E+000
 0.191423E+000
 0.177323E+000
 0.160300E+000
 0.139492E+000
 0.113696E+000
 0.811950E-001
 0.394761E-001
-0.152206E-001
-0.886601E-001
 0.278879E+000
 0.277777E+000
 0.276589E+000
 0.275305E+000
 0.273914E+000
 0.272403E+000
 0.270758E+000
 0.268962E+000
 0.266996E+000
 0.264838E+000
 0.262461E+000
 0.259835E+000
 0.256923E+000
 0.253683E+000
 0.250062E+000
 0.246000E+000
 0.241421E+000
 0.236234E+000
 0.230327E+000
 0.223560E+000
 0.215758E+000
 0.206699E+000
 0.196101E+000
 0.183594E+000
 0.168694E+000
 0.150751E+000
 0.128882E+000
 0.101862E+000
 0.679517E-001
 0.246263E-001
-0.318610E-001
-0.107208E+000
 0.277125E+000
 0.275940E+000
 0.274663E+000
 0.273284E+000
 0.271789E+000
 0.270167E+000
 0.268402E+000
 0.266476E+000
 0.264369E+000
 0.262057E+000
 0.259513E+000
 0.256704E+000
 0.253591E+000
 0.250130E+000
 0.246267E+000
 0.241936E+000
 0.237060E+000
 0.231542E+000
 0.225266E+000
 0.218086E+000
 0.209820E+000
 0.200239E+000
 0.189049E+000
 0.175870E+000
 0.160203E+000
 0.141384E+000
 0.118513E+000
 0.903442E-001
 0.551247E-001
 0.103265E-001
-0.477756E-001
-0.124804E+000
 0.275365E+000
 0.274099E+000
 0.272734E+000
 0.271260E+000
 0.269664E+000
 0.267932E+000
 0.266049E+000
 0.263995E+000
 0.261748E+000
 0.259285E+000
 0.256576E+000
 0.253587E+000
 0.250277E+000
 0.246600E+000
 0.242500E+000
 0.237907E+000
 0.232741E+000
 0.226902E+000
 0.220268E+000
 0.212688E+000
 0.203975E+000
 0.193891E+000
 0.182134E+000
 0.168313E+000
 0.151918E+000
 0.132271E+000
 0.108458E+000
 0.792195E-001
 0.427934E-001
-0.334580E-002
-0.628945E-001
-0.141394E+000
 0.273619E+000
 0.272272E+000
 0.270821E+000
 0.269255E+000
 0.267560E+000
 0.265721E+000
 0.263721E+000
 0.261542E+000
 0.259160E+000
 0.256549E+000
 0.253679E+000
 0.250515E+000
 0.247014E+000
 0.243128E+000
 0.238797E+000
 0.233951E+000
 0.228505E+000
 0.222357E+000
 0.215379E+000
 0.207416E+000
 0.198275E+000
 0.187711E+000
 0.175415E+000
 0.160987E+000
 0.143906E+000
 0.123483E+000
 0.987930E-001
 0.685669E-001
 0.310369E-001
-0.163144E-001
-0.771497E-001
-0.156926E+000
 0.271905E+000
 0.270481E+000
 0.268947E+000
 0.267291E+000
 0.265500E+000
 0.263557E+000
 0.261446E+000
 0.259145E+000
 0.256632E+000
 0.253879E+000
 0.250855E+000
 0.247522E+000
 0.243838E+000
 0.239750E+000
 0.235199E+000
 0.230110E+000
 0.224397E+000
 0.217953E+000
 0.210648E+000
 0.202322E+000
 0.192776E+000
 0.181760E+000
 0.168956E+000
 0.153959E+000
 0.136238E+000
 0.115095E+000
 0.895956E-001
 0.584647E-001
 0.199332E-001
-0.285048E-001
-0.904754E-001
-0.171351E+000
 0.270245E+000
 0.268747E+000
 0.267134E+000
 0.265392E+000
 0.263509E+000
 0.261468E+000
 0.259250E+000
 0.256834E+000
 0.254196E+000
 0.251307E+000
 0.248136E+000
 0.244643E+000
 0.240784E+000
 0.236506E+000
 0.231745E+000
 0.226428E+000
 0.220463E+000
 0.213740E+000
 0.206128E+000
 0.197460E+000
 0.187535E+000
 0.176096E+000
 0.162821E+000
 0.147296E+000
 0.128984E+000
 0.107180E+000
 0.809412E-001
 0.489899E-001
 0.955822E-002
-0.398455E-001
-0.102809E+000
-0.184622E+000
 0.268662E+000
 0.267094E+000
 0.265406E+000
 0.263584E+000
 0.261615E+000
 0.259480E+000
 0.257161E+000
 0.254637E+000
 0.251881E+000
 0.248866E+000
 0.245556E+000
 0.241914E+000
 0.237891E+000
 0.233435E+000
 0.228479E+000
 0.222948E+000
 0.216748E+000
 0.209767E+000
 0.201869E+000
 0.192886E+000
 0.182610E+000
 0.170782E+000
 0.157073E+000
 0.141065E+000
 0.122214E+000
 0.998093E-001
 0.729040E-001
 0.402171E-001
-0.149959E-004
-0.502681E-001
-0.114092E+000
-0.196697E+000
 0.267178E+000
 0.265546E+000
 0.263789E+000
 0.261893E+000
 0.259843E+000
 0.257622E+000
 0.255211E+000
 0.252586E+000
 0.249722E+000
 0.246589E+000
 0.243152E+000
 0.239371E+000
 0.235198E+000
 0.230577E+000
 0.225443E+000
 0.219715E+000
 0.213300E+000
 0.206082E+000
 0.197923E+000
 0.188652E+000
 0.178058E+000
 0.165877E+000
 0.151776E+000
 0.135331E+000
 0.115996E+000
 0.930543E-001
 0.655551E-001
 0.322174E-001
-0.871736E-002
-0.597087E-001
-0.124270E+000
-0.207534E+000
 0.265817E+000
 0.264127E+000
 0.262307E+000
 0.260344E+000
 0.258221E+000
 0.255922E+000
 0.253426E+000
 0.250710E+000
 0.247748E+000
 0.244509E+000
 0.240957E+000
 0.237050E+000
 0.232742E+000
 0.227973E+000
 0.222677E+000
 0.216773E+000
 0.210164E+000
 0.202734E+000
 0.194341E+000
 0.184813E+000
 0.173934E+000
 0.161438E+000
 0.146989E+000
 0.130158E+000
 0.110395E+000
 0.869808E-001
 0.589617E-001
 0.250574E-001
-0.164846E-001
-0.681079E-001
-0.133291E+000
-0.217099E+000
 0.264601E+000
 0.262859E+000
 0.260984E+000
 0.258961E+000
 0.256775E+000
 0.254407E+000
 0.251836E+000
 0.249040E+000
 0.245991E+000
 0.242657E+000
 0.239004E+000
 0.234987E+000
 0.230559E+000
 0.225660E+000
 0.220222E+000
 0.214162E+000
 0.207384E+000
 0.199768E+000
 0.191171E+000
 0.181417E+000
 0.170290E+000
 0.157521E+000
 0.142769E+000
 0.125604E+000
 0.105472E+000
 0.816501E-001
 0.531856E-001
 0.187983E-001
-0.232582E-001
-0.754122E-001
-0.141111E+000
-0.225358E+000
 0.263551E+000
 0.261766E+000
 0.259843E+000
 0.257769E+000
 0.255528E+000
 0.253100E+000
 0.250466E+000
 0.247601E+000
 0.244478E+000
 0.241064E+000
 0.237324E+000
 0.233213E+000
 0.228683E+000
 0.223673E+000
 0.218114E+000
 0.211922E+000
 0.205000E+000
 0.197226E+000
 0.188455E+000
 0.178511E+000
 0.167175E+000
 0.154174E+000
 0.139167E+000
 0.121721E+000
 0.101279E+000
 0.771176E-001
 0.482821E-001
 0.134943E-001
-0.289863E-001
-0.815745E-001
-0.147690E+000
-0.232285E+000
 0.262686E+000
 0.260865E+000
 0.258904E+000
 0.256788E+000
 0.254502E+000
 0.252026E+000
 0.249340E+000
 0.246418E+000
 0.243234E+000
 0.239755E+000
 0.235944E+000
 0.231757E+000
 0.227143E+000
 0.222042E+000
 0.216385E+000
 0.210086E+000
 0.203046E+000
 0.195144E+000
 0.186233E+000
 0.176135E+000
 0.164628E+000
 0.151441E+000
 0.136228E+000
 0.118556E+000
 0.978651E-001
 0.734312E-001
 0.442991E-001
 0.919255E-002
-0.336241E-001
-0.865542E-001
-0.152995E+000
-0.237855E+000
 0.262022E+000
 0.260174E+000
 0.258183E+000
 0.256036E+000
 0.253715E+000
 0.251203E+000
 0.248477E+000
 0.245513E+000
 0.242282E+000
 0.238753E+000
 0.234888E+000
 0.230642E+000
 0.225965E+000
 0.220796E+000
 0.215063E+000
 0.208683E+000
 0.201554E+000
 0.193554E+000
 0.184537E+000
 0.174321E+000
 0.162687E+000
 0.149358E+000
 0.133990E+000
 0.116147E+000
 0.952690E-001
 0.706304E-001
 0.412763E-001
 0.593149E-002
-0.371353E-001
-0.903184E-001
-0.156997E+000
-0.242050E+000
 0.261572E+000
 0.259706E+000
 0.257695E+000
 0.255527E+000
 0.253183E+000
 0.250645E+000
 0.247892E+000
 0.244899E+000
 0.241638E+000
 0.238075E+000
 0.234173E+000
 0.229888E+000
 0.225168E+000
 0.219953E+000
 0.214170E+000
 0.207735E+000
 0.200546E+000
 0.192481E+000
 0.183392E+000
 0.173098E+000
 0.161377E+000
 0.147953E+000
 0.132481E+000
 0.114524E+000
 0.935211E-001
 0.687459E-001
 0.392438E-001
 0.374074E-002
-0.394918E-001
-0.928420E-001
-0.159678E+000
-0.244854E+000
 0.261345E+000
 0.259469E+000
 0.257449E+000
 0.255269E+000
 0.252914E+000
 0.250364E+000
 0.247597E+000
 0.244590E+000
 0.241313E+000
 0.237733E+000
 0.233813E+000
 0.229508E+000
 0.224767E+000
 0.219528E+000
 0.213720E+000
 0.207257E+000
 0.200038E+000
 0.191940E+000
 0.182815E+000
 0.172481E+000
 0.160717E+000
 0.147246E+000
 0.131722E+000
 0.113708E+000
 0.926419E-001
 0.677984E-001
 0.382224E-001
 0.264031E-002
-0.406748E-001
-0.941081E-001
-0.161021E+000
-0.246259E+000
 0.261345E+000
 0.259469E+000
 0.257449E+000
 0.255269E+000
 0.252914E+000
 0.250364E+000
 0.247597E+000
 0.244590E+000
 0.241313E+000
 0.237733E+000
 0.233813E+000
 0.229508E+000
 0.224767E+000
 0.219528E+000
 0.213720E+000
 0.207257E+000
 0.200038E+000
 0.191940E+000
 0.182815E+000
 0.172481E+000
 0.160717E+000
 0.147246E+000
 0.131722E+000
 0.113708E+000
 0.926419E-001
 0.677984E-001
 0.382224E-001
 0.264031E-002
-0.406748E-001
-0.941081E-001
-0.161021E+000
-0.246259E+000
 0.261572E+000
 0.259706E+000
 0.257695E+000
 0.255527E+000
 0.253183E+000
 0.250645E+000
 0.247892E+000
 0.244899E+000
 0.241638E+000
 0.238075E+000
 0.234173E+000
 0.229888E+000
 0.225168E+000
 0.219953E+000
 0.214170E+000
 0.207735E+000
 0.200546E+000
 0.192481E+000
 0.183392E+000
 0.173098E+000
 0.161377E+000
 0.147953E+000
 0.132481E+000
 0.114524E+000
 0.935211E-001
 0.687459E-001
 0.392438E-001
 0.374074E-002
-0.394918E-001
-0.928420E-001
-0.159678E+000
-0.244854E+000
 0.262022E+000
 0.260174E+000
 0.258183E+000
 0.256036E+000
 0.253715E+000
 0.251203E+000
 0.248477E+000
 0.245513E+000
 0.242282E+000
 0.238753E+000
 0.234888E+000
 0.230642E+000
 0.225965E+000
 0.220796E+000
 0.215063E+000
 0.208683E+000
 0.201554E+000
 0.193554E+000
 0.184537E+000
 0.174321E+000
 0.162687E+000
 0.149358E+000
 0.133990E+000
 0.116147E+000
 0.952690E-001
 0.706304E-001
 0.412763E-001
 0.593149E-002
-0.371353E-001
-0.903184E-001
-0.156997E+000
-0.242050E+000
 0.262686E+000
 0.260865E+000
 0.258904E+000
 0.256788E+000
 0.254502E+000
 0.252026E+000
 0.249340E+000
 0.246418E+000
 0.243234E+000
 0.239755E+000
 0.235944E+000
 0.231757E+000
 0.227143E+000
 0.222042E+000
 0.216385E+000
 0.210086E+000
 0.203046E+000
 0.195144E+000
 0.186233E+000
 0.176135E+000
 0.164628E+000
 0.151441E+000
 0.136228E+000
 0.118556E+000
 0.978651E-001
 0.734312E-001
 0.442991E-001
 0.919255E-002
-0.336241E-001
-0.865542E-001
-0.152995E+000
-0.237855E+000
 0.263551E+000
 0.261766E+000
 0.259843E+000
 0.257769E+000
 0.255528E+000
 0.253100E+000
 0.250466E+000
 0.247601E+000
 0.244478E+000
 0.241064E+000
 0.237324E+000
 0.233213E+000
 0.228683E+000
 0.223673E+000
 0.218114E+000
 0.211922E+000
 0.205000E+000
 0.197226E+000
 0.188455E+000
 0.178511E+000
 0.167175E+000
 0.154174E+000
 0.139167E+000
 0.121721E+000
 0.101279E+000
 0.771176E-001
 0.482821E-001
 0.134943E-001
-0.289863E-001
-0.815745E-001
-0.147690E+000
-0.232285E+000
 0.264601E+000
 0.262859E+000
 0.260984E+000
 0.258961E+000
 0.256775E+000
 0.254407E+000
 0.251836E+000
 0.249040E+000
 0.245991E+000
 0.242657E+000
 0.239004E+000
 0.234987E+000
 0.230559E+000
 0.225660E+000
 0.220222E+000
 0.214162E+000
 0.207384E+000
 0.199768E+000
 0.191171E+000
 0.181417E+000
 0.170290E+000
 0.157521E+000
 0.142769E+000
 0.125604E+000
 0.105472E+000
 0.816501E-001
 0.531856E-001
 0.187983E-001
-0.232582E-001
-0.754122E-001
-0.141111E+000
-0.225358E+000
 0.265817E+000
 0.264127E+000
 0.262307E+000
 0.260344E+000
 0.258221E+000
 0.255922E+000
 0.253426E+000
 0.250710E+000
 0.247748E+000
 0.244509E+000
 0.240957E+000
 0.237050E+000
 0.232742E+000
 0.227973E+000
 0.222677E+000
 0.216773E+000
 0.210164E+000
 0.202734E+000
 0.194341E+000
 0.184813E+000
 0.173934E+000
 0.161438E+000
 0.146989E+000
 0.130158E+000
 0.110395E+000
 0.869808E-001
 0.589617E-001
 0.250574E-001
-0.164846E-001
-0.681079E-001
-0.133291E+000
-0.217099E+000
 0.267178E+000
 0.265546E+000
 0.263789E+000
 0.261893E+000
 0.259843E+000
 0.257622E+000
 0.255211E+000
 0.252586E+000
 0.249722E+000
 0.246589E+000
 0.243152E+000
 0.239371E+000
 0.235198E+000
 0.230577E+000
 0.225443E+000
 0.219715E+000
 0.213300E+000
 0.206082E+000
 0.197923E+000
 0.188652E+000
 0.178058E+000
 0.165877E+000
 0.151776E+000
 0.135331E+000
 0.115996E+000
 0.930543E-001
 0.655551E-001
 0.322174E-001
-0.871736E-002
-0.597087E-001
-0.124270E+000
-0.207534E+000
 0.268662E+000
 0.267094E+000
 0.265406E+000
 0.263584E+000
 0.261615E+000
 0.259480E+000
 0.257161E+000
 0.254637E+000
 0.251881E+000
 0.248866E+000
 0.245556E+000
 0.241914E+000
 0.237891E+000
 0.233435E+000
 0.228479E+000
 0.222948E+000
 0.216748E+000
 0.209767E+000
 0.201869E+000
 0.192886E+000
 0.182610E+000
 0.170782E+000
 0.157073E+000
 0.141065E+000
 0.122214E+000
 0.998093E-001
 0.729040E-001
 0.402171E-001
-0.149959E-004
-0.502681E-001
-0.114092E+000
-0.196697E+000
 0.270245E+000
 0.268747E+000
 0.267134E+000
 0.265392E+000
 0.263509E+000
 0.261468E+000
 0.259250E+000
 0.256834E+000
 0.254196E+000
 0.251307E+000
 0.248136E+000
 0.244643E+000
 0.240784E+000
 0.236506E+000
 0.231745E+000
 0.226428E+000
 0.220463E+000
 0.213740E+000
 0.206128E+000
 0.197460E+000
 0.187535E+000
 0.176096E+000
 0.162821E+000
 0.147296E+000
 0.128984E+000
 0.107180E+000
 0.809412E-001
 0.489899E-001
 0.955822E-002
-0.398455E-001
-0.102809E+000
-0.184622E+000
 0.271905E+000
 0.270481E+000
 0.268947E+000
 0.267291E+000
 0.265500E+000
 0.263557E+000
 0.261446E+000
 0.259145E+000
 0.256632E+000
 0.253879E+000
 0.250855E+000
 0.247522E+000
 0.243838E+000
 0.239750E+000
 0.235199E+000
 0.230110E+000
 0.224397E+000
 0.217953E+000
 0.210648E+000
 0.202322E+000
 0.192776E+000
 0.181760E+000
 0.168956E+000
 0.153959E+000
 0.136238E+000
 0.115095E+000
 0.895956E-001
 0.584647E-001
 0.199332E-001
-0.285048E-001
-0.904754E-001
-0.171351E+000
 0.273619E+000
 0.272272E+000
 0.270821E+000
 0.269255E+000
 0.267560E+000
 0.265721E+000
 0.263721E+000
 0.261542E+000
 0.259160E+000
 0.256549E+000
 0.253679E+000
 0.250515E+000
 0.247014E+000
 0.243128E+000
 0.238797E+000
 0.233951E+000
 0.228505E+000
 0.222357E+000
 0.215379E+000
 0.207416E+000
 0.198275E+000
 0.187711E+000
 0.175415E+000
 0.160987E+000
 0.143906E+000
 0.123483E+000
 0.987930E-001
 0.685669E-001
 0.310369E-001
-0.163144E-001
-0.771497E-001
-0.156926E+000
 0.275365E+000
 0.274099E+000
 0.272734E+000
 0.271260E+000
 0.269664E+000
 0.267932E+000
 0.266049E+000
 0.263995E+000
 0.261748E+000
 0.259285E+000
 0.256576E+000
 0.253587E+000
 0.250277E+000
 0.246600E+000
 0.242500E+000
 0.237907E+000
 0.232741E+000
 0.226902E+000
 0.220268E+000
 0.212688E+000
 0.203975E+000
 0.193891E+000
 0.182134E+000
 0.168313E+000
 0.151918E+000
 0.132271E+000
 0.108458E+000
 0.792195E-001
 0.427934E-001
-0.334580E-002
-0.628945E-001
-0.141394E+000
 0.277125E+000
 0.275940E+000
 0.274663E+000
 0.273284E+000
 0.271789E+000
 0.270167E+000
 0.268402E+000
 0.266476E+000
 0.264369E+000
 0.262057E+000
 0.259513E+000
 0.256704E+000
 0.253591E+000
 0.250130E+000
 0.246267E+000
 0.241936E+000
 0.237060E+000
 0.231542E+000
 0.225266E+000
 0.218086E+000
 0.209820E+000
 0.200239E+000
 0.189049E+000
 0.175870E+000
 0.160203E+000
 0.141384E+000
 0.118513E+000
 0.903442E-001
 0.551247E-001
 0.103265E-001
-0.477756E-001
-0.124804E+000
 0.278879E+000
 0.277777E+000
 0.276589E+000
 0.275305E+000
 0.273914E+000
 0.272403E+000
 0.270758E+000
 0.268962E+000
 0.266996E+000
 0.264838E+000
 0.262461E+000
 0.259835E+000
 0.256923E+000
 0.253683E+000
 0.250062E+000
 0.246000E+000
 0.241421E+000
 0.236234E+000
 0.230327E+000
 0.223560E+000
 0.215758E+000
 0.206699E+000
 0.196101E+000
 0.183594E+000
 0.168694E+000
 0.150751E+000
 0.128882E+000
 0.101862E+000
 0.679517E-001
 0.246263E-001
-0.318610E-001
-0.107208E+000
 0.280612E+000
 0.279594E+000
 0.278495E+000
 0.277306E+000
 0.276018E+000
 0.274619E+000
 0.273094E+000
 0.271429E+000
 0.269606E+000
 0.267602E+000
 0.265394E+000
 0.262953E+000
 0.260244E+000
 0.257227E+000
 0.253853E+000
 0.250063E+000
 0.245787E+000
 0.240937E+000
 0.235406E+000
 0.229062E+000
 0.221737E+000
 0.213218E+000
 0.203232E+000
 0.191423E+000
 0.177323E+000
 0.160300E+000
 0.139492E+000
 0.113696E+000
 0.811950E-001
 0.394761E-001
-0.152206E-001
-0.886601E-001
 0.282310E+000
 0.281374E+000
 0.280364E+000
 0.279271E+000
 0.278086E+000
 0.276797E+000
 0.275393E+000
 0.273858E+000
 0.272176E+000
 0.270327E+000
 0.268288E+000
 0.266032E+000
 0.263526E+000
 0.260733E+000
 0.257607E+000
 0.254092E+000
 0.250121E+000
 0.245613E+000
 0.240465E+000
 0.234551E+000
 0.227711E+000
 0.219744E+000
 0.210387E+000
 0.199300E+000
 0.186029E+000
 0.169964E+000
 0.150270E+000
 0.125770E+000
 0.947757E-001
 0.547980E-001
 0.207423E-002
-0.692164E-001
 0.283962E+000
 0.283107E+000
 0.282184E+000
 0.281185E+000
 0.280101E+000
 0.278922E+000
 0.277637E+000
 0.276231E+000
 0.274689E+000
 0.272994E+000
 0.271122E+000
 0.269050E+000
 0.266747E+000
 0.264178E+000
 0.261299E+000
 0.258059E+000
 0.254394E+000
 0.250229E+000
 0.245466E+000
 0.239986E+000
 0.233640E+000
 0.226233E+000
 0.217518E+000
 0.207169E+000
 0.194752E+000
 0.179680E+000
 0.161146E+000
 0.138008E+000
 0.108616E+000
 0.705141E-001
 0.199511E-001
-0.489344E-001
 0.285557E+000
 0.284782E+000
 0.283944E+000
 0.283037E+000
 0.282053E+000
 0.280981E+000
 0.279812E+000
 0.278533E+000
 0.277130E+000
 0.275585E+000
 0.273880E+000
 0.271989E+000
 0.269886E+000
 0.267538E+000
 0.264905E+000
 0.261938E+000
 0.258579E+000
 0.254755E+000
 0.250378E+000
 0.245335E+000
 0.239484E+000
 0.232643E+000
 0.224579E+000
 0.214981E+000
 0.203438E+000
 0.189389E+000
 0.172056E+000
 0.150342E+000
 0.122641E+000
 0.865471E-001
 0.383371E-001
-0.278732E-001
 0.287087E+000
 0.286390E+000
 0.285636E+000
 0.284819E+000
 0.283931E+000
 0.282964E+000
 0.281909E+000
 0.280754E+000
 0.279486E+000
 0.278089E+000
 0.276545E+000
 0.274833E+000
 0.272927E+000
 0.270797E+000
 0.268406E+000
 0.265709E+000
 0.262652E+000
 0.259168E+000
 0.255174E+000
 0.250566E+000
 0.245210E+000
 0.238939E+000
 0.231530E+000
 0.222693E+000
 0.212038E+000
 0.199034E+000
 0.182940E+000
 0.162703E+000
 0.136778E+000
 0.102821E+000
 0.571596E-001
-0.609246E-002
 0.288548E+000
 0.287926E+000
 0.287252E+000
 0.286522E+000
 0.285728E+000
 0.284863E+000
 0.283918E+000
 0.282883E+000
 0.281746E+000
 0.280493E+000
 0.279108E+000
 0.277570E+000
 0.275856E+000
 0.273939E+000
 0.271785E+000
 0.269354E+000
 0.266594E+000
 0.263445E+000
 0.259831E+000
 0.255653E+000
 0.250792E+000
 0.245087E+000
 0.238335E+000
 0.230264E+000
 0.220508E+000
 0.208567E+000
 0.193741E+000
 0.175029E+000
 0.150956E+000
 0.119261E+000
 0.763457E-001
 0.163475E-001
 0.289935E+000
 0.289385E+000
 0.288788E+000
 0.288141E+000
 0.287438E+000
 0.286671E+000
 0.285833E+000
 0.284914E+000
 0.283904E+000
 0.282791E+000
 0.281558E+000
 0.280189E+000
 0.278662E+000
 0.276953E+000
 0.275031E+000
 0.272858E+000
 0.270390E+000
 0.267570E+000
 0.264328E+000
 0.260577E+000
 0.256203E+000
 0.251062E+000
 0.244965E+000
 0.237660E+000
 0.228808E+000
 0.217943E+000
 0.204408E+000
 0.187262E+000
 0.165110E+000
 0.135795E+000
 0.958232E-001
 0.393861E-001
 0.291246E+000
 0.290764E+000
 0.290241E+000
 0.289674E+000
 0.289057E+000
 0.288385E+000
 0.287649E+000
 0.286842E+000
 0.285954E+000
 0.284974E+000
 0.283890E+000
 0.282684E+000
 0.281338E+000
 0.279830E+000
 0.278132E+000
 0.276212E+000
 0.274027E+000
 0.271528E+000
 0.268652E+000
 0.265318E+000
 0.261425E+000
 0.256841E+000
 0.251393E+000
 0.244852E+000
 0.236904E+000
 0.227122E+000
 0.214897E+000
 0.199350E+000
 0.179177E+000
 0.152352E+000
 0.115520E+000
 0.629634E-001
 0.292478E+000
 0.292061E+000
 0.291610E+000
 0.291119E+000
 0.290584E+000
 0.290001E+000
 0.289363E+000
 0.288663E+000
 0.287892E+000
 0.287041E+000
 0.286098E+000
 0.285049E+000
 0.283878E+000
 0.282564E+000
 0.281083E+000
 0.279406E+000
 0.277497E+000
 0.275310E+000
 0.272790E+000
 0.269865E+000
 0.266443E+000
 0.262406E+000
 0.257599E+000
 0.251814E+000
 0.244768E+000
 0.236071E+000
 0.225167E+000
 0.211245E+000
 0.193102E+000
 0.168864E+000
 0.135366E+000
 0.870196E-001
 0.293633E+000
 0.293278E+000
 0.292892E+000
 0.292474E+000
 0.292018E+000
 0.291520E+000
 0.290975E+000
 0.290376E+000
 0.289717E+000
 0.288989E+000
 0.288182E+000
 0.287283E+000
 0.286278E+000
 0.285151E+000
 0.283879E+000
 0.282437E+000
 0.280793E+000
 0.278909E+000
 0.276734E+000
 0.274206E+000
 0.271244E+000
 0.267743E+000
 0.263566E+000
 0.258528E+000
 0.252376E+000
 0.244759E+000
 0.235182E+000
 0.222907E+000
 0.206834E+000
 0.185267E+000
 0.155288E+000
 0.111496E+000
 0.294710E+000
 0.294413E+000
 0.294090E+000
 0.293740E+000
 0.293358E+000
 0.292941E+000
 0.292484E+000
 0.291982E+000
 0.291429E+000
 0.290818E+000
 0.290139E+000
 0.289384E+000
 0.288538E+000
 0.287589E+000
 0.286517E+000
 0.285300E+000
 0.283913E+000
 0.282319E+000
 0.280478E+000
 0.278334E+000
 0.275819E+000
 0.272841E+000
 0.269280E+000
 0.264977E+000
 0.259708E+000
 0.253165E+000
 0.244913E+000
 0.234298E+000
 0.220327E+000
 0.201498E+000
 0.175214E+000
 0.136336E+000
 0.295711E+000
 0.295468E+000
 0.295205E+000
 0.294919E+000
 0.294607E+000
 0.294266E+000
 0.293892E+000
 0.293481E+000
 0.293028E+000
 0.292527E+000
 0.291972E+000
 0.291352E+000
 0.290658E+000
 0.289878E+000
 0.288998E+000
 0.287996E+000
 0.286854E+000
 0.285540E+000
 0.284019E+000
 0.282248E+000
 0.280163E+000
 0.277695E+000
 0.274734E+000
 0.271148E+000
 0.266750E+000
 0.261268E+000
 0.254332E+000
 0.245387E+000
 0.233544E+000
 0.217501E+000
 0.195068E+000
 0.161483E+000
 0.296638E+000
 0.296447E+000
 0.296239E+000
 0.296013E+000
 0.295766E+000
 0.295496E+000
 0.295201E+000
 0.294876E+000
 0.294518E+000
 0.294121E+000
 0.293681E+000
 0.293190E+000
 0.292639E+000
 0.292021E+000
 0.291321E+000
 0.290527E+000
 0.289616E+000
 0.288571E+000
 0.287358E+000
 0.285942E+000
 0.284278E+000
 0.282295E+000
 0.279925E+000
 0.277033E+000
 0.273489E+000
 0.269056E+000
 0.263420E+000
 0.256141E+000
 0.246457E+000
 0.233226E+000
 0.214770E+000
 0.186883E+000
 0.297495E+000
 0.297351E+000
 0.297195E+000
 0.297024E+000
 0.296839E+000
 0.296636E+000
 0.296414E+000
 0.296169E+000
 0.295900E+000
 0.295601E+000
 0.295270E+000
 0.294900E+000
 0.294486E+000
 0.294019E+000
 0.293492E+000
 0.292890E+000
 0.292206E+000
 0.291411E+000
 0.290497E+000
 0.289420E+000
 0.288158E+000
 0.286650E+000
 0.284836E+000
 0.282640E+000
 0.279906E+000
 0.276523E+000
 0.272161E+000
 0.266534E+000
 0.259038E+000
 0.248641E+000
 0.234223E+000
 0.212481E+000
 0.298285E+000
 0.298184E+000
 0.298075E+000
 0.297957E+000
 0.297828E+000
 0.297688E+000
 0.297534E+000
 0.297365E+000
 0.297178E+000
 0.296972E+000
 0.296742E+000
 0.296487E+000
 0.296200E+000
 0.295878E+000
 0.295511E+000
 0.295097E+000
 0.294618E+000
 0.294073E+000
 0.293430E+000
 0.292690E+000
 0.291799E+000
 0.290759E+000
 0.289481E+000
 0.287945E+000
 0.286031E+000
 0.283622E+000
 0.280586E+000
 0.276514E+000
 0.271273E+000
 0.263729E+000
 0.253330E+000
 0.238199E+000
 0.299010E+000
 0.298949E+000
 0.298884E+000
 0.298814E+000
 0.298738E+000
 0.298655E+000
 0.298565E+000
 0.298466E+000
 0.298357E+000
 0.298237E+000
 0.298103E+000
 0.297954E+000
 0.297787E+000
 0.297599E+000
 0.297387E+000
 0.297145E+000
 0.296869E+000
 0.296547E+000
 0.296179E+000
 0.295736E+000
 0.295232E+000
 0.294600E+000
 0.293879E+000
 0.292940E+000
 0.291851E+000
 0.290386E+000
 0.288613E+000
 0.286183E+000
 0.282983E+000
 0.278645E+000
 0.271866E+000
 0.264010E+000
 0.299677E+000
 0.299651E+000
 0.299625E+000
 0.299600E+000
 0.299572E+000
 0.299543E+000
 0.299512E+000
 0.299478E+000
 0.299441E+000
 0.299401E+000
 0.299357E+000
 0.299307E+000
 0.299253E+000
 0.299191E+000
 0.299122E+000
 0.299044E+000
 0.298954E+000
 0.298852E+000
 0.298730E+000
 0.298593E+000
 0.298420E+000
 0.298230E+000
 0.297972E+000
 0.297700E+000
 0.297292E+000
 0.296882E+000
 0.296189E+000
 0.295531E+000
 0.294236E+000
 0.293122E+000
 0.290284E+000
 0.288930E+000
SCALARS stress_23 FLOAT     1
LOOKUP_TABLE default
 0.000000E+000
 0.000000E+000
 0.000000E+000
 0.000000E+000
 0.000000E+000
 0.000000E+000
 0.000000E+000
 0.000000E+000
 0.000000E+000
 0.000000E+000
 0.000000E+000
 0.000000E+000
 0.000000E+000
 0.000000E+000
 0.000000E+000
 0.000000E+000
 0.000000E+000
 0.000000E+000
 0.000000E+000
 0.000000E+000
 0.000000E+000
 0.000000E+000
 0.000000E+000
 0.000000E+000
 0.000000E+000
 0.000000E+000
 0.000000E+000
 0.000000E+000
 0.000000E+000
 0.000000E+000
 0.000000E+000
 0.000000E+000
 0.000000E+000
 0.000000E+000
 0.000000E+000
 0.000000E+000
 0.000000E+000
 0.000000E+000
 0.000000E+000
 0.000000E+000
 0.000000E+000
 0.000000E+000
 0.000000E+000
 0.000000E+000
 0.000000E+000
 0.000000E+000
 0.000000E+000
 0.000000E+000
 0.000000E+000
 0.000000E+000
 0.000000E+000
 0.000000E+000
 0.000000E+000
 0.000000E+000
 0.000000E+000
 0.000000E+000
 0.000000E+000
 0.000000E+000
 0.000000E+000
 0.000000E+000
 0.000000E+000
 0.000000E+000
 0.000000E+000
 0.000000E+000
 0.000000E+000
 0.000000E+000
 0.000000E+000
 0.000000E+000
 0.000000E+000
 0.000000E+000
 0.000000E+000
 0.000000E+000
 0.000000E+000
 0.000000E+000
 0.000000E+000
 0.000000E+000
 0.000000E+000
 0.000000E+000
 0.000000E+000
 0.000000E+000
 0.000000E+000
 0.000000E+000
 0.000000E+000
 0.000000E+000
 0.000000E+000
 0.000000E+000
 0.000000E+000
 0.000000E+000
 0.000000E+000
 0.000000E+000
 0.000000E+000
 0.000000E+000
 0.000000E+000
 0.000000E+000
 0.000000E+000
 0.000000E+000
 0.000000E+000
 0.000000E+000
 0.000000E+000
 0.000000E+000
 0.000000E+000
 0.000000E+000
 0.000000E+000
 0.000000E+000
 0.000000E+000
 0.000000E+000
 0.000000E+000
 0.000000E+000
 0.000000E+000
 0.000000E+000
 0.000000E+000
 0.000000E+000
 0.000000E+000
 0.000000E+000
 0.000000E+000
 0.000000E+000
 0.000000E+000
 0.000000E+000
 0.000000E+000
 0.000000E+000
 0.000000E+000
 0.000000E+000
 0.000000E+000
 0.000000E+000
 0.000000E+000
 0.000000E+000
 0.000000E+000
 0.000000E+000
 0.000000E+000
 0.000000E+000
 0.000000E+000
 0.000000E+000
 0.000000E+000
 0.000000E+000
 0.000000E+000
 0.000000E+000
 0.000000E+000
 0.000000E+000
 0.000000E+000
 0.000000E+000
 0.000000E+000
 0.000000E+000
 0.000000E+000
 0.000000E+000
 0.000000E+000
 0.000000E+000
 0.000000E+000
 0.000000E+000
 0.000000E+000
 0.000000E+000
 0.000000E+000
 0.000000E+000
 0.000000E+000
 0.000000E+000
 0.000000E+000
 0.000000E+000
 0.000000E+000
 0.000000E+000
 0.000000E+000
 0.000000E+000
 0.000000E+000
 0.000000E+000
 0.000000E+000
 0.000000E+000
 0.000000E+000
 0.000000E+000
 0.000000E+000
 0.000000E+000
 0.000000E+000
 0.000000E+000
 0.000000E+000
 0.000000E+000
 0.000000E+000
 0.000000E+000
 0.000000E+000
 0.000000E+000
 0.000000E+000
 0.000000E+000
 0.000000E+000
 0.000000E+000
 0.000000E+000
 0.000000E+000
 0.000000E+000
 0.000000E+000
 0.000000E+000
 0.000000E+000
 0.000000E+000
 0.000000E+000
 0.000000E+000
 0.000000E+000
 0.000000E+000
 0.000000E+000
 0.000000E+000
 0.000000E+000
 0.000000E+000
 0.000000E+000
 0.000000E+000
 0.000000E+000
 0.000000E+000
 0.000000E+000
 0.000000E+000
 0.000000E+000
 0.000000E+000
 0.000000E+000
 0.000000E+000
 0.000000E+000
 0.000000E+000
 0.000000E+000
 0.000000E+000
 0.000000E+000
 0.000000E+000
 0.000000E+000
 0.000000E+000
 0.000000E+000
 0.000000E+000
 0.000000E+000
 0.000000E+000
 0.000000E+000
 0.000000E+000
 0.000000E+000
 0.000000E+000
 0.000000E+000
 0.000000E+000
 0.000000E+000
 0.000000E+000
 0.000000E+000
 0.000000E+000
 0.000000E+000
 0.000000E+000
 0.000000E+000
 0.000000E+000
 0.000000E+000
 0.000000E+000
 0.000000E+000
 0.000000E+000
 0.000000E+000
 0.000000E+000
 0.000000E+000
 0.000000E+000
 0.000000E+000
 0.000000E+000
 0.000000E+000
 0.000000E+000
 0.000000E+000
 0.000000E+000
 0.000000E+000
 0.000000E+000
 0.000000E+000
 0.000000E+000
 0.000000E+000
 0.000000E+000
 0.000000E+000
 0.000000E+000
 0.000000E+000
 0.000000E+000
 0.000000E+000
 0.000000E+000
 0.000000E+000
 0.000000E+000
 0.000000E+000
 0.000000E+000
 0.000000E+000
 0.000000E+000
 0.000000E+000
 0.000000E+000
 0.000000E+000
 0.000000E+000
 0.000000E+000
 0.000000E+000
 0.000000E+000
 0.000000E+000
 0.000000E+000
 0.000000E+000
 0.000000E+000
 0.000000E+000
 0.000000E+000
 0.000000E+000
 0.000000E+000
 0.000000E+000
 0.000000E+000
 0.000000E+000
 0.000000E+000
 0.000000E+000
 0.000000E+000
 0.000000E+000
 0.000000E+000
 0.000000E+000
 0.000000E+000
 0.000000E+000
 0.000000E+000
 0.000000E+000
 0.000000E+000
 0.000000E+000
 0.000000E+000
 0.000000E+000
 0.000000E+000
 0.000000E+000
 0.000000E+000
 0.000000E+000
 0.000000E+000
 0.000000E+000
 0.000000E+000
 0.000000E+000
 0.000000E+000
 0.000000E+000
 0.000000E+000
 0.000000E+000
 0.000000E+000
 0.000000E+000
 0.000000E+000
 0.000000E+000
 0.000000E+000
 0.000000E+000
 0.000000E+000
 0.000000E+000
 0.000000E+000
 0.000000E+000
 0.000000E+000
 0.000000E+000
 0.000000E+000
 0.000000E+000
 0.000000E+000
 0.000000E+000
 0.000000E+000
 0.000000E+000
 0.000000E+000
 0.000000E+000
 0.000000E+000
 0.000000E+000
 0.000000E+000
 0.000000E+000
 0.000000E+000
 0.000000E+000
 0.000000E+000
 0.000000E+000
 0.000000E+000
 0.000000E+000
 0.000000E+000
 0.000000E+000
 0.000000E+000
 0.000000E+000
 0.000000E+000
 0.000000E+000
 0.000000E+000
 0.000000E+000
 0.000000E+000
 0.000000E+000
 0.000000E+000
 0.000000E+000
 0.000000E+000
 0.000000E+000
 0.000000E+000
 0.000000E+000
 0.000000E+000
 0.000000E+000
 0.000000E+000
 0.000000E+000
 0.000000E+000
 0.000000E+000
 0.000000E+000
 0.000000E+000
 0.000000E+000
 0.000000E+000
 0.000000E+000
 0.000000E+000
 0.000000E+000
 0.000000E+000
 0.000000E+000
 0.000000E+000
 0.000000E+000
 0.000000E+000
 0.000000E+000
 0.000000E+000
 0.000000E+000
 0.000000E+000
 0.000000E+000
 0.000000E+000
 0.000000E+000
 0.000000E+000
 0.000000E+000
 0.000000E+000
 0.000000E+000
 0.000000E+000
 0.000000E+000
 0.000000E+000
 0.000000E+000
 0.000000E+000
 0.000000E+000
 0.000000E+000
 0.000000E+000
 0.000000E+000
 0.000000E+000
 0.000000E+000
 0.000000E+000
 0.000000E+000
 0.000000E+000
 0.000000E+000
 0.000000E+000
 0.000000E+000
 0.000000E+000
 0.000000E+000
 0.000000E+000
 0.000000E+000
 0.000000E+000
 0.000000E+000
 0.000000E+000
 0.000000E+000
 0.000000E+000
 0.000000E+000
 0.000000E+000
 0.000000E+000
 0.000000E+000
 0.000000E+000
 0.000000E+000
 0.000000E+000
 0.000000E+000
 0.000000E+000
 0.000000E+000
 0.000000E+000
 0.000000E+000
 0.000000E+000
 0.000000E+000
 0.000000E+000
 0.000000E+000
 0.000000E+000
 0.000000E+000
 0.000000E+000
 0.000000E+000
 0.000000E+000
 0.000000E+000
 0.000000E+000
 0.000000E+000
 0.000000E+000
 0.000000E+000
 0.000000E+000
 0.000000E+000
 0.000000E+000
 0.000000E+000
 0.000000E+000
 0.000000E+000
 0.000000E+000
 0.000000E+000
 0.000000E+000
 0.000000E+000
 0.000000E+000
 0.000000E+000
 0.000000E+000
 0.000000E+000
 0.000000E+000
 0.000000E+000
 0.000000E+000
 0.000000E+000
 0.000000E+000
 0.000000E+000
 0.000000E+000
 0.000000E+000
 0.000000E+000
 0.000000E+000
 0.000000E+000
 0.000000E+000
 0.000000E+000
 0.000000E+000
 0.000000E+000
 0.000000E+000
 0.000000E+000
 0.000000E+000
 0.000000E+000
 0.000000E+000
 0.000000E+000
 0.000000E+000
 0.000000E+000
 0.000000E+000
 0.000000E+000
 0.000000E+000
 0.000000E+000
 0.000000E+000
 0.000000E+000
 0.000000E+000
 0.000000E+000
 0.000000E+000
 0.000000E+000
 0.000000E+000
 0.000000E+000
 0.000000E+000
 0.000000E+000
 0.000000E+000
 0.000000E+000
 0.000000E+000
 0.000000E+000
 0.000000E+000
 0.000000E+000
 0.000000E+000
 0.000000E+000
 0.000000E+000
 0.000000E+000
 0.000000E+000
 0.000000E+000
 0.000000E+000
 0.000000E+000
 0.000000E+000
 0.000000E+000
 0.000000E+000
 0.000000E+000
 0.000000E+000
 0.000000E+000
 0.000000E+000
 0.000000E+000
 0.000000E+000
 0.000000E+000
 0.000000E+000
 0.000000E+000
 0.000000E+000
 0.000000E+000
 0.000000E+000
 0.000000E+000
 0.000000E+000
 0.000000E+000
 0.000000E+000
 0.000000E+000
 0.000000E+000
 0.000000E+000
 0.000000E+000
 0.000000E+000
 0.000000E+000
 0.000000E+000
 0.000000E+000
 0.000000E+000
 0.000000E+000
 0.000000E+000
 0.000000E+000
 0.000000E+000
 0.000000E+000
 0.000000E+000
 0.000000E+000
 0.000000E+000
 0.000000E+000
 0.000000E+000
 0.000000E+000
 0.000000E+000
 0.000000E+000
 0.000000E+000
 0.000000E+000
 0.000000E+000
 0.000000E+000
 0.000000E+000
 0.000000E+000
 0.000000E+000
 0.000000E+000
 0.000000E+000
 0.000000E+000
 0.000000E+000
 0.000000E+000
 0.000000E+000
 0.000000E+000
 0.000000E+000
 0.000000E+000
 0.000000E+000
 0.000000E+000
 0.000000E+000
 0.000000E+000
 0.000000E+000
 0.000000E+000
 0.000000E+000
 0.000000E+000
 0.000000E+000
 0.000000E+000
 0.000000E+000
 0.000000E+000
 0.000000E+000
 0.000000E+000
 0.000000E+000
 0.000000E+000
 0.000000E+000
 0.000000E+000
 0.000000E+000
 0.000000E+000
 0.000000E+000
 0.000000E+000
 0.000000E+000
 0.000000E+000
 0.000000E+000
 0.000000E+000
 0.000000E+000
 0.000000E+000
 0.000000E+000
 0.000000E+000
 0.000000E+000
 0.000000E+000
 0.000000E+000
 0.000000E+000
 0.000000E+000
 0.000000E+000
 0.000000E+000
 0.000000E+000
 0.000000E+000
 0.000000E+000
 0.000000E+000
 0.000000E+000
 0.000000E+000
 0.000000E+000
 0.000000E+000
 0.000000E+000
 0.000000E+000
 0.000000E+000
 0.000000E+000
 0.000000E+000
 0.000000E+000
 0.000000E+000
 0.000000E+000
 0.000000E+000
 0.000000E+000
 0.000000E+000
 0.000000E+000
 0.000000E+000
 0.000000E+000
 0.000000E+000
 0.000000E+000
 0.000000E+000
 0.000000E+000
 0.000000E+000
 0.000000E+000
 0.000000E+000
 0.000000E+000
 0.000000E+000
 0.000000E+000
 0.000000E+000
 0.000000E+000
 0.000000E+000
 0.000000E+000
 0.000000E+000
 0.000000E+000
 0.000000E+000
 0.000000E+000
 0.000000E+000
 0.000000E+000
 0.000000E+000
 0.000000E+000
 0.000000E+000
 0.000000E+000
 0.000000E+000
 0.000000E+000
 0.000000E+000
 0.000000E+000
 0.000000E+000
 0.000000E+000
 0.000000E+000
 0.000000E+000
 0.000000E+000
 0.000000E+000
 0.000000E+000
 0.000000E+000
 0.000000E+000
 0.000000E+000
 0.000000E+000
 0.000000E+000
 0.000000E+000
 0.000000E+000
 0.000000E+000
 0.000000E+000
 0.000000E+000
 0.000000E+000
 0.000000E+000
 0.000000E+000
 0.000000E+000
 0.000000E+000
 0.000000E+000
 0.000000E+000
 0.000000E+000
 0.000000E+000
 0.000000E+000
 0.000000E+000
 0.000000E+000
 0.000000E+000
 0.000000E+000
 0.000000E+000
 0.000000E+000
 0.000000E+000
 0.000000E+000
 0.000000E+000
 0.000000E+000
 0.000000E+000
 0.000000E+000
 0.000000E+000
 0.000000E+000
 0.000000E+000
 0.000000E+000
 0.000000E+000
 0.000000E+000
 0.000000E+000
 0.000000E+000
 0.000000E+000
 0.000000E+000
 0.000000E+000
 0.000000E+000
 0.000000E+000
 0.000000E+000
 0.000000E+000
 0.000000E+000
 0.000000E+000
 0.000000E+000
 0.000000E+000
 0.000000E+000
 0.000000E+000
 0.000000E+000
 0.000000E+000
 0.000000E+000
 0.000000E+000
 0.000000E+000
 0.000000E+000
 0.000000E+000
 0.000000E+000
 0.000000E+000
 0.000000E+000
 0.000000E+000
 0.000000E+000
 0.000000E+000
 0.000000E+000
 0.000000E+000
 0.000000E+000
 0.000000E+000
 0.000000E+000
 0.000000E+000
 0.000000E+000
 0.000000E+000
 0.000000E+000
 0.000000E+000
 0.000000E+000
 0.000000E+000
 0.000000E+000
 0.000000E+000
 0.000000E+000
 0.000000E+000
 0.000000E+000
 0.000000E+000
 0.000000E+000
 0.000000E+000
 0.000000E+000
 0.000000E+000
 0.000000E+000
 0.000000E+000
 0.000000E+000
 0.000000E+000
 0.000000E+000
 0.000000E+000
 0.000000E+000
 0.000000E+000
 0.000000E+000
 0.000000E+000
 0.000000E+000
 0.000000E+000
 0.000000E+000
 0.000000E+000
 0.000000E+000
 0.000000E+000
 0.000000E+000
 0.000000E+000
 0.000000E+000
 0.000000E+000
 0.000000E+000
 0.000000E+000
 0.000000E+000
 0.000000E+000
 0.000000E+000
 0.000000E+000
 0.000000E+000
 0.000000E+000
 0.000000E+000
 0.000000E+000
 0.000000E+000
 0.000000E+000
 0.000000E+000
 0.000000E+000
 0.000000E+000
 0.000000E+000
 0.000000E+000
 0.000000E+000
 0.000000E+000
 0.000000E+000
 0.000000E+000
 0.000000E+000
 0.000000E+000
 0.000000E+000
 0.000000E+000
 0.000000E+000
 0.000000E+000
 0.000000E+000
 0.000000E+000
 0.000000E+000
 0.000000E+000
 0.000000E+000
 0.000000E+000
 0.000000E+000
 0.000000E+000
 0.000000E+000
 0.000000E+000
 0.000000E+000
 0.000000E+000
 0.000000E+000
 0.000000E+000
 0.000000E+000
 0.000000E+000
 0.000000E+000
 0.000000E+000
 0.000000E+000
 0.000000E+000
 0.000000E+000
 0.000000E+000
 0.000000E+000
 0.000000E+000
 0.000000E+000
 0.000000E+000
 0.000000E+000
 0.000000E+000
 0.000000E+000
 0.000000E+000
 0.000000E+000
 0.000000E+000
 0.000000E+000
 0.000000E+000
 0.000000E+000
 0.000000E+000
 0.000000E+000
 0.000000E+000
 0.000000E+000
 0.000000E+000
 0.000000E+000
 0.000000E+000
 0.000000E+000
 0.000000E+000
 0.000000E+000
 0.000000E+000
 0.000000E+000
 0.000000E+000
 0.000000E+000
 0.000000E+000
 0.000000E+000
 0.000000E+000
 0.000000E+000
 0.000000E+000
 0.000000E+000
 0.000000E+000
 0.000000E+000
 0.000000E+000
 0.000000E+000
 0.000000E+000
 0.000000E+000
 0.000000E+000
 0.000000E+000
 0.000000E+000
 0.000000E+000
 0.000000E+000
 0.000000E+000
 0.000000E+000
 0.000000E+000
 0.000000E+000
 0.000000E+000
 0.000000E+000
 0.000000E+000
 0.000000E+000
 0.000000E+000
 0.000000E+000
 0.000000E+000
 0.000000E+000
 0.000000E+000
 0.000000E+000
 0.000000E+000
 0.000000E+000
 0.000000E+000
 0.000000E+000
 0.000000E+000
 0.000000E+000
 0.000000E+000
 0.000000E+000
 0.000000E+000
 0.000000E+000
 0.000000E+000
 0.000000E+000
 0.000000E+000
 0.000000E+000
 0.000000E+000
 0.000000E+000
 0.000000E+000
 0.000000E+000
 0.000000E+000
 0.000000E+000
 0.000000E+000
 0.000000E+000
 0.000000E+000
 0.000000E+000
 0.000000E+000
 0.000000E+000
 0.000000E+000
 0.000000E+000
 0.000000E+000
 0.000000E+000
 0.000000E+000
 0.000000E+000
 0.000000E+000
 0.000000E+000
 0.000000E+000
 0.000000E+000
 0.000000E+000
 0.000000E+000
 0.000000E+000
 0.000000E+000
 0.000000E+000
 0.000000E+000
 0.000000E+000
 0.000000E+000
 0.000000E+000
 0.000000E+000
 0.000000E+000
 0.000000E+000
 0.000000E+000
 0.000000E+000
 0.000000E+000
 0.000000E+000
 0.000000E+000
 0.000000E+000
 0.000000E+000
 0.000000E+000
 0.000000E+000
 0.000000E+000
 0.000000E+000
 0.000000E+000
 0.000000E+000
 0.000000E+000
 0.000000E+000
 0.000000E+000
 0.000000E+000
 0.000000E+000
 0.000000E+000
 0.000000E+000
 0.000000E+000
 0.000000E+000
 0.000000E+000
 0.000000E+000
 0.000000E+000
 0.000000E+000
 0.000000E+000
 0.000000E+000
 0.000000E+000
 0.000000E+000
 0.000000E+000
 0.000000E+000
 0.000000E+000
 0.000000E+000
 0.000000E+000
 0.000000E+000
 0.000000E+000
 0.000000E+000
 0.000000E+000
 0.000000E+000
 0.000000E+000
 0.000000E+000
 0.000000E+000
 0.000000E+000
 0.000000E+000
 0.000000E+000
 0.000000E+000
 0.000000E+000
 0.000000E+000
 0.000000E+000
 0.000000E+000
 0.000000E+000
 0.000000E+000
 0.000000E+000
 0.000000E+000
 0.000000E+000
 0.000000E+000
 0.000000E+000
 0.000000E+000
 0.000000E+000
 0.000000E+000
 0.000000E+000
 0.000000E+000
 0.000000E+000
 0.000000E+000
 0.000000E+000
 0.000000E+000
 0.000000E+000
 0.000000E+000
 0.000000E+000
 0.000000E+000
 0.000000E+000
 0.000000E+000
 0.000000E+000
 0.000000E+000
 0.000000E+000
 0.000000E+000
 0.000000E+000
 0.000000E+000
 0.000000E+000
 0.000000E+000
 0.000000E+000
 0.000000E+000
 0.000000E+000
 0.000000E+000
 0.000000E+000
 0.000000E+000
 0.000000E+000
 0.000000E+000
 0.000000E+000
 0.000000E+000
 0.000000E+000
 0.000000E+000
 0.000000E+000
 0.000000E+000
 0.000000E+000
 0.000000E+000
 0.000000E+000
 0.000000E+000
 0.000000E+000
 0.000000E+000
 0.000000E+000
 0.000000E+000
 0.000000E+000
 0.000000E+000
 0.000000E+000
 0.000000E+000
 0.000000E+000
 0.000000E+000
 0.000000E+000
 0.000000E+000
 0.000000E+000
 0.000000E+000
 0.000000E+000
 0.000000E+000
 0.000000E+000
 0.000000E+000
 0.000000E+000
 0.000000E+000
 0.000000E+000
 0.000000E+000
 0.000000E+000
 0.000000E+000
 0.000000E+000
 0.000000E+000
 0.000000E+000
 0.000000E+000
 0.000000E+000
 0.000000E+000
 0.000000E+000
 0.000000E+000
 0.000000E+000
 0.000000E+000
 0.000000E+000
 0.000000E+000
 0.000000E+000
 0.000000E+000
 0.000000E+000
 0.000000E+000
 0.000000E+000
 0.000000E+000
 0.000000E+000
 0.000000E+000
 0.000000E+000
 0.000000E+000
 0.000000E+000
 0.000000E+000
 0.000000E+000
 0.000000E+000
 0.000000E+000
 0.000000E+000
 0.000000E+000
 0.000000E+000
 0.000000E+000
 0.000000E+000
 0.000000E+000
 0.000000E+000
 0.000000E+000
 0.000000E+000
 0.000000E+000
 0.000000E+000
 0.000000E+000
 0.000000E+000
 0.000000E+000
 0.000000E+000
 0.000000E+000
 0.000000E+000
 0.000000E+000
 0.000000E+000
 0.000000E+000
 0.000000E+000
 0.000000E+000
 0.000000E+000
 0.000000E+000
 0.000000E+000
 0.000000E+000
 0.000000E+000
 0.000000E+000
 0.000000E+000
 0.000000E+000
 0.000000E+000
 0.000000E+000
 0.000000E+000
 0.000000E+000
 0.000000E+000
 0.000000E+000
 0.000000E+000
 0.000000E+000
 0.000000E+000
 0.000000E+000
 0.000000E+000
 0.000000E+000
 0.000000E+000
 0.000000E+000
 0.000000E+000
 0.000000E+000
 0.000000E+000
 0.000000E+000
 0.000000E+000
 0.000000E+000
 0.000000E+000
 0.000000E+000
 0.000000E+000
 0.000000E+000
 0.000000E+000
 0.000000E+000
 0.000000E+000
 0.000000E+000
 0.000000E+000
 0.000000E+000
 0.000000E+000
 0.000000E+000
 0.000000E+000
 0.000000E+000
 0.000000E+000
 0.000000E+000
 0.000000E+000
 0.000000E+000
 0.000000E+000
 0.000000E+000
 0.000000E+000
 0.000000E+000
 0.000000E+000
 0.000000E+000
 0.000000E+000
 0.000000E+000
 0.000000E+000
 0.000000E+000
 0.000000E+000
 0.000000E+000
 0.000000E+000
 0.000000E+000
 0.000000E+000
 0.000000E+000
 0.000000E+000
 0.000000E+000
 0.000000E+000
 0.000000E+000
 0.000000E+000
 0.000000E+000
 0.000000E+000
 0.000000E+000
 0.000000E+000
 0.000000E+000
 0.000000E+000
 0.000000E+000
 0.000000E+000
 0.000000E+000
 0.000000E+000
 0.000000E+000
 0.000000E+000
 0.000000E+000
 0.000000E+000
 0.000000E+000
 0.000000E+000
 0.000000E+000
 0.000000E+000
 0.000000E+000
 0.000000E+000
 0.000000E+000
 0.000000E+000
 0.000000E+000
 0.000000E+000
 0.000000E+000
 0.000000E+000
 0.000000E+000
 0.000000E+000
 0.000000E+000
 0.000000E+000
 0.000000E+000
 0.000000E+000
 0.000000E+000
 0.000000E+000
 0.000000E+000
 0.000000E+000
 0.000000E+000
 0.000000E+000
 0.000000E+000
 0.000000E+000
 0.000000E+000
 0.000000E+000
 0.000000E+000
 0.000000E+000
 0.000000E+000
 0.000000E+000
 0.000000E+000
 0.000000E+000
 0.000000E+000
 0.000000E+000
 0.000000E+000
 0.000000E+000
 0.000000E+000
 0.000000E+000
 0.000000E+000
 0.000000E+000
 0.000000E+000
 0.000000E+000
 0.000000E+000
 0.000000E+000
 0.000000E+000
 0.000000E+000
 0.000000E+000
 0.000000E+000
 0.000000E+000
 0.000000E+000
 0.000000E+000
 0.000000E+000
 0.000000E+000
 0.000000E+000
 0.000000E+000
 0.000000E+000
 0.000000E+000
 0.000000E+000
 0.000000E+000
 0.000000E+000
 0.000000E+000
 0.000000E+000
 0.000000E+000
 0.000000E+000
 0.000000E+000
 0.000000E+000
 0.000000E+000
 0.000000E+000
 0.000000E+000
 0.000000E+000
 0.000000E+000
 0.000000E+000
 0.000000E+000
 0.000000E+000
 0.000000E+000
 0.000000E+000
 0.000000E+000
 0.000000E+000
 0.000000E+000
 0.000000E+000
 0.000000E+000
 0.000000E+000
 0.000000E+000
 0.000000E+000
 0.000000E+000
 0.000000E+000
 0.000000E+000
 0.000000E+000
 0.000000E+000
 0.000000E+000
 0.000000E+000
 0.000000E+000
 0.000000E+000
 0.000000E+000
 0.000000E+000
 0.000000E+000
 0.000000E+000
 0.000000E+000
 0.000000E+000
 0.000000E+000
 0.000000E+000
 0.000000E+000
 0.000000E+000
 0.000000E+000
 0.000000E+000
 0.000000E+000
 0.000000E+000
 0.000000E+000
 0.000000E+000
 0.000000E+000
 0.000000E+000
 0.000000E+000
 0.000000E+000
 0.000000E+000
 0.000000E+000
 0.000000E+000
 0.000000E+000
 0.000000E+000
 0.000000E+000
 0.000000E+000
 0.000000E+000
 0.000000E+000
 0.000000E+000
 0.000000E+000
 0.000000E+000
 0.000000E+000
 0.000000E+000
 0.000000E+000
 0.000000E+000
 0.000000E+000
 0.000000E+000
 0.000000E+000
 0.000000E+000
 0.000000E+000
 0.000000E+000
 0.000000E+000
 0.000000E+000
 0.000000E+000
 0.000000E+000
 0.000000E+000
 0.000000E+000
 0.000000E+000
 0.000000E+000
 0.000000E+000
 0.000000E+000
 0.000000E+000
 0.000000E+000
 0.000000E+000
 0.000000E+000
 0.000000E+000
 0.000000E+000
 0.000000E+000
 0.000000E+000
 0.000000E+000
 0.000000E+000
 0.000000E+000
 0.000000E+000
 0.000000E+000
 0.000000E+000
 0.000000E+000
 0.000000E+000
 0.000000E+000
 0.000000E+000
 0.000000E+000
 0.000000E+000
 0.000000E+000
 0.000000E+000
 0.000000E+000
 0.000000E+000
 0.000000E+000
 0.000000E+000
 0.000000E+000
 0.000000E+000
 0.000000E+000
 0.000000E+000
 0.000000E+000
 0.000000E+000
 0.000000E+000
 0.000000E+000
 0.000000E+000
 0.000000E+000
 0.000000E+000
 0.000000E+000
 0.000000E+000
 0.000000E+000
 0.000000E+000
 0.000000E+000
 0.000000E+000
 0.000000E+000
 0.000000E+000
 0.000000E+000
 0.000000E+000
 0.000000E+000
 0.000000E+000
 0.000000E+000
 0.000000E+000
 0.000000E+000
 0.000000E+000
 0.000000E+000
 0.000000E+000
 0.000000E+000
 0.000000E+000
 0.000000E+000
 0.000000E+000
 0.000000E+000
 0.000000E+000
 0.000000E+000
 0.000000E+000
 0.000000E+000
 0.000000E+000
 0.000000E+000
 0.000000E+000
 0.000000E+000
 0.000000E+000
 0.000000E+000
 0.000000E+000
 0.000000E+000
 0.000000E+000
 0.000000E+000
 0.000000E+000
 0.000000E+000
 0.000000E+000
 0.000000E+000
 0.000000E+000
 0.000000E+000
 0.000000E+000
 0.000000E+000
 0.000000E+000
 0.000000E+000
 0.000000E+000
 0.000000E+000
 0.000000E+000
 0.000000E+000
 0.000000E+000
 0.000000E+000
 0.000000E+000
 0.000000E+000
 0.000000E+000
 0.000000E+000
 0.000000E+000
 0.000000E+000
 0.000000E+000
 0.000000E+000
 0.000000E+000
 0.000000E+000
 0.000000E+000
 0.000000E+000
 0.000000E+000
 0.000000E+000
 0.000000E+000
 0.000000E+000
 0.000000E+000
 0.000000E+000
 0.000000E+000
 0.000000E+000
 0.000000E+000
 0.000000E+000
 0.000000E+000
 0.000000E+000
 0.000000E+000
 0.000000E+000
 0.000000E+000
 0.000000E+000
 0.000000E+000
 0.000000E+000
 0.000000E+000
 0.000000E+000
 0.000000E+000
 0.000000E+000
 0.000000E+000
 0.000000E+000
 0.000000E+000
 0.000000E+000
 0.000000E+000
 0.000000E+000
 0.000000E+000
 0.000000E+000
 0.000000E+000
 0.000000E+000
 0.000000E+000
 0.000000E+000
 0.000000E+000
 0.000000E+000
 0.000000E+000
 0.000000E+000
 0.000000E+000
 0.000000E+000
 0.000000E+000
 0.000000E+000
 0.000000E+000
 0.000000E+000
 0.000000E+000
 0.000000E+000
 0.000000E+000
 0.000000E+000
 0.000000E+000
 0.000000E+000
 0.000000E+000
 0.000000E+000
 0.000000E+000
 0.000000E+000
 0.000000E+000
 0.000000E+000
 0.000000E+000
 0.000000E+000
 0.000000E+000
 0.000000E+000
 0.000000E+000
 0.000000E+000
 0.000000E+000
 0.000000E+000
 0.000000E+000
 0.000000E+000
 0.000000E+000
 0.000000E+000
 0.000000E+000
 0.000000E+000
 0.000000E+000
 0.000000E+000
 0.000000E+000
 0.000000E+000
 0.000000E+000
 0.000000E+000
 0.000000E+000
 0.000000E+000
 0.000000E+000
 0.000000E+000
 0.000000E+000
 0.000000E+000
 0.000000E+000
 0.000000E+000
 0.000000E+000
 0.000000E+000
 0.000000E+000
 0.000000E+000
 0.000000E+000
 0.000000E+000
 0.000000E+000
 0.000000E+000
 0.000000E+000
 0.000000E+000
 0.000000E+000
 0.000000E+000
 0.000000E+000
 0.000000E+000
 0.000000E+000
 0.000000E+000
 0.000000E+000
 0.000000E+000
 0.000000E+000
 0.000000E+000
 0.000000E+000
 0.000000E+000
 0.000000E+000
 0.000000E+000
 0.000000E+000
 0.000000E+000
 0.000000E+000
 0.000000E+000
 0.000000E+000
 0.000000E+000
 0.000000E+000
 0.000000E+000
 0.000000E+000
 0.000000E+000
 0.000000E+000
 0.000000E+000
 0.000000E+000
 0.000000E+000
 0.000000E+000
 0.000000E+000
 0.000000E+000
 0.000000E+000
 0.000000E+000
 0.000000E+000
 0.000000E+000
 0.000000E+000
 0.000000E+000
 0.000000E+000
 0.000000E+000
 0.000000E+000
 0.000000E+000
 0.000000E+000
 0.000000E+000
 0.000000E+000
 0.000000E+000
 0.000000E+000
 0.000000E+000
 0.000000E+000
 0.000000E+000
 0.000000E+000
 0.000000E+000
 0.000000E+000
 0.000000E+000
 0.000000E+000
 0.000000E+000
 0.000000E+000
 0.000000E+000
 0.000000E+000
 0.000000E+000
 0.000000E+000
 0.000000E+000
 0.000000E+000
 0.000000E+000
 0.000000E+000
 0.000000E+000
 0.000000E+000
 0.000000E+000
 0.000000E+000
 0.000000E+000
 0.000000E+000
 0.000000E+000
 0.000000E+000
 0.000000E+000
 0.000000E+000
 0.000000E+000
 0.000000E+000
 0.000000E+000
 0.000000E+000
 0.000000E+000
 0.000000E+000
 0.000000E+000
 0.000000E+000
 0.000000E+000
 0.000000E+000
 0.000000E+000
 0.000000E+000
 0.000000E+000
 0.000000E+000
 0.000000E+000
 0.000000E+000
 0.000000E+000
 0.000000E+000
 0.000000E+000
 0.000000E+000
 0.000000E+000
 0.000000E+000
 0.000000E+000
 0.000000E+000
 0.000000E+000
 0.000000E+000
 0.000000E+000
 0.000000E+000
 0.000000E+000
 0.000000E+000
 0.000000E+000
 0.000000E+000
 0.000000E+000
 0.000000E+000
 0.000000E+000
 0.000000E+000
 0.000000E+000
 0.000000E+000
 0.000000E+000
 0.000000E+000
 0.000000E+000
 0.000000E+000
 0.000000E+000
 0.000000E+000
 0.000000E+000
 0.000000E+000
 0.000000E+000
 0.000000E+000
 0.000000E+000
 0.000000E+000
 0.000000E+000
 0.000000E+000
 0.000000E+000
 0.000000E+000
 0.000000E+000
 0.000000E+000
 0.000000E+000
 0.000000E+000
 0.000000E+000
 0.000000E+000
 0.000000E+000
 0.000000E+000
 0.000000E+000
 0.000000E+000
 0.000000E+000
 0.000000E+000
 0.000000E+000
 0.000000E+000
 0.000000E+000
 0.000000E+000
 0.000000E+000
 0.000000E+000
 0.000000E+000
 0.000000E+000
 0.000000E+000
 0.000000E+000
 0.000000E+000
 0.000000E+000
 0.000000E+000
 0.000000E+000
 0.000000E+000
 0.000000E+000
 0.000000E+000
 0.000000E+000
 0.000000E+000
 0.000000E+000
 0.000000E+000
 0.000000E+000
 0.000000E+000
 0.000000E+000
 0.000000E+000
 0.000000E+000
 0.000000E+000
 0.000000E+000
 0.000000E+000
 0.000000E+000
 0.000000E+000
 0.000000E+000
 0.000000E+000
 0.000000E+000
 0.000000E+000
 0.000000E+000
 0.000000E+000
 0.000000E+000
 0.000000E+000
 0.000000E+000
 0.000000E+000
 0.000000E+000
 0.000000E+000
 0.000000E+000
 0.000000E+000
 0.000000E+000
 0.000000E+000
 0.000000E+000
 0.000000E+000
 0.000000E+000
 0.000000E+000
 0.000000E+000
 0.000000E+000
 0.000000E+000
 0.000000E+000
 0.000000E+000
 0.000000E+000
 0.000000E+000
 0.000000E+000
 0.000000E+000
 0.000000E+000
 0.000000E+000
 0.000000E+000
 0.000000E+000
 0.000000E+000
 0.000000E+000
 0.000000E+000
 0.000000E+000
 0.000000E+000
 0.000000E+000
 0.000000E+000
 0.000000E+000
 0.000000E+000
 0.000000E+000
 0.000000E+000
 0.000000E+000
 0.000000E+000
 0.000000E+000
 0.000000E+000
 0.000000E+000
 0.000000E+000
 0.000000E+000
 0.000000E+000
 0.000000E+000
 0.000000E+000
 0.000000E+000
 0.000000E+000
 0.000000E+000
 0.000000E+000
 0.000000E+000
 0.000000E+000
 0.000000E+000
 0.000000E+000
 0.000000E+000
 0.000000E+000
 0.000000E+000
 0.000000E+000
 0.000000E+000
 0.000000E+000
 0.000000E+000
 0.000000E+000
 0.000000E+000
 0.000000E+000
 0.000000E+000
 0.000000E+000
 0.000000E+000
 0.000000E+000
 0.000000E+000
 0.000000E+000
 0.000000E+000
 0.000000E+000
 0.000000E+000
 0.000000E+000
 0.000000E+000
 0.000000E+000
 0.000000E+000
 0.000000E+000
 0.000000E+000
 0.000000E+000
 0.000000E+000
 0.000000E+000
 0.000000E+000
 0.000000E+000
 0.000000E+000
 0.000000E+000
 0.000000E+000
 0.000000E+000
 0.000000E+000
 0.000000E+000
 0.000000E+000
 0.000000E+000
 0.000000E+000
 0.000000E+000
 0.000000E+000
 0.000000E+000
 0.000000E+000
 0.000000E+000
 0.000000E+000
 0.000000E+000
 0.000000E+000
 0.000000E+000
 0.000000E+000
 0.000000E+000
 0.000000E+000
 0.000000E+000
 0.000000E+000
 0.000000E+000
 0.000000E+000
 0.000000E+000
 0.000000E+000
 0.000000E+000
 0.000000E+000
 0.000000E+000
 0.000000E+000
 0.000000E+000
 0.000000E+000
 0.000000E+000
 0.000000E+000
 0.000000E+000
 0.000000E+000
 0.000000E+000
 0.000000E+000
 0.000000E+000
 0.000000E+000
 0.000000E+000
 0.000000E+000
 0.000000E+000
 0.000000E+000
 0.000000E+000
 0.000000E+000
 0.000000E+000
 0.000000E+000
 0.000000E+000
 0.000000E+000
 0.000000E+000
 0.000000E+000
 0.000000E+000
 0.000000E+000
 0.000000E+000
 0.000000E+000
 0.000000E+000
 0.000000E+000
 0.000000E+000
 0.000000E+000
 0.000000E+000
 0.000000E+000
 0.000000E+000
 0.000000E+000
 0.000000E+000
 0.000000E+000
 0.000000E+000
 0.000000E+000
 0.000000E+000
 0.000000E+000
 0.000000E+000
 0.000000E+000
 0.000000E+000
 0.000000E+000
 0.000000E+000
 0.000000E+000
 0.000000E+000
 0.000000E+000
 0.000000E+000
 0.000000E+000
 0.000000E+000
 0.000000E+000
 0.000000E+000
 0.000000E+000
 0.000000E+000
 0.000000E+000
 0.000000E+000
 0.000000E+000
 0.000000E+000
 0.000000E+000
 0.000000E+000
 0.000000E+000
 0.000000E+000
 0.000000E+000
 0.000000E+000
 0.000000E+000
 0.000000E+000
 0.000000E+000
 0.000000E+000
 0.000000E+000
 0.000000E+000
 0.000000E+000
 0.000000E+000
 0.000000E+000
 0.000000E+000
 0.000000E+000
 0.000000E+000
 0.000000E+000
 0.000000E+000
 0.000000E+000
 0.000000E+000
 0.000000E+000
 0.000000E+000
 0.000000E+000
 0.000000E+000
 0.000000E+000
 0.000000E+000
 0.000000E+000
 0.000000E+000
 0.000000E+000
 0.000000E+000
 0.000000E+000
 0.000000E+000
 0.000000E+000
 0.000000E+000
 0.000000E+000
 0.000000E+000
 0.000000E+000
 0.000000E+000
 0.000000E+000
 0.000000E+000
 0.000000E+000
 0.000000E+000
 0.000000E+000
 0.000000E+000
 0.000000E+000
 0.000000E+000
 0.000000E+000
 0.000000E+000
 0.000000E+000
 0.000000E+000
 0.000000E+000
 0.000000E+000
 0.000000E+000
 0.000000E+000
 0.000000E+000
 0.000000E+000
 0.000000E+000
 0.000000E+000
 0.000000E+000
 0.000000E+000
 0.000000E+000
 0.000000E+000
 0.000000E+000
 0.000000E+000
 0.000000E+000
 0.000000E+000
 0.000000E+000
 0.000000E+000
 0.000000E+000
 0.000000E+000
 0.000000E+000
 0.000000E+000
 0.000000E+000
 0.000000E+000
 0.000000E+000
 0.000000E+000
 0.000000E+000
 0.000000E+000
 0.000000E+000
 0.000000E+000
 0.000000E+000
 0.000000E+000
 0.000000E+000
 0.000000E+000
 0.000000E+000
 0.000000E+000
 0.000000E+000
 0.000000E+000
 0.000000E+000
 0.000000E+000
 0.000000E+000
 0.000000E+000
 0.000000E+000
 0.000000E+000
 0.000000E+000
 0.000000E+000
 0.000000E+000
 0.000000E+000
 0.000000E+000
 0.000000E+000
 0.000000E+000
 0.000000E+000
 0.000000E+000
 0.000000E+000
 0.000000E+000
 0.000000E+000
 0.000000E+000
 0.000000E+000
 0.000000E+000
 0.000000E+000
 0.000000E+000
 0.000000E+000
 0.000000E+000
 0.000000E+000
 0.000000E+000
 0.000000E+000
 0.000000E+000
 0.000000E+000
 0.000000E+000
 0.000000E+000
 0.000000E+000
 0.000000E+000
 0.000000E+000
 0.000000E+000
 0.000000E+000
 0.000000E+000
 0.000000E+000
 0.000000E+000
 0.000000E+000
 0.000000E+000
 0.000000E+000
 0.000000E+000
 0.000000E+000
 0.000000E+000
 0.000000E+000
 0.000000E+000
 0.000000E+000
 0.000000E+000
 0.000000E+000
 0.000000E+000
 0.000000E+000
 0.000000E+000
 0.000000E+000
 0.000000E+000
 0.000000E+000
 0.000000E+000
 0.000000E+000
 0.000000E+000
 0.000000E+000
 0.000000E+000
 0.000000E+000
 0.000000E+000
 0.000000E+000
 0.000000E+000
 0.000000E+000
 0.000000E+000
 0.000000E+000
 0.000000E+000
 0.000000E+000
 0.000000E+000
 0.000000E+000
 0.000000E+000
 0.000000E+000
 0.000000E+000
 0.000000E+000
 0.000000E+000
 0.000000E+000
 0.000000E+000
 0.000000E+000
 0.000000E+000
 0.000000E+000
 0.000000E+000
 0.000000E+000
 0.000000E+000
 0.000000E+000
 0.000000E+000
 0.000000E+000
 0.000000E+000
 0.000000E+000
 0.000000E+000
 0.000000E+000
 0.000000E+000
 0.000000E+000
 0.000000E+000
 0.000000E+000
 0.000000E+000
 0.000000E+000
 0.000000E+000
 0.000000E+000
 0.000000E+000
 0.000000E+000
 0.000000E+000
 0.000000E+000
 0.000000E+000
 0.000000E+000
 0.000000E+000
 0.000000E+000
 0.000000E+000
 0.000000E+000
 0.000000E+000
 0.000000E+000
 0.000000E+000
 0.000000E+000
 0.000000E+000
 0.000000E+000
 0.000000E+000
 0.000000E+000
 0.000000E+000
 0.000000E+000
 0.000000E+000
 0.000000E+000
 0.000000E+000
 0.000000E+000
 0.000000E+000
 0.000000E+000
 0.000000E+000
 0.000000E+000
 0.000000E+000
 0.000000E+000
 0.000000E+000
 0.000000E+000
 0.000000E+000
 0.000000E+000
 0.000000E+000
 0.000000E+000
 0.000000E+000
 0.000000E+000
 0.000000E+000
 0.000000E+000
 0.000000E+000
 0.000000E+000
 0.000000E+000
 0.000000E+000
 0.000000E+000
 0.000000E+000
 0.000000E+000
 0.000000E+000
 0.000000E+000
 0.000000E+000
 0.000000E+000
 0.000000E+000
 0.000000E+000
 0.000000E+000
 0.000000E+000
 0.000000E+000
 0.000000E+000
 0.000000E+000
 0.000000E+000
 0.000000E+000
 0.000000E+000
 0.000000E+000
 0.000000E+000
 0.000000E+000
 0.000000E+000
 0.000000E+000
 0.000000E+000
 0.000000E+000
 0.000000E+000
 0.000000E+000
 0.000000E+000
 0.000000E+000
 0.000000E+000
 0.000000E+000
 0.000000E+000
 0.000000E+000
 0.000000E+000
 0.000000E+000
 0.000000E+000
 0.000000E+000
 0.000000E+000
 0.000000E+000
 0.000000E+000
 0.000000E+000
 0.000000E+000
 0.000000E+000
 0.000000E+000
 0.000000E+000
 0.000000E+000
 0.000000E+000
 0.000000E+000
 0.000000E+000
 0.000000E+000
 0.000000E+000
 0.000000E+000
 0.000000E+000
 0.000000E+000
 0.000000E+000
 0.000000E+000
 0.000000E+000
 0.000000E+000
 0.000000E+000
 0.000000E+000
 0.000000E+000
 0.000000E+000
 0.000000E+000
 0.000000E+000
 0.000000E+000
 0.000000E+000
 0.000000E+000
 0.000000E+000
 0.000000E+000
 0.000000E+000
 0.000000E+000
 0.000000E+000
 0.000000E+000
 0.000000E+000
 0.000000E+000
 0.000000E+000
 0.000000E+000
 0.000000E+000
 0.000000E+000
 0.000000E+000
 0.000000E+000
 0.000000E+000
 0.000000E+000
 0.000000E+000
 0.000000E+000
 0.000000E+000
 0.000000E+000
 0.000000E+000
 0.000000E+000
 0.000000E+000
 0.000000E+000
 0.000000E+000
 0.000000E+000
 0.000000E+000
 0.000000E+000
 0.000000E+000
 0.000000E+000
 0.000000E+000
 0.000000E+000
 0.000000E+000
 0.000000E+000
 0.000000E+000
 0.000000E+000
 0.000000E+000
 0.000000E+000
 0.000000E+000
 0.000000E+000
 0.000000E+000
 0.000000E+000
 0.000000E+000
 0.000000E+000
 0.000000E+000
 0.000000E+000
 0.000000E+000
 0.000000E+000
 0.000000E+000
 0.000000E+000
 0.000000E+000
 0.000000E+000
 0.000000E+000
 0.000000E+000
 0.000000E+000
 0.000000E+000
 0.000000E+000
 0.000000E+000
 0.000000E+000
 0.000000E+000
 0.000000E+000
 0.000000E+000
 0.000000E+000
 0.000000E+000
 0.000000E+000
 0.000000E+000
 0.000000E+000
 0.000000E+000
 0.000000E+000
 0.000000E+000
 0.000000E+000
 0.000000E+000
 0.000000E+000
 0.000000E+000
 0.000000E+000
 0.000000E+000
 0.000000E+000
 0.000000E+000
 0.000000E+000
 0.000000E+000
 0.000000E+000
 0.000000E+000
 0.000000E+000
 0.000000E+000
 0.000000E+000
 0.000000E+000
 0.000000E+000
 0.000000E+000
 0.000000E+000
 0.000000E+000
 0.000000E+000
 0.000000E+000
 0.000000E+000
 0.000000E+000
 0.000000E+000
 0.000000E+000
 0.000000E+000
 0.000000E+000
 0.000000E+000
 0.000000E+000
 0.000000E+000
 0.000000E+000
 0.000000E+000
 0.000000E+000
 0.000000E+000
 0.000000E+000
 0.000000E+000
 0.000000E+000
 0.000000E+000
 0.000000E+000
 0.000000E+000
 0.000000E+000
 0.000000E+000
 0.000000E+000
 0.000000E+000
 0.000000E+000
 0.000000E+000
 0.000000E+000
 0.000000E+000
 0.000000E+000
 0.000000E+000
 0.000000E+000
 0.000000E+000
 0.000000E+000
 0.000000E+000
 0.000000E+000
 0.000000E+000
 0.000000E+000
 0.000000E+000
 0.000000E+000
 0.000000E+000
 0.000000E+000
 0.000000E+000
 0.000000E+000
 0.000000E+000
 0.000000E+000
 0.000000E+000
 0.000000E+000
 0.000000E+000
 0.000000E+000
 0.000000E+000
 0.000000E+000
 0.000000E+000
 0.000000E+000
 0.000000E+000
 0.000000E+000
 0.000000E+000
 0.000000E+000
 0.000000E+000
 0.000000E+000
 0.000000E+000
 0.000000E+000
 0.000000E+000
 0.000000E+000
 0.000000E+000
 0.000000E+000
 0.000000E+000
 0.000000E+000
 0.000000E+000
 0.000000E+000
 0.000000E+000
 0.000000E+000
 0.000000E+000
 0.000000E+000
 0.000000E+000
 0.000000E+000
 0.000000E+000
 0.000000E+000
 0.000000E+000
 0.000000E+000
 0.000000E+000
 0.000000E+000
 0.000000E+000
 0.000000E+000
 0.000000E+000
 0.000000E+000
 0.000000E+000
 0.000000E+000
 0.000000E+000
 0.000000E+000
 0.000000E+000
 0.000000E+000
 0.000000E+000
 0.000000E+000
 0.000000E+000
 0.000000E+000
 0.000000E+000
 0.000000E+000
 0.000000E+000
 0.000000E+000
 0.000000E+000
 0.000000E+000
 0.000000E+000
 0.000000E+000
 0.000000E+000
 0.000000E+000
 0.000000E+000
 0.000000E+000
 0.000000E+000
 0.000000E+000
 0.000000E+000
 0.000000E+000
 0.000000E+000
 0.000000E+000
 0.000000E+000
 0.000000E+000
 0.000000E+000
 0.000000E+000
 0.000000E+000
 0.000000E+000
 0.000000E+000
 0.000000E+000
 0.000000E+000
 0.000000E+000
 0.000000E+000
 0.000000E+000
 0.000000E+000
 0.000000E+000
 0.000000E+000
 0.000000E+000
 0.000000E+000
 0.000000E+000
 0.000000E+000
 0.000000E+000
 0.000000E+000
 0.000000E+000
 0.000000E+000
 0.000000E+000
 0.000000E+000
 0.000000E+000
 0.000000E+000
 0.000000E+000
 0.000000E+000
 0.000000E+000
 0.000000E+000
 0.000000E+000
 0.000000E+000
 0.000000E+000
 0.000000E+000
 0.000000E+000
 0.000000E+000
 0.000000E+000
 0.000000E+000
 0.000000E+000
 0.000000E+000
 0.000000E+000
 0.000000E+000
 0.000000E+000
 0.000000E+000
 0.000000E+000
 0.000000E+000
 0.000000E+000
 0.000000E+000
 0.000000E+000
 0.000000E+000
 0.000000E+000
 0.000000E+000
 0.000000E+000
 0.000000E+000
 0.000000E+000
 0.000000E+000
 0.000000E+000
 0.000000E+000
 0.000000E+000
 0.000000E+000
 0.000000E+000
 0.000000E+000
 0.000000E+000
 0.000000E+000
 0.000000E+000
 0.000000E+000
 0.000000E+000
 0.000000E+000
 0.000000E+000
 0.000000E+000
 0.000000E+000
 0.000000E+000
 0.000000E+000
 0.000000E+000
 0.000000E+000
 0.000000E+000
 0.000000E+000
 0.000000E+000
 0.000000E+000
 0.000000E+000
 0.000000E+000
 0.000000E+000
 0.000000E+000
 0.000000E+000
 0.000000E+000
 0.000000E+000
 0.000000E+000
 0.000000E+000
 0.000000E+000
 0.000000E+000
 0.000000E+000
 0.000000E+000
 0.000000E+000
 0.000000E+000
 0.000000E+000
 0.000000E+000
 0.000000E+000
 0.000000E+000
 0.000000E+000
 0.000000E+000
 0.000000E+000
 0.000000E+000
 0.000000E+000
 0.000000E+000
 0.000000E+000
 0.000000E+000
 0.000000E+000
 0.000000E+000
 0.000000E+000
 0.000000E+000
 0.000000E+000
 0.000000E+000
 0.000000E+000
 0.000000E+000
 0.000000E+000
 0.000000E+000
 0.000000E+000
 0.000000E+000
 0.000000E+000
 0.000000E+000
 0.000000E+000
 0.000000E+000
 0.000000E+000
 0.000000E+000
 0.000000E+000
 0.000000E+000
 0.000000E+000
 0.000000E+000
 0.000000E+000
 0.000000E+000
 0.000000E+000
 0.000000E+000
 0.000000E+000
 0.000000E+000
 0.000000E+000
 0.000000E+000
 0.000000E+000
 0.000000E+000
 0.000000E+000
 0.000000E+000
 0.000000E+000
 0.000000E+000
 0.000000E+000
 0.000000E+000
 0.000000E+000
 0.000000E+000
 0.000000E+000
 0.000000E+000
 0.000000E+000
 0.000000E+000
 0.000000E+000
 0.000000E+000
 0.000000E+000
 0.000000E+000
 0.000000E+000
 0.000000E+000
 0.000000E+000
 0.000000E+000
 0.000000E+000
 0.000000E+000
 0.000000E+000
 0.000000E+000
 0.000000E+000
 0.000000E+000
 0.000000E+000
 0.000000E+000
 0.000000E+000
 0.000000E+000
 0.000000E+000
 0.000000E+000
 0.000000E+000
 0.000000E+000
 0.000000E+000
 0.000000E+000
 0.000000E+000
 0.000000E+000
 0.000000E+000
 0.000000E+000
 0.000000E+000
 0.000000E+000
 0.000000E+000
 0.000000E+000
 0.000000E+000
 0.000000E+000
 0.000000E+000
 0.000000E+000
 0.000000E+000
 0.000000E+000
 0.000000E+000
 0.000000E+000
 0.000000E+000
 0.000000E+000
 0.000000E+000
 0.000000E+000
 0.000000E+000
 0.000000E+000
 0.000000E+000
 0.000000E+000
 0.000000E+000
 0.000000E+000
 0.000000E+000
 0.000000E+000
 0.000000E+000
 0.000000E+000
 0.000000E+000
 0.000000E+000
 0.000000E+000
 0.000000E+000
 0.000000E+000
 0.000000E+000
 0.000000E+000
 0.000000E+000
 0.000000E+000
 0.000000E+000
 0.000000E+000
 0.000000E+000
 0.000000E+000
 0.000000E+000
 0.000000E+000
 0.000000E+000
 0.000000E+000
 0.000000E+000
 0.000000E+000
 0.000000E+000
 0.000000E+000
 0.000000E+000
 0.000000E+000
 0.000000E+000
 0.000000E+000
 0.000000E+000
 0.000000E+000
 0.000000E+000
 0.000000E+000
 0.000000E+000
 0.000000E+000
 0.000000E+000
 0.000000E+000
 0.000000E+000
 0.000000E+000
 0.000000E+000
 0.000000E+000
 0.000000E+000
 0.000000E+000
 0.000000E+000
 0.000000E+000
 0.000000E+000
 0.000000E+000
 0.000000E+000
 0.000000E+000
 0.000000E+000
 0.000000E+000
 0.000000E+000
 0.000000E+000
 0.000000E+000
 0.000000E+000
 0.000000E+000
 0.000000E+000
 0.000000E+000
 0.000000E+000
 0.000000E+000
 0.000000E+000
 0.000000E+000
 0.000000E+000
 0.000000E+000
 0.000000E+000
 0.000000E+000
 0.000000E+000
 0.000000E+000
 0.000000E+000
 0.000000E+000
 0.000000E+000
 0.000000E+000
 0.000000E+000
 0.000000E+000
 0.000000E+000
 0.000000E+000
 0.000000E+000
 0.000000E+000
 0.000000E+000
 0.000000E+000
 0.000000E+000
 0.000000E+000
 0.000000E+000
 0.000000E+000
 0.000000E+000
 0.000000E+000
 0.000000E+000
 0.000000E+000
 0.000000E+000
 0.000000E+000
 0.000000E+000
 0.000000E+000
 0.000000E+000
 0.000000E+000
 0.000000E+000
 0.000000E+000
 0.000000E+000
 0.000000E+000
 0.000000E+000
 0.000000E+000
 0.000000E+000
 0.000000E+000
 0.000000E+000
 0.000000E+000
 0.000000E+000
 0.000000E+000
 0.000000E+000
 0.000000E+000
 0.000000E+000
 0.000000E+000
 0.000000E+000
 0.000000E+000
 0.000000E+000
 0.000000E+000
 0.000000E+000
 0.000000E+000
 0.000000E+000
 0.000000E+000
 0.000000E+000
 0.000000E+000
 0.000000E+000
 0.000000E+000
 0.000000E+000
 0.000000E+000
 0.000000E+000
 0.000000E+000
 0.000000E+000
 0.000000E+000
 0.000000E+000
 0.000000E+000
 0.000000E+000
 0.000000E+000
 0.000000E+000
 0.000000E+000
 0.000000E+000
 0.000000E+000
 0.000000E+000
 0.000000E+000
 0.000000E+000
 0.000000E+000
 0.000000E+000
 0.000000E+000
 0.000000E+000
 0.000000E+000
 0.000000E+000
 0.000000E+000
 0.000000E+000
 0.000000E+000
 0.000000E+000
 0.000000E+000
 0.000000E+000
 0.000000E+000
 0.000000E+000
 0.000000E+000
 0.000000E+000
 0.000000E+000
 0.000000E+000
 0.000000E+000
 0.000000E+000
 0.000000E+000
 0.000000E+000
 0.000000E+000
 0.000000E+000
 0.000000E+000
 0.000000E+000
 0.000000E+000
 0.000000E+000
 0.000000E+000
 0.000000E+000
 0.000000E+000
 0.000000E+000
 0.000000E+000
 0.000000E+000
 0.000000E+000
 0.000000E+000
 0.000000E+000
 0.000000E+000
 0.000000E+000
 0.000000E+000
 0.000000E+000
 0.000000E+000
 0.000000E+000
 0.000000E+000
 0.000000E+000
 0.000000E+000
 0.000000E+000
 0.000000E+000
 0.000000E+000
 0.000000E+000
 0.000000E+000
 0.000000E+000
 0.000000E+000
 0.000000E+000
 0.000000E+000
 0.000000E+000
 0.000000E+000
 0.000000E+000
 0.000000E+000
 0.000000E+000
 0.000000E+000
 0.000000E+000
 0.000000E+000
 0.000000E+000
 0.000000E+000
 0.000000E+000
 0.000000E+000
 0.000000E+000
 0.000000E+000
 0.000000E+000
 0.000000E+000
 0.000000E+000
 0.000000E+000
 0.000000E+000
 0.000000E+000
 0.000000E+000
 0.000000E+000
 0.000000E+000
 0.000000E+000
 0.000000E+000
 0.000000E+000
 0.000000E+000
 0.000000E+000
 0.000000E+000
 0.000000E+000
 0.000000E+000
 0.000000E+000
 0.000000E+000
 0.000000E+000
 0.000000E+000
 0.000000E+000
 0.000000E+000
 0.000000E+000
 0.000000E+000
 0.000000E+000
 0.000000E+000
 0.000000E+000
 0.000000E+000
 0.000000E+000
 0.000000E+000
 0.000000E+000
 0.000000E+000
 0.000000E+000
 0.000000E+000
 0.000000E+000
 0.000000E+000
 0.000000E+000
 0.000000E+000
 0.000000E+000
 0.000000E+000
 0.000000E+000
 0.000000E+000
 0.000000E+000
 0.000000E+000
 0.000000E+000
 0.000000E+000
 0.000000E+000
 0.000000E+000
 0.000000E+000
 0.000000E+000
 0.000000E+000
 0.000000E+000
 0.000000E+000
 0.000000E+000
 0.000000E+000
 0.000000E+000
 0.000000E+000
 0.000000E+000
 0.000000E+000
 0.000000E+000
 0.000000E+000
 0.000000E+000
 0.000000E+000
 0.000000E+000
 0.000000E+000
 0.000000E+000
 0.000000E+000
 0.000000E+000
 0.000000E+000
 0.000000E+000
 0.000000E+000
 0.000000E+000
 0.000000E+000
 0.000000E+000
 0.000000E+000
 0.000000E+000
 0.000000E+000
 0.000000E+000
 0.000000E+000
 0.000000E+000
 0.000000E+000
 0.000000E+000
 0.000000E+000
 0.000000E+000
 0.000000E+000
 0.000000E+000
 0.000000E+000
 0.000000E+000
 0.000000E+000
 0.000000E+000
 0.000000E+000
 0.000000E+000
 0.000000E+000
 0.000000E+000
 0.000000E+000
 0.000000E+000
 0.000000E+000
 0.000000E+000
 0.000000E+000
 0.000000E+000
 0.000000E+000
 0.000000E+000
 0.000000E+000
 0.000000E+000
 0.000000E+000
 0.000000E+000
 0.000000E+000
 0.000000E+000
 0.000000E+000
 0.000000E+000
 0.000000E+000
 0.000000E+000
 0.000000E+000
 0.000000E+000
 0.000000E+000
 0.000000E+000
 0.000000E+000
 0.000000E+000
 0.000000E+000
 0.000000E+000
 0.000000E+000
 0.000000E+000
 0.000000E+000
 0.000000E+000
 0.000000E+000
 0.000000E+000
 0.000000E+000
 0.000000E+000
 0.000000E+000
 0.000000E+000
 0.000000E+000
 0.000000E+000
 0.000000E+000
 0.000000E+000
 0.000000E+000
 0.000000E+000
 0.000000E+000
 0.000000E+000
 0.000000E+000
 0.000000E+000
 0.000000E+000
 0.000000E+000
 0.000000E+000
 0.000000E+000
 0.000000E+000
 0.000000E+000
 0.000000E+000
 0.000000E+000
 0.000000E+000
 0.000000E+000
 0.000000E+000
 0.000000E+000
 0.000000E+000
 0.000000E+000
 0.000000E+000
 0.000000E+000
 0.000000E+000
 0.000000E+000
 0.000000E+000
 0.000000E+000
 0.000000E+000
 0.000000E+000
 0.000000E+000
 0.000000E+000
 0.000000E+000
 0.000000E+000
 0.000000E+000
 0.000000E+000
 0.000000E+000
 0.000000E+000
 0.000000E+000
 0.000000E+000
 0.000000E+000
 0.000000E+000
 0.000000E+000
 0.000000E+000
 0.000000E+000
 0.000000E+000
 0.000000E+000
 0.000000E+000
 0.000000E+000
 0.000000E+000
 0.000000E+000
 0.000000E+000
 0.000000E+000
 0.000000E+000
 0.000000E+000
 0.000000E+000
 0.000000E+000
 0.000000E+000
 0.000000E+000
 0.000000E+000
 0.000000E+000
 0.000000E+000
 0.000000E+000
 0.000000E+000
 0.000000E+000
 0.000000E+000
 0.000000E+000
 0.000000E+000
 0.000000E+000
 0.000000E+000
 0.000000E+000
 0.000000E+000
 0.000000E+000
 0.000000E+000
 0.000000E+000
 0.000000E+000
 0.000000E+000
 0.000000E+000
 0.000000E+000
 0.000000E+000
 0.000000E+000
 0.000000E+000
 0.000000E+000
 0.000000E+000
 0.000000E+000
 0.000000E+000
 0.000000E+000
 0.000000E+000
 0.000000E+000
 0.000000E+000
 0.000000E+000
 0.000000E+000
 0.000000E+000
 0.000000E+000
 0.000000E+000
 0.000000E+000
 0.000000E+000
 0.000000E+000
 0.000000E+000
 0.000000E+000
 0.000000E+000
 0.000000E+000
 0.000000E+000
 0.000000E+000
 0.000000E+000
 0.000000E+000
 0.000000E+000
 0.000000E+000
 0.000000E+000
 0.000000E+000
 0.000000E+000
 0.000000E+000
 0.000000E+000
 0.000000E+000
 0.000000E+000
 0.000000E+000
 0.000000E+000
 0.000000E+000
 0.000000E+000
 0.000000E+000
 0.000000E+000
 0.000000E+000
 0.000000E+000
 0.000000E+000
 0.000000E+000
 0.000000E+000
 0.000000E+000
 0.000000E+000
 0.000000E+000
 0.000000E+000
 0.000000E+000
 0.000000E+000
 0.000000E+000
 0.000000E+000
 0.000000E+000
 0.000000E+000
 0.000000E+000
 0.000000E+000
 0.000000E+000
 0.000000E+000
 0.000000E+000
 0.000000E+000
 0.000000E+000
 0.000000E+000
 0.000000E+000
 0.000000E+000
 0.000000E+000
 0.000000E+000
 0.000000E+000
 0.000000E+000
 0.000000E+000
 0.000000E+000
 0.000000E+000
 0.000000E+000
 0.000000E+000
 0.000000E+000
 0.000000E+000
 0.000000E+000
 0.000000E+000
 0.000000E+000
 0.000000E+000
 0.000000E+000
 0.000000E+000
 0.000000E+000
 0.000000E+000
 0.000000E+000
 0.000000E+000
 0.000000E+000
 0.000000E+000
 0.000000E+000
 0.000000E+000
 0.000000E+000
 0.000000E+000
 0.000000E+000
 0.000000E+000
 0.000000E+000
 0.000000E+000
 0.000000E+000
 0.000000E+000
 0.000000E+000
 0.000000E+000
 0.000000E+000
 0.000000E+000
 0.000000E+000
 0.000000E+000
 0.000000E+000
 0.000000E+000
 0.000000E+000
 0.000000E+000
 0.000000E+000
 0.000000E+000
 0.000000E+000
 0.000000E+000
 0.000000E+000
 0.000000E+000
 0.000000E+000
 0.000000E+000
 0.000000E+000
 0.000000E+000
 0.000000E+000
 0.000000E+000
 0.000000E+000
 0.000000E+000
 0.000000E+000
 0.000000E+000
 0.000000E+000
 0.000000E+000
 0.000000E+000
 0.000000E+000
 0.000000E+000
 0.000000E+000
 0.000000E+000
 0.000000E+000
 0.000000E+000
 0.000000E+000
 0.000000E+000
 0.000000E+000
 0.000000E+000
 0.000000E+000
 0.000000E+000
 0.000000E+000
 0.000000E+000
 0.000000E+000
 0.000000E+000
 0.000000E+000
 0.000000E+000
 0.000000E+000
 0.000000E+000
 0.000000E+000
 0.000000E+000
 0.000000E+000
 0.000000E+000
 0.000000E+000
 0.000000E+000
 0.000000E+000
 0.000000E+000
 0.000000E+000
 0.000000E+000
 0.000000E+000
 0.000000E+000
 0.000000E+000
 0.000000E+000
 0.000000E+000
 0.000000E+000
 0.000000E+000
 0.000000E+000
 0.000000E+000
 0.000000E+000
 0.000000E+000
 0.000000E+000
 0.000000E+000
 0.000000E+000
 0.000000E+000
 0.000000E+000
 0.000000E+000
 0.000000E+000
 0.000000E+000
 0.000000E+000
 0.000000E+000
 0.000000E+000
 0.000000E+000
 0.000000E+000
 0.000000E+000
 0.000000E+000
 0.000000E+000
 0.000000E+000
 0.000000E+000
 0.000000E+000
 0.000000E+000
 0.000000E+000
 0.000000E+000
 0.000000E+000
 0.000000E+000
 0.000000E+000
 0.000000E+000
 0.000000E+000
 0.000000E+000
 0.000000E+000
 0.000000E+000
 0.000000E+000
 0.000000E+000
 0.000000E+000
 0.000000E+000
 0.000000E+000
 0.000000E+000
 0.000000E+000
 0.000000E+000
 0.000000E+000
 0.000000E+000
 0.000000E+000
 0.000000E+000
 0.000000E+000
 0.000000E+000
 0.000000E+000
 0.000000E+000
 0.000000E+000
 0.000000E+000
 0.000000E+000
 0.000000E+000
 0.000000E+000
 0.000000E+000
 0.000000E+000
 0.000000E+000
 0.000000E+000
 0.000000E+000
 0.000000E+000
 0.000000E+000
 0.000000E+000
 0.000000E+000
 0.000000E+000
 0.000000E+000
 0.000000E+000
 0.000000E+000
 0.000000E+000
 0.000000E+000
 0.000000E+000
 0.000000E+000
 0.000000E+000
 0.000000E+000
 0.000000E+000
 0.000000E+000
 0.000000E+000
 0.000000E+000
 0.000000E+000
 0.000000E+000
 0.000000E+000
 0.000000E+000
 0.000000E+000
 0.000000E+000
 0.000000E+000
 0.000000E+000
 0.000000E+000
 0.000000E+000
 0.000000E+000
 0.000000E+000
 0.000000E+000
 0.000000E+000
 0.000000E+000
 0.000000E+000
 0.000000E+000
 0.000000E+000
 0.000000E+000
 0.000000E+000
 0.000000E+000
 0.000000E+000
 0.000000E+000
 0.000000E+000
 0.000000E+000
 0.000000E+000
 0.000000E+000
 0.000000E+000
 0.000000E+000
 0.000000E+000
 0.000000E+000
 0.000000E+000
 0.000000E+000
 0.000000E+000
 0.000000E+000
 0.000000E+000
 0.000000E+000
 0.000000E+000
 0.000000E+000
 0.000000E+000
 0.000000E+000
 0.000000E+000
 0.000000E+000
 0.000000E+000
 0.000000E+000
 0.000000E+000
 0.000000E+000
 0.000000E+000
 0.000000E+000
 0.000000E+000
 0.000000E+000
 0.000000E+000
 0.000000E+000
 0.000000E+000
 0.000000E+000
 0.000000E+000
 0.000000E+000
 0.000000E+000
 0.000000E+000
 0.000000E+000
 0.000000E+000
 0.000000E+000
 0.000000E+000
 0.000000E+000
 0.000000E+000
 0.000000E+000
 0.000000E+000
 0.000000E+000
 0.000000E+000
 0.000000E+000
 0.000000E+000
 0.000000E+000
 0.000000E+000
 0.000000E+000
 0.000000E+000
 0.000000E+000
 0.000000E+000
 0.000000E+000
 0.000000E+000
 0.000000E+000
 0.000000E+000
 0.000000E+000
 0.000000E+000
 0.000000E+000
 0.000000E+000
 0.000000E+000
 0.000000E+000
 0.000000E+000
 0.000000E+000
 0.000000E+000
 0.000000E+000
 0.000000E+000
 0.000000E+000
 0.000000E+000
 0.000000E+000
 0.000000E+000
 0.000000E+000
 0.000000E+000
 0.000000E+000
 0.000000E+000
 0.000000E+000
 0.000000E+000
 0.000000E+000
 0.000000E+000
 0.000000E+000
 0.000000E+000
 0.000000E+000
 0.000000E+000
 0.000000E+000
 0.000000E+000
 0.000000E+000
 0.000000E+000
 0.000000E+000
 0.000000E+000
 0.000000E+000
 0.000000E+000
 0.000000E+000
 0.000000E+000
 0.000000E+000
 0.000000E+000
 0.000000E+000
 0.000000E+000
 0.000000E+000
 0.000000E+000
 0.000000E+000
 0.000000E+000
 0.000000E+000
 0.000000E+000
 0.000000E+000
 0.000000E+000
 0.000000E+000
 0.000000E+000
 0.000000E+000
 0.000000E+000
 0.000000E+000
 0.000000E+000
 0.000000E+000
 0.000000E+000
 0.000000E+000
 0.000000E+000
 0.000000E+000
 0.000000E+000
 0.000000E+000
 0.000000E+000
 0.000000E+000
 0.000000E+000
 0.000000E+000
 0.000000E+000
 0.000000E+000
 0.000000E+000
 0.000000E+000
 0.000000E+000
 0.000000E+000
 0.000000E+000
 0.000000E+000
 0.000000E+000
 0.000000E+000
 0.000000E+000
 0.000000E+000
 0.000000E+000
 0.000000E+000
 0.000000E+000
 0.000000E+000
 0.000000E+000
 0.000000E+000
 0.000000E+000
 0.000000E+000
 0.000000E+000
 0.000000E+000
 0.000000E+000
 0.000000E+000
 0.000000E+000
 0.000000E+000
 0.000000E+000
 0.000000E+000
 0.000000E+000
 0.000000E+000
 0.000000E+000
 0.000000E+000
 0.000000E+000
 0.000000E+000
 0.000000E+000
 0.000000E+000
 0.000000E+000
 0.000000E+000
 0.000000E+000
 0.000000E+000
 0.000000E+000
 0.000000E+000
 0.000000E+000
 0.000000E+000
 0.000000E+000
 0.000000E+000
 0.000000E+000
 0.000000E+000
 0.000000E+000
 0.000000E+000
 0.000000E+000
 0.000000E+000
 0.000000E+000
 0.000000E+000
 0.000000E+000
 0.000000E+000
 0.000000E+000
 0.000000E+000
 0.000000E+000
 0.000000E+000
 0.000000E+000
 0.000000E+000
 0.000000E+000
 0.000000E+000
 0.000000E+000
 0.000000E+000
 0.000000E+000
 0.000000E+000
 0.000000E+000
 0.000000E+000
 0.000000E+000
 0.000000E+000
 0.000000E+000
 0.000000E+000
 0.000000E+000
 0.000000E+000
 0.000000E+000
 0.000000E+000
 0.000000E+000
 0.000000E+000
 0.000000E+000
 0.000000E+000
 0.000000E+000
 0.000000E+000
 0.000000E+000
 0.000000E+000
 0.000000E+000
 0.000000E+000
 0.000000E+000
 0.000000E+000
 0.000000E+000
 0.000000E+000
 0.000000E+000
 0.000000E+000
 0.000000E+000
 0.000000E+000
 0.000000E+000
 0.000000E+000
 0.000000E+000
 0.000000E+000
 0.000000E+000
 0.000000E+000
 0.000000E+000
 0.000000E+000
 0.000000E+000
 0.000000E+000
 0.000000E+000
 0.000000E+000
 0.000000E+000
 0.000000E+000
 0.000000E+000
 0.000000E+000
 0.000000E+000
 0.000000E+000
 0.000000E+000
 0.000000E+000
 0.000000E+000
 0.000000E+000
 0.000000E+000
 0.000000E+000
 0.000000E+000
 0.000000E+000
 0.000000E+000
 0.000000E+000
 0.000000E+000
 0.000000E+000
 0.000000E+000
 0.000000E+000
 0.000000E+000
 0.000000E+000
 0.000000E+000
 0.000000E+000
 0.000000E+000
 0.000000E+000
 0.000000E+000
 0.000000E+000
 0.000000E+000
 0.000000E+000
 0.000000E+000
 0.000000E+000
 0.000000E+000
 0.000000E+000
 0.000000E+000
 0.000000E+000
 0.000000E+000
 0.000000E+000
 0.000000E+000
 0.000000E+000
 0.000000E+000
 0.000000E+000
 0.000000E+000
 0.000000E+000
 0.000000E+000
 0.000000E+000
 0.000000E+000
 0.000000E+000
 0.000000E+000
 0.000000E+000
 0.000000E+000
 0.000000E+000
 0.000000E+000
 0.000000E+000
 0.000000E+000
 0.000000E+000
 0.000000E+000
 0.000000E+000
 0.000000E+000
 0.000000E+000
 0.000000E+000
 0.000000E+000
 0.000000E+000
 0.000000E+000
 0.000000E+000
 0.000000E+000
 0.000000E+000
 0.000000E+000
 0.000000E+000
 0.000000E+000
 0.000000E+000
 0.000000E+000
 0.000000E+000
 0.000000E+000
 0.000000E+000
 0.000000E+000
 0.000000E+000
 0.000000E+000
 0.000000E+000
 0.000000E+000
 0.000000E+000
 0.000000E+000
 0.000000E+000
 0.000000E+000
 0.000000E+000
 0.000000E+000
 0.000000E+000
 0.000000E+000
 0.000000E+000
 0.000000E+000
 0.000000E+000
 0.000000E+000
 0.000000E+000
 0.000000E+000
 0.000000E+000
 0.000000E+000
 0.000000E+000
 0.000000E+000
 0.000000E+000
 0.000000E+000
 0.000000E+000
 0.000000E+000
 0.000000E+000
 0.000000E+000
 0.000000E+000
 0.000000E+000
 0.000000E+000
 0.000000E+000
 0.000000E+000
 0.000000E+000
 0.000000E+000
 0.000000E+000
 0.000000E+000
 0.000000E+000
 0.000000E+000
 0.000000E+000
 0.000000E+000
 0.000000E+000
 0.000000E+000
 0.000000E+000
 0.000000E+000
 0.000000E+000
 0.000000E+000
 0.000000E+000
 0.000000E+000
 0.000000E+000
 0.000000E+000
 0.000000E+000
 0.000000E+000
 0.000000E+000
 0.000000E+000
 0.000000E+000
 0.000000E+000
 0.000000E+000
 0.000000E+000
 0.000000E+000
 0.000000E+000
 0.000000E+000
 0.000000E+000
 0.000000E+000
 0.000000E+000
 0.000000E+000
 0.000000E+000
 0.000000E+000
 0.000000E+000
 0.000000E+000
 0.000000E+000
 0.000000E+000
 0.000000E+000
 0.000000E+000
 0.000000E+000
 0.000000E+000
 0.000000E+000
 0.000000E+000
 0.000000E+000
 0.000000E+000
 0.000000E+000
 0.000000E+000
 0.000000E+000
 0.000000E+000
 0.000000E+000
 0.000000E+000
 0.000000E+000
 0.000000E+000
 0.000000E+000
 0.000000E+000
 0.000000E+000
 0.000000E+000
 0.000000E+000
 0.000000E+000
 0.000000E+000
 0.000000E+000
 0.000000E+000
 0.000000E+000
 0.000000E+000
 0.000000E+000
 0.000000E+000
 0.000000E+000
 0.000000E+000
 0.000000E+000
 0.000000E+000
 0.000000E+000
 0.000000E+000
 0.000000E+000
 0.000000E+000
 0.000000E+000
 0.000000E+000
 0.000000E+000
 0.000000E+000
 0.000000E+000
 0.000000E+000
 0.000000E+000
 0.000000E+000
 0.000000E+000
 0.000000E+000
 0.000000E+000
 0.000000E+000
 0.000000E+000
 0.000000E+000
 0.000000E+000
 0.000000E+000
 0.000000E+000
 0.000000E+000
 0.000000E+000
 0.000000E+000
 0.000000E+000
 0.000000E+000
 0.000000E+000
 0.000000E+000
 0.000000E+000
 0.000000E+000
 0.000000E+000
 0.000000E+000
 0.000000E+000
 0.000000E+000
 0.000000E+000
 0.000000E+000
 0.000000E+000
 0.000000E+000
 0.000000E+000
 0.000000E+000
 0.000000E+000
 0.000000E+000
 0.000000E+000
 0.000000E+000
 0.000000E+000
 0.000000E+000
 0.000000E+000
 0.000000E+000
 0.000000E+000
 0.000000E+000
 0.000000E+000
 0.000000E+000
 0.000000E+000
 0.000000E+000
 0.000000E+000
 0.000000E+000
 0.000000E+000
 0.000000E+000
 0.000000E+000
 0.000000E+000
 0.000000E+000
 0.000000E+000
 0.000000E+000
 0.000000E+000
 0.000000E+000
 0.000000E+000
 0.000000E+000
 0.000000E+000
 0.000000E+000
 0.000000E+000
 0.000000E+000
 0.000000E+000
 0.000000E+000
 0.000000E+000
 0.000000E+000
 0.000000E+000
 0.000000E+000
 0.000000E+000
 0.000000E+000
 0.000000E+000
 0.000000E+000
 0.000000E+000
 0.000000E+000
 0.000000E+000
 0.000000E+000
 0.000000E+000
 0.000000E+000
 0.000000E+000
 0.000000E+000
 0.000000E+000
 0.000000E+000
 0.000000E+000
 0.000000E+000
 0.000000E+000
 0.000000E+000
 0.000000E+000
 0.000000E+000
 0.000000E+000
 0.000000E+000
 0.000000E+000
 0.000000E+000
 0.000000E+000
 0.000000E+000
 0.000000E+000
 0.000000E+000
 0.000000E+000
 0.000000E+000
 0.000000E+000
 0.000000E+000
 0.000000E+000
 0.000000E+000
 0.000000E+000
 0.000000E+000
 0.000000E+000
 0.000000E+000
 0.000000E+000
 0.000000E+000
 0.000000E+000
 0.000000E+000
 0.000000E+000
 0.000000E+000
 0.000000E+000
 0.000000E+000
 0.000000E+000
 0.000000E+000
 0.000000E+000
 0.000000E+000
 0.000000E+000
 0.000000E+000
 0.000000E+000
 0.000000E+000
 0.000000E+000
 0.000000E+000
 0.000000E+000
 0.000000E+000
 0.000000E+000
 0.000000E+000
 0.000000E+000
 0.000000E+000
 0.000000E+000
 0.000000E+000
 0.000000E+000
 0.000000E+000
 0.000000E+000
 0.000000E+000
 0.000000E+000
 0.000000E+000
 0.000000E+000
 0.000000E+000
 0.000000E+000
 0.000000E+000
 0.000000E+000
 0.000000E+000
 0.000000E+000
 0.000000E+000
 0.000000E+000
 0.000000E+000
 0.000000E+000
 0.000000E+000
 0.000000E+000
 0.000000E+000
 0.000000E+000
 0.000000E+000
 0.000000E+000
 0.000000E+000
 0.000000E+000
 0.000000E+000
 0.000000E+000
 0.000000E+000
 0.000000E+000
 0.000000E+000
 0.000000E+000
 0.000000E+000
 0.000000E+000
 0.000000E+000
 0.000000E+000
 0.000000E+000
 0.000000E+000
 0.000000E+000
 0.000000E+000
 0.000000E+000
 0.000000E+000
 0.000000E+000
 0.000000E+000
 0.000000E+000
 0.000000E+000
 0.000000E+000
 0.000000E+000
 0.000000E+000
 0.000000E+000
 0.000000E+000
 0.000000E+000
 0.000000E+000
 0.000000E+000
 0.000000E+000
 0.000000E+000
 0.000000E+000
 0.000000E+000
 0.000000E+000
 0.000000E+000
 0.000000E+000
 0.000000E+000
 0.000000E+000
 0.000000E+000
 0.000000E+000
 0.000000E+000
 0.000000E+000
 0.000000E+000
 0.000000E+000
 0.000000E+000
 0.000000E+000
 0.000000E+000
 0.000000E+000
 0.000000E+000
 0.000000E+000
 0.000000E+000
 0.000000E+000
 0.000000E+000
 0.000000E+000
 0.000000E+000
 0.000000E+000
 0.000000E+000
 0.000000E+000
 0.000000E+000
 0.000000E+000
 0.000000E+000
 0.000000E+000
 0.000000E+000
 0.000000E+000
 0.000000E+000
 0.000000E+000
 0.000000E+000
 0.000000E+000
 0.000000E+000
 0.000000E+000
 0.000000E+000
 0.000000E+000
 0.000000E+000
 0.000000E+000
 0.000000E+000
 0.000000E+000
 0.000000E+000
 0.000000E+000
 0.000000E+000
 0.000000E+000
 0.000000E+000
 0.000000E+000
 0.000000E+000
 0.000000E+000
 0.000000E+000
 0.000000E+000
 0.000000E+000
 0.000000E+000
 0.000000E+000
 0.000000E+000
 0.000000E+000
 0.000000E+000
 0.000000E+000
 0.000000E+000
 0.000000E+000
 0.000000E+000
 0.000000E+000
 0.000000E+000
 0.000000E+000
 0.000000E+000
 0.000000E+000
 0.000000E+000
 0.000000E+000
 0.000000E+000
 0.000000E+000
 0.000000E+000
 0.000000E+000
 0.000000E+000
 0.000000E+000
 0.000000E+000
 0.000000E+000
 0.000000E+000
 0.000000E+000
 0.000000E+000
 0.000000E+000
 0.000000E+000
 0.000000E+000
 0.000000E+000
 0.000000E+000
 0.000000E+000
 0.000000E+000
 0.000000E+000
 0.000000E+000
 0.000000E+000
 0.000000E+000
 0.000000E+000
 0.000000E+000
 0.000000E+000
 0.000000E+000
 0.000000E+000
 0.000000E+000
 0.000000E+000
 0.000000E+000
 0.000000E+000
 0.000000E+000
 0.000000E+000
 0.000000E+000
 0.000000E+000
 0.000000E+000
 0.000000E+000
 0.000000E+000
 0.000000E+000
 0.000000E+000
 0.000000E+000
 0.000000E+000
 0.000000E+000
 0.000000E+000
 0.000000E+000
 0.000000E+000
 0.000000E+000
 0.000000E+000
 0.000000E+000
 0.000000E+000
 0.000000E+000
 0.000000E+000
 0.000000E+000
 0.000000E+000
 0.000000E+000
 0.000000E+000
 0.000000E+000
 0.000000E+000
 0.000000E+000
 0.000000E+000
 0.000000E+000
 0.000000E+000
 0.000000E+000
 0.000000E+000
 0.000000E+000
 0.000000E+000
 0.000000E+000
 0.000000E+000
 0.000000E+000
 0.000000E+000
 0.000000E+000
 0.000000E+000
 0.000000E+000
 0.000000E+000
 0.000000E+000
 0.000000E+000
 0.000000E+000
 0.000000E+000
 0.000000E+000
 0.000000E+000
 0.000000E+000
 0.000000E+000
 0.000000E+000
 0.000000E+000
 0.000000E+000
 0.000000E+000
 0.000000E+000
 0.000000E+000
 0.000000E+000
 0.000000E+000
 0.000000E+000
 0.000000E+000
 0.000000E+000
 0.000000E+000
 0.000000E+000
 0.000000E+000
 0.000000E+000
 0.000000E+000
 0.000000E+000
 0.000000E+000
 0.000000E+000
 0.000000E+000
 0.000000E+000
 0.000000E+000
 0.000000E+000
 0.000000E+000
 0.000000E+000
 0.000000E+000
 0.000000E+000
 0.000000E+000
 0.000000E+000
 0.000000E+000
 0.000000E+000
 0.000000E+000
 0.000000E+000
 0.000000E+000
 0.000000E+000
 0.000000E+000
 0.000000E+000
 0.000000E+000
 0.000000E+000
 0.000000E+000
 0.000000E+000
 0.000000E+000
 0.000000E+000
 0.000000E+000
 0.000000E+000
 0.000000E+000
 0.000000E+000
 0.000000E+000
 0.000000E+000
 0.000000E+000
 0.000000E+000
 0.000000E+000
 0.000000E+000
 0.000000E+000
 0.000000E+000
 0.000000E+000
 0.000000E+000
 0.000000E+000
 0.000000E+000
 0.000000E+000
 0.000000E+000
 0.000000E+000
 0.000000E+000
 0.000000E+000
 0.000000E+000
 0.000000E+000
 0.000000E+000
 0.000000E+000
 0.000000E+000
 0.000000E+000
 0.000000E+000
 0.000000E+000
 0.000000E+000
 0.000000E+000
 0.000000E+000
 0.000000E+000
 0.000000E+000
 0.000000E+000
 0.000000E+000
 0.000000E+000
 0.000000E+000
 0.000000E+000
 0.000000E+000
 0.000000E+000
 0.000000E+000
 0.000000E+000
 0.000000E+000
 0.000000E+000
 0.000000E+000
 0.000000E+000
 0.000000E+000
 0.000000E+000
 0.000000E+000
 0.000000E+000
 0.000000E+000
 0.000000E+000
 0.000000E+000
 0.000000E+000
 0.000000E+000
 0.000000E+000
 0.000000E+000
 0.000000E+000
 0.000000E+000
 0.000000E+000
 0.000000E+000
 0.000000E+000
 0.000000E+000
 0.000000E+000
 0.000000E+000
 0.000000E+000
 0.000000E+000
 0.000000E+000
 0.000000E+000
 0.000000E+000
 0.000000E+000
 0.000000E+000
 0.000000E+000
 0.000000E+000
 0.000000E+000
 0.000000E+000
 0.000000E+000
 0.000000E+000
 0.000000E+000
 0.000000E+000
 0.000000E+000
 0.000000E+000
 0.000000E+000
 0.000000E+000
 0.000000E+000
 0.000000E+000
 0.000000E+000
 0.000000E+000
 0.000000E+000
 0.000000E+000
 0.000000E+000
 0.000000E+000
 0.000000E+000
 0.000000E+000
 0.000000E+000
 0.000000E+000
 0.000000E+000
 0.000000E+000
 0.000000E+000
 0.000000E+000
 0.000000E+000
 0.000000E+000
 0.000000E+000
 0.000000E+000
 0.000000E+000
 0.000000E+000
 0.000000E+000
 0.000000E+000
 0.000000E+000
 0.000000E+000
 0.000000E+000
 0.000000E+000
 0.000000E+000
 0.000000E+000
 0.000000E+000
 0.000000E+000
 0.000000E+000
 0.000000E+000
 0.000000E+000
 0.000000E+000
 0.000000E+000
 0.000000E+000
 0.000000E+000
 0.000000E+000
 0.000000E+000
 0.000000E+000
 0.000000E+000
 0.000000E+000
 0.000000E+000
 0.000000E+000
 0.000000E+000
 0.000000E+000
 0.000000E+000
 0.000000E+000
 0.000000E+000
 0.000000E+000
 0.000000E+000
 0.000000E+000
 0.000000E+000
 0.000000E+000
 0.000000E+000
 0.000000E+000
 0.000000E+000
 0.000000E+000
 0.000000E+000
 0.000000E+000
 0.000000E+000
 0.000000E+000
 0.000000E+000
 0.000000E+000
 0.000000E+000
 0.000000E+000
 0.000000E+000
 0.000000E+000
 0.000000E+000
 0.000000E+000
 0.000000E+000
 0.000000E+000
 0.000000E+000
 0.000000E+000
 0.000000E+000
 0.000000E+000
 0.000000E+000
 0.000000E+000
 0.000000E+000
 0.000000E+000
 0.000000E+000
 0.000000E+000
 0.000000E+000
 0.000000E+000
 0.000000E+000
 0.000000E+000
 0.000000E+000
 0.000000E+000
 0.000000E+000
 0.000000E+000
 0.000000E+000
 0.000000E+000
 0.000000E+000
 0.000000E+000
 0.000000E+000
 0.000000E+000
 0.000000E+000
 0.000000E+000
 0.000000E+000
 0.000000E+000
 0.000000E+000
 0.000000E+000
 0.000000E+000
 0.000000E+000
 0.000000E+000
 0.000000E+000
 0.000000E+000
 0.000000E+000
 0.000000E+000
 0.000000E+000
 0.000000E+000
 0.000000E+000
 0.000000E+000
 0.000000E+000
 0.000000E+000
 0.000000E+000
 0.000000E+000
 0.000000E+000
 0.000000E+000
 0.000000E+000
 0.000000E+000
 0.000000E+000
 0.000000E+000
 0.000000E+000
 0.000000E+000
 0.000000E+000
 0.000000E+000
 0.000000E+000
 0.000000E+000
 0.000000E+000
 0.000000E+000
 0.000000E+000
 0.000000E+000
 0.000000E+000
 0.000000E+000
 0.000000E+000
 0.000000E+000
 0.000000E+000
 0.000000E+000
 0.000000E+000
 0.000000E+000
 0.000000E+000
 0.000000E+000
 0.000000E+000
 0.000000E+000
 0.000000E+000
 0.000000E+000
 0.000000E+000
 0.000000E+000
 0.000000E+000
 0.000000E+000
 0.000000E+000
 0.000000E+000
 0.000000E+000
 0.000000E+000
 0.000000E+000
 0.000000E+000
 0.000000E+000
 0.000000E+000
 0.000000E+000
 0.000000E+000
 0.000000E+000
 0.000000E+000
 0.000000E+000
 0.000000E+000
 0.000000E+000
 0.000000E+000
 0.000000E+000
 0.000000E+000
 0.000000E+000
 0.000000E+000
 0.000000E+000
 0.000000E+000
 0.000000E+000
 0.000000E+000
 0.000000E+000
 0.000000E+000
 0.000000E+000
 0.000000E+000
 0.000000E+000
 0.000000E+000
 0.000000E+000
 0.000000E+000
 0.000000E+000
 0.000000E+000
 0.000000E+000
 0.000000E+000
 0.000000E+000
 0.000000E+000
 0.000000E+000
 0.000000E+000
 0.000000E+000
 0.000000E+000
 0.000000E+000
 0.000000E+000
 0.000000E+000
 0.000000E+000
 0.000000E+000
 0.000000E+000
 0.000000E+000
 0.000000E+000
 0.000000E+000
 0.000000E+000
 0.000000E+000
 0.000000E+000
 0.000000E+000
 0.000000E+000
 0.000000E+000
 0.000000E+000
 0.000000E+000
 0.000000E+000
 0.000000E+000
 0.000000E+000
 0.000000E+000
 0.000000E+000
 0.000000E+000
 0.000000E+000
 0.000000E+000
 0.000000E+000
 0.000000E+000
 0.000000E+000
 0.000000E+000
 0.000000E+000
 0.000000E+000
 0.000000E+000
 0.000000E+000
 0.000000E+000
 0.000000E+000
 0.000000E+000
 0.000000E+000
 0.000000E+000
 0.000000E+000
 0.000000E+000
 0.000000E+000
 0.000000E+000
 0.000000E+000
 0.000000E+000
 0.000000E+000
 0.000000E+000
 0.000000E+000
 0.000000E+000
 0.000000E+000
 0.000000E+000
 0.000000E+000
 0.000000E+000
 0.000000E+000
 0.000000E+000
 0.000000E+000
 0.000000E+000
 0.000000E+000
 0.000000E+000
 0.000000E+000
 0.000000E+000
 0.000000E+000
 0.000000E+000
 0.000000E+000
 0.000000E+000
 0.000000E+000
 0.000000E+000
 0.000000E+000
 0.000000E+000
 0.000000E+000
 0.000000E+000
 0.000000E+000
 0.000000E+000
 0.000000E+000
 0.000000E+000
 0.000000E+000
 0.000000E+000
 0.000000E+000
 0.000000E+000
 0.000000E+000
 0.000000E+000
 0.000000E+000
 0.000000E+000
 0.000000E+000
 0.000000E+000
 0.000000E+000
 0.000000E+000
 0.000000E+000
 0.000000E+000
 0.000000E+000
 0.000000E+000
 0.000000E+000
 0.000000E+000
 0.000000E+000
 0.000000E+000
 0.000000E+000
 0.000000E+000
 0.000000E+000
 0.000000E+000
 0.000000E+000
 0.000000E+000
 0.000000E+000
 0.000000E+000
 0.000000E+000
 0.000000E+000
 0.000000E+000
 0.000000E+000
 0.000000E+000
 0.000000E+000
 0.000000E+000
 0.000000E+000
 0.000000E+000
 0.000000E+000
 0.000000E+000
 0.000000E+000
 0.000000E+000
 0.000000E+000
 0.000000E+000
 0.000000E+000
 0.000000E+000
 0.000000E+000
 0.000000E+000
 0.000000E+000
 0.000000E+000
 0.000000E+000
 0.000000E+000
 0.000000E+000
 0.000000E+000
 0.000000E+000
 0.000000E+000
 0.000000E+000
 0.000000E+000
 0.000000E+000
 0.000000E+000
 0.000000E+000
 0.000000E+000
 0.000000E+000
 0.000000E+000
 0.000000E+000
 0.000000E+000
 0.000000E+000
 0.000000E+000
 0.000000E+000
 0.000000E+000
 0.000000E+000
 0.000000E+000
 0.000000E+000
 0.000000E+000
 0.000000E+000
 0.000000E+000
 0.000000E+000
 0.000000E+000
 0.000000E+000
 0.000000E+000
 0.000000E+000
 0.000000E+000
 0.000000E+000
 0.000000E+000
 0.000000E+000
 0.000000E+000
 0.000000E+000
 0.000000E+000
 0.000000E+000
 0.000000E+000
 0.000000E+000
 0.000000E+000
 0.000000E+000
 0.000000E+000
 0.000000E+000
 0.000000E+000
 0.000000E+000
 0.000000E+000
 0.000000E+000
 0.000000E+000
 0.000000E+000
 0.000000E+000
 0.000000E+000
 0.000000E+000
 0.000000E+000
 0.000000E+000
 0.000000E+000
 0.000000E+000
 0.000000E+000
 0.000000E+000
 0.000000E+000
 0.000000E+000
 0.000000E+000
 0.000000E+000
 0.000000E+000
 0.000000E+000
 0.000000E+000
 0.000000E+000
 0.000000E+000
 0.000000E+000
 0.000000E+000
 0.000000E+000
 0.000000E+000
 0.000000E+000
 0.000000E+000
 0.000000E+000
 0.000000E+000
 0.000000E+000
 0.000000E+000
 0.000000E+000
 0.000000E+000
 0.000000E+000
 0.000000E+000
 0.000000E+000
 0.000000E+000
 0.000000E+000
 0.000000E+000
 0.000000E+000
 0.000000E+000
 0.000000E+000
 0.000000E+000
 0.000000E+000
 0.000000E+000
 0.000000E+000
 0.000000E+000
 0.000000E+000
 0.000000E+000
 0.000000E+000
 0.000000E+000
 0.000000E+000
 0.000000E+000
 0.000000E+000
 0.000000E+000
 0.000000E+000
 0.000000E+000
 0.000000E+000
 0.000000E+000
 0.000000E+000
 0.000000E+000
 0.000000E+000
 0.000000E+000
 0.000000E+000
 0.000000E+000
 0.000000E+000
 0.000000E+000
 0.000000E+000
 0.000000E+000
 0.000000E+000
 0.000000E+000
 0.000000E+000
 0.000000E+000
 0.000000E+000
 0.000000E+000
 0.000000E+000
 0.000000E+000
 0.000000E+000
 0.000000E+000
 0.000000E+000
 0.000000E+000
 0.000000E+000
 0.000000E+000
 0.000000E+000
 0.000000E+000
 0.000000E+000
 0.000000E+000
 0.000000E+000
 0.000000E+000
 0.000000E+000
 0.000000E+000
 0.000000E+000
 0.000000E+000
 0.000000E+000
 0.000000E+000
 0.000000E+000
 0.000000E+000
 0.000000E+000
 0.000000E+000
 0.000000E+000
 0.000000E+000
 0.000000E+000
 0.000000E+000
 0.000000E+000
 0.000000E+000
 0.000000E+000
 0.000000E+000
 0.000000E+000
 0.000000E+000
 0.000000E+000
 0.000000E+000
 0.000000E+000
 0.000000E+000
 0.000000E+000
 0.000000E+000
 0.000000E+000
 0.000000E+000
 0.000000E+000
 0.000000E+000
 0.000000E+000
 0.000000E+000
 0.000000E+000
 0.000000E+000
 0.000000E+000
 0.000000E+000
 0.000000E+000
 0.000000E+000
 0.000000E+000
 0.000000E+000
 0.000000E+000
 0.000000E+000
 0.000000E+000
 0.000000E+000
 0.000000E+000
 0.000000E+000
 0.000000E+000
 0.000000E+000
 0.000000E+000
 0.000000E+000
 0.000000E+000
 0.000000E+000
 0.000000E+000
 0.000000E+000
 0.000000E+000
 0.000000E+000
 0.000000E+000
 0.000000E+000
 0.000000E+000
 0.000000E+000
 0.000000E+000
 0.000000E+000
 0.000000E+000
 0.000000E+000
 0.000000E+000
 0.000000E+000
 0.000000E+000
 0.000000E+000
 0.000000E+000
 0.000000E+000
 0.000000E+000
 0.000000E+000
 0.000000E+000
 0.000000E+000
 0.000000E+000
 0.000000E+000
 0.000000E+000
 0.000000E+000
 0.000000E+000
 0.000000E+000
 0.000000E+000
 0.000000E+000
 0.000000E+000
 0.000000E+000
 0.000000E+000
 0.000000E+000
 0.000000E+000
 0.000000E+000
 0.000000E+000
 0.000000E+000
 0.000000E+000
 0.000000E+000
 0.000000E+000
 0.000000E+000
 0.000000E+000
 0.000000E+000
 0.000000E+000
 0.000000E+000
 0.000000E+000
 0.000000E+000
 0.000000E+000
 0.000000E+000
 0.000000E+000
 0.000000E+000
 0.000000E+000
 0.000000E+000
 0.000000E+000
 0.000000E+000
 0.000000E+000
 0.000000E+000
 0.000000E+000
 0.000000E+000
 0.000000E+000
 0.000000E+000
 0.000000E+000
 0.000000E+000
 0.000000E+000
 0.000000E+000
 0.000000E+000
 0.000000E+000
 0.000000E+000
 0.000000E+000
 0.000000E+000
 0.000000E+000
 0.000000E+000
 0.000000E+000
 0.000000E+000
 0.000000E+000
 0.000000E+000
 0.000000E+000
 0.000000E+000
 0.000000E+000
 0.000000E+000
 0.000000E+000
 0.000000E+000
 0.000000E+000
 0.000000E+000
 0.000000E+000
 0.000000E+000
 0.000000E+000
 0.000000E+000
 0.000000E+000
 0.000000E+000
 0.000000E+000
 0.000000E+000
 0.000000E+000
 0.000000E+000
 0.000000E+000
 0.000000E+000
 0.000000E+000
 0.000000E+000
 0.000000E+000
 0.000000E+000
 0.000000E+000
 0.000000E+000
 0.000000E+000
 0.000000E+000
 0.000000E+000
 0.000000E+000
 0.000000E+000
 0.000000E+000
 0.000000E+000
 0.000000E+000
 0.000000E+000
 0.000000E+000
 0.000000E+000
 0.000000E+000
 0.000000E+000
 0.000000E+000
 0.000000E+000
 0.000000E+000
 0.000000E+000
 0.000000E+000
 0.000000E+000
 0.000000E+000
 0.000000E+000
 0.000000E+000
 0.000000E+000
 0.000000E+000
 0.000000E+000
 0.000000E+000
 0.000000E+000
 0.000000E+000
 0.000000E+000
 0.000000E+000
 0.000000E+000
 0.000000E+000
 0.000000E+000
 0.000000E+000
 0.000000E+000
 0.000000E+000
 0.000000E+000
 0.000000E+000
 0.000000E+000
 0.000000E+000
 0.000000E+000
 0.000000E+000
 0.000000E+000
 0.000000E+000
 0.000000E+000
 0.000000E+000
 0.000000E+000
 0.000000E+000
 0.000000E+000
 0.000000E+000
 0.000000E+000
 0.000000E+000
 0.000000E+000
 0.000000E+000
 0.000000E+000
 0.000000E+000
 0.000000E+000
 0.000000E+000
 0.000000E+000
 0.000000E+000
 0.000000E+000
 0.000000E+000
 0.000000E+000
 0.000000E+000
 0.000000E+000
 0.000000E+000
 0.000000E+000
 0.000000E+000
 0.000000E+000
 0.000000E+000
 0.000000E+000
 0.000000E+000
 0.000000E+000
 0.000000E+000
 0.000000E+000
 0.000000E+000
 0.000000E+000
 0.000000E+000
 0.000000E+000
 0.000000E+000
 0.000000E+000
 0.000000E+000
 0.000000E+000
 0.000000E+000
 0.000000E+000
 0.000000E+000
 0.000000E+000
 0.000000E+000
 0.000000E+000
 0.000000E+000
 0.000000E+000
 0.000000E+000
 0.000000E+000
 0.000000E+000
 0.000000E+000
 0.000000E+000
 0.000000E+000
 0.000000E+000
 0.000000E+000
 0.000000E+000
 0.000000E+000
 0.000000E+000
 0.000000E+000
 0.000000E+000
 0.000000E+000
 0.000000E+000
 0.000000E+000
 0.000000E+000
 0.000000E+000
 0.000000E+000
 0.000000E+000
 0.000000E+000
 0.000000E+000
 0.000000E+000
 0.000000E+000
 0.000000E+000
 0.000000E+000
 0.000000E+000
 0.000000E+000
 0.000000E+000
 0.000000E+000
 0.000000E+000
 0.000000E+000
 0.000000E+000
 0.000000E+000
 0.000000E+000
 0.000000E+000
 0.000000E+000
 0.000000E+000
 0.000000E+000
 0.000000E+000
 0.000000E+000
 0.000000E+000
 0.000000E+000
 0.000000E+000
 0.000000E+000
 0.000000E+000
 0.000000E+000
 0.000000E+000
 0.000000E+000
 0.000000E+000
 0.000000E+000
 0.000000E+000
 0.000000E+000
 0.000000E+000
 0.000000E+000
 0.000000E+000
 0.000000E+000
 0.000000E+000
 0.000000E+000
 0.000000E+000
 0.000000E+000
 0.000000E+000
 0.000000E+000
 0.000000E+000
 0.000000E+000
 0.000000E+000
 0.000000E+000
 0.000000E+000
 0.000000E+000
 0.000000E+000
 0.000000E+000
 0.000000E+000
 0.000000E+000
 0.000000E+000
 0.000000E+000
 0.000000E+000
 0.000000E+000
 0.000000E+000
 0.000000E+000
 0.000000E+000
 0.000000E+000
 0.000000E+000
 0.000000E+000
 0.000000E+000
 0.000000E+000
 0.000000E+000
 0.000000E+000
 0.000000E+000
 0.000000E+000
 0.000000E+000
 0.000000E+000
 0.000000E+000
 0.000000E+000
 0.000000E+000
 0.000000E+000
 0.000000E+000
 0.000000E+000
 0.000000E+000
 0.000000E+000
 0.000000E+000
 0.000000E+000
 0.000000E+000
 0.000000E+000
 0.000000E+000
 0.000000E+000
 0.000000E+000
 0.000000E+000
 0.000000E+000
 0.000000E+000
 0.000000E+000
 0.000000E+000
 0.000000E+000
 0.000000E+000
 0.000000E+000
 0.000000E+000
 0.000000E+000
 0.000000E+000
 0.000000E+000
 0.000000E+000
 0.000000E+000
 0.000000E+000
 0.000000E+000
 0.000000E+000
 0.000000E+000
 0.000000E+000
 0.000000E+000
 0.000000E+000
 0.000000E+000
 0.000000E+000
 0.000000E+000
 0.000000E+000
 0.000000E+000
 0.000000E+000
 0.000000E+000
 0.000000E+000
 0.000000E+000
 0.000000E+000
 0.000000E+000
 0.000000E+000
 0.000000E+000
 0.000000E+000
 0.000000E+000
 0.000000E+000
 0.000000E+000
 0.000000E+000
 0.000000E+000
 0.000000E+000
 0.000000E+000
 0.000000E+000
 0.000000E+000
 0.000000E+000
 0.000000E+000
 0.000000E+000
 0.000000E+000
 0.000000E+000
 0.000000E+000
 0.000000E+000
 0.000000E+000
 0.000000E+000
 0.000000E+000
 0.000000E+000
 0.000000E+000
 0.000000E+000
 0.000000E+000
 0.000000E+000
 0.000000E+000
 0.000000E+000
 0.000000E+000
 0.000000E+000
 0.000000E+000
 0.000000E+000
 0.000000E+000
 0.000000E+000
 0.000000E+000
 0.000000E+000
 0.000000E+000
 0.000000E+000
 0.000000E+000
 0.000000E+000
 0.000000E+000
 0.000000E+000
 0.000000E+000
 0.000000E+000
 0.000000E+000
 0.000000E+000
 0.000000E+000
 0.000000E+000
 0.000000E+000
 0.000000E+000
 0.000000E+000
 0.000000E+000
 0.000000E+000
 0.000000E+000
 0.000000E+000
 0.000000E+000
 0.000000E+000
 0.000000E+000
 0.000000E+000
 0.000000E+000
 0.000000E+000
 0.000000E+000
 0.000000E+000
 0.000000E+000
 0.000000E+000
 0.000000E+000
 0.000000E+000
 0.000000E+000
 0.000000E+000
 0.000000E+000
 0.000000E+000
 0.000000E+000
 0.000000E+000
 0.000000E+000
 0.000000E+000
 0.000000E+000
 0.000000E+000
 0.000000E+000
 0.000000E+000
 0.000000E+000
 0.000000E+000
 0.000000E+000
 0.000000E+000
 0.000000E+000
 0.000000E+000
 0.000000E+000
 0.000000E+000
 0.000000E+000
 0.000000E+000
 0.000000E+000
 0.000000E+000
 0.000000E+000
 0.000000E+000
 0.000000E+000
 0.000000E+000
 0.000000E+000
 0.000000E+000
 0.000000E+000
 0.000000E+000
 0.000000E+000
 0.000000E+000
 0.000000E+000
 0.000000E+000
 0.000000E+000
 0.000000E+000
 0.000000E+000
 0.000000E+000
 0.000000E+000
 0.000000E+000
 0.000000E+000
 0.000000E+000
 0.000000E+000
 0.000000E+000
 0.000000E+000
 0.000000E+000
 0.000000E+000
 0.000000E+000
 0.000000E+000
 0.000000E+000
 0.000000E+000
 0.000000E+000
 0.000000E+000
 0.000000E+000
 0.000000E+000
 0.000000E+000
 0.000000E+000
 0.000000E+000
 0.000000E+000
 0.000000E+000
 0.000000E+000
 0.000000E+000
 0.000000E+000
 0.000000E+000
 0.000000E+000
 0.000000E+000
 0.000000E+000
 0.000000E+000
 0.000000E+000
 0.000000E+000
 0.000000E+000
 0.000000E+000
 0.000000E+000
 0.000000E+000
 0.000000E+000
 0.000000E+000
 0.000000E+000
 0.000000E+000
 0.000000E+000
 0.000000E+000
 0.000000E+000
 0.000000E+000
 0.000000E+000
 0.000000E+000
 0.000000E+000
 0.000000E+000
 0.000000E+000
 0.000000E+000
 0.000000E+000
 0.000000E+000
 0.000000E+000
 0.000000E+000
 0.000000E+000
 0.000000E+000
 0.000000E+000
 0.000000E+000
 0.000000E+000
 0.000000E+000
 0.000000E+000
 0.000000E+000
 0.000000E+000
 0.000000E+000
 0.000000E+000
 0.000000E+000
 0.000000E+000
 0.000000E+000
 0.000000E+000
 0.000000E+000
 0.000000E+000
 0.000000E+000
 0.000000E+000
 0.000000E+000
 0.000000E+000
 0.000000E+000
 0.000000E+000
 0.000000E+000
 0.000000E+000
 0.000000E+000
 0.000000E+000
 0.000000E+000
 0.000000E+000
 0.000000E+000
 0.000000E+000
 0.000000E+000
 0.000000E+000
 0.000000E+000
 0.000000E+000
 0.000000E+000
 0.000000E+000
 0.000000E+000
 0.000000E+000
 0.000000E+000
 0.000000E+000
 0.000000E+000
 0.000000E+000
 0.000000E+000
 0.000000E+000
 0.000000E+000
 0.000000E+000
 0.000000E+000
 0.000000E+000
 0.000000E+000
 0.000000E+000
 0.000000E+000
 0.000000E+000
 0.000000E+000
 0.000000E+000
 0.000000E+000
 0.000000E+000
 0.000000E+000
 0.000000E+000
 0.000000E+000
 0.000000E+000
 0.000000E+000
 0.000000E+000
 0.000000E+000
 0.000000E+000
 0.000000E+000
 0.000000E+000
 0.000000E+000
 0.000000E+000
 0.000000E+000
 0.000000E+000
 0.000000E+000
 0.000000E+000
 0.000000E+000
 0.000000E+000
 0.000000E+000
 0.000000E+000
 0.000000E+000
 0.000000E+000
 0.000000E+000
 0.000000E+000
 0.000000E+000
 0.000000E+000
 0.000000E+000
 0.000000E+000
 0.000000E+000
 0.000000E+000
 0.000000E+000
 0.000000E+000
 0.000000E+000
 0.000000E+000
 0.000000E+000
 0.000000E+000
 0.000000E+000
 0.000000E+000
 0.000000E+000
 0.000000E+000
 0.000000E+000
 0.000000E+000
 0.000000E+000
 0.000000E+000
 0.000000E+000
 0.000000E+000
 0.000000E+000
 0.000000E+000
 0.000000E+000
 0.000000E+000
 0.000000E+000
 0.000000E+000
 0.000000E+000
 0.000000E+000
 0.000000E+000
 0.000000E+000
 0.000000E+000
 0.000000E+000
 0.000000E+000
 0.000000E+000
 0.000000E+000
 0.000000E+000
 0.000000E+000
 0.000000E+000
 0.000000E+000
 0.000000E+000
 0.000000E+000
 0.000000E+000
 0.000000E+000
 0.000000E+000
 0.000000E+000
 0.000000E+000
 0.000000E+000
 0.000000E+000
 0.000000E+000
 0.000000E+000
 0.000000E+000
 0.000000E+000
 0.000000E+000
 0.000000E+000
 0.000000E+000
 0.000000E+000
 0.000000E+000
 0.000000E+000
 0.000000E+000
 0.000000E+000
 0.000000E+000
 0.000000E+000
 0.000000E+000
 0.000000E+000
 0.000000E+000
 0.000000E+000
 0.000000E+000
 0.000000E+000
 0.000000E+000
 0.000000E+000
 0.000000E+000
 0.000000E+000
 0.000000E+000
 0.000000E+000
 0.000000E+000
 0.000000E+000
 0.000000E+000
 0.000000E+000
 0.000000E+000
 0.000000E+000
 0.000000E+000
 0.000000E+000
 0.000000E+000
 0.000000E+000
 0.000000E+000
 0.000000E+000
 0.000000E+000
 0.000000E+000
 0.000000E+000
 0.000000E+000
 0.000000E+000
 0.000000E+000
 0.000000E+000
 0.000000E+000
 0.000000E+000
 0.000000E+000
 0.000000E+000
 0.000000E+000
 0.000000E+000
 0.000000E+000
 0.000000E+000
 0.000000E+000
 0.000000E+000
 0.000000E+000
 0.000000E+000
 0.000000E+000
 0.000000E+000
 0.000000E+000
 0.000000E+000
 0.000000E+000
 0.000000E+000
 0.000000E+000
 0.000000E+000
 0.000000E+000
 0.000000E+000
 0.000000E+000
 0.000000E+000
 0.000000E+000
 0.000000E+000
 0.000000E+000
 0.000000E+000
 0.000000E+000
 0.000000E+000
 0.000000E+000
 0.000000E+000
 0.000000E+000
 0.000000E+000
 0.000000E+000
 0.000000E+000
 0.000000E+000
 0.000000E+000
 0.000000E+000
 0.000000E+000
 0.000000E+000
 0.000000E+000
 0.000000E+000
 0.000000E+000
 0.000000E+000
 0.000000E+000
 0.000000E+000
 0.000000E+000
 0.000000E+000
 0.000000E+000
 0.000000E+000
 0.000000E+000
 0.000000E+000
 0.000000E+000
 0.000000E+000
 0.000000E+000
 0.000000E+000
 0.000000E+000
 0.000000E+000
 0.000000E+000
 0.000000E+000
 0.000000E+000
 0.000000E+000
 0.000000E+000
 0.000000E+000
 0.000000E+000
 0.000000E+000
 0.000000E+000
 0.000000E+000
 0.000000E+000
 0.000000E+000
 0.000000E+000
 0.000000E+000
 0.000000E+000
 0.000000E+000
 0.000000E+000
 0.000000E+000
 0.000000E+000
 0.000000E+000
 0.000000E+000
 0.000000E+000
 0.000000E+000
 0.000000E+000
 0.000000E+000
 0.000000E+000
 0.000000E+000
 0.000000E+000
 0.000000E+000
 0.000000E+000
 0.000000E+000
 0.000000E+000
 0.000000E+000
 0.000000E+000
 0.000000E+000
 0.000000E+000
 0.000000E+000
 0.000000E+000
 0.000000E+000
 0.000000E+000
 0.000000E+000
 0.000000E+000
 0.000000E+000
 0.000000E+000
 0.000000E+000
 0.000000E+000
 0.000000E+000
 0.000000E+000
 0.000000E+000
 0.000000E+000
 0.000000E+000
 0.000000E+000
 0.000000E+000
 0.000000E+000
 0.000000E+000
 0.000000E+000
 0.000000E+000
 0.000000E+000
 0.000000E+000
 0.000000E+000
 0.000000E+000
 0.000000E+000
 0.000000E+000
 0.000000E+000
 0.000000E+000
 0.000000E+000
 0.000000E+000
 0.000000E+000
 0.000000E+000
 0.000000E+000
 0.000000E+000
 0.000000E+000
 0.000000E+000
 0.000000E+000
 0.000000E+000
 0.000000E+000
 0.000000E+000
 0.000000E+000
 0.000000E+000
 0.000000E+000
 0.000000E+000
 0.000000E+000
 0.000000E+000
 0.000000E+000
 0.000000E+000
 0.000000E+000
 0.000000E+000
 0.000000E+000
 0.000000E+000
 0.000000E+000
 0.000000E+000
 0.000000E+000
 0.000000E+000
 0.000000E+000
 0.000000E+000
 0.000000E+000
 0.000000E+000
 0.000000E+000
 0.000000E+000
 0.000000E+000
 0.000000E+000
 0.000000E+000
 0.000000E+000
 0.000000E+000
 0.000000E+000
 0.000000E+000
 0.000000E+000
 0.000000E+000
 0.000000E+000
 0.000000E+000
 0.000000E+000
 0.000000E+000
 0.000000E+000
 0.000000E+000
 0.000000E+000
 0.000000E+000
 0.000000E+000
 0.000000E+000
 0.000000E+000
 0.000000E+000
 0.000000E+000
 0.000000E+000
 0.000000E+000
 0.000000E+000
 0.000000E+000
 0.000000E+000
 0.000000E+000
 0.000000E+000
 0.000000E+000
 0.000000E+000
 0.000000E+000
 0.000000E+000
 0.000000E+000
 0.000000E+000
 0.000000E+000
 0.000000E+000
 0.000000E+000
 0.000000E+000
 0.000000E+000
 0.000000E+000
 0.000000E+000
 0.000000E+000
 0.000000E+000
 0.000000E+000
 0.000000E+000
 0.000000E+000
 0.000000E+000
 0.000000E+000
 0.000000E+000
 0.000000E+000
 0.000000E+000
 0.000000E+000
 0.000000E+000
 0.000000E+000
 0.000000E+000
 0.000000E+000
 0.000000E+000
 0.000000E+000
 0.000000E+000
 0.000000E+000
 0.000000E+000
 0.000000E+000
 0.000000E+000
 0.000000E+000
 0.000000E+000
 0.000000E+000
 0.000000E+000
 0.000000E+000
 0.000000E+000
 0.000000E+000
 0.000000E+000
 0.000000E+000
 0.000000E+000
 0.000000E+000
 0.000000E+000
 0.000000E+000
 0.000000E+000
 0.000000E+000
 0.000000E+000
 0.000000E+000
 0.000000E+000
 0.000000E+000
 0.000000E+000
 0.000000E+000
 0.000000E+000
 0.000000E+000
 0.000000E+000
 0.000000E+000
 0.000000E+000
 0.000000E+000
 0.000000E+000
 0.000000E+000
 0.000000E+000
 0.000000E+000
 0.000000E+000
 0.000000E+000
 0.000000E+000
 0.000000E+000
 0.000000E+000
 0.000000E+000
 0.000000E+000
 0.000000E+000
 0.000000E+000
 0.000000E+000
 0.000000E+000
 0.000000E+000
 0.000000E+000
 0.000000E+000
 0.000000E+000
 0.000000E+000
 0.000000E+000
 0.000000E+000
 0.000000E+000
 0.000000E+000
 0.000000E+000
 0.000000E+000
 0.000000E+000
 0.000000E+000
 0.000000E+000
 0.000000E+000
 0.000000E+000
 0.000000E+000
 0.000000E+000
 0.000000E+000
 0.000000E+000
 0.000000E+000
 0.000000E+000
 0.000000E+000
 0.000000E+000
 0.000000E+000
 0.000000E+000
 0.000000E+000
 0.000000E+000
 0.000000E+000
 0.000000E+000
 0.000000E+000
 0.000000E+000
 0.000000E+000
 0.000000E+000
 0.000000E+000
 0.000000E+000
 0.000000E+000
 0.000000E+000
 0.000000E+000
 0.000000E+000
 0.000000E+000
 0.000000E+000
 0.000000E+000
 0.000000E+000
 0.000000E+000
 0.000000E+000
 0.000000E+000
 0.000000E+000
 0.000000E+000
 0.000000E+000
 0.000000E+000
 0.000000E+000
 0.000000E+000
 0.000000E+000
 0.000000E+000
 0.000000E+000
 0.000000E+000
 0.000000E+000
 0.000000E+000
 0.000000E+000
 0.000000E+000
 0.000000E+000
 0.000000E+000
 0.000000E+000
 0.000000E+000
 0.000000E+000
 0.000000E+000
 0.000000E+000
 0.000000E+000
 0.000000E+000
 0.000000E+000
 0.000000E+000
 0.000000E+000
 0.000000E+000
 0.000000E+000
 0.000000E+000
 0.000000E+000
 0.000000E+000
 0.000000E+000
 0.000000E+000
 0.000000E+000
 0.000000E+000
 0.000000E+000
 0.000000E+000
 0.000000E+000
 0.000000E+000
 0.000000E+000
 0.000000E+000
 0.000000E+000
 0.000000E+000
 0.000000E+000
 0.000000E+000
 0.000000E+000
 0.000000E+000
 0.000000E+000
 0.000000E+000
 0.000000E+000
 0.000000E+000
 0.000000E+000
 0.000000E+000
 0.000000E+000
 0.000000E+000
 0.000000E+000
 0.000000E+000
 0.000000E+000
 0.000000E+000
 0.000000E+000
 0.000000E+000
 0.000000E+000
 0.000000E+000
 0.000000E+000
 0.000000E+000
 0.000000E+000
 0.000000E+000
 0.000000E+000
 0.000000E+000
 0.000000E+000
 0.000000E+000
 0.000000E+000
 0.000000E+000
 0.000000E+000
 0.000000E+000
 0.000000E+000
 0.000000E+000
 0.000000E+000
 0.000000E+000
 0.000000E+000
 0.000000E+000
 0.000000E+000
 0.000000E+000
 0.000000E+000
 0.000000E+000
 0.000000E+000
 0.000000E+000
 0.000000E+000
 0.000000E+000
 0.000000E+000
 0.000000E+000
 0.000000E+000
 0.000000E+000
 0.000000E+000
 0.000000E+000
 0.000000E+000
 0.000000E+000
 0.000000E+000
 0.000000E+000
 0.000000E+000
 0.000000E+000
 0.000000E+000
 0.000000E+000
 0.000000E+000
 0.000000E+000
 0.000000E+000
 0.000000E+000
 0.000000E+000
 0.000000E+000
 0.000000E+000
 0.000000E+000
 0.000000E+000
 0.000000E+000
 0.000000E+000
 0.000000E+000
 0.000000E+000
 0.000000E+000
 0.000000E+000
 0.000000E+000
 0.000000E+000
 0.000000E+000
 0.000000E+000
 0.000000E+000
 0.000000E+000
 0.000000E+000
 0.000000E+000
 0.000000E+000
 0.000000E+000
 0.000000E+000
 0.000000E+000
 0.000000E+000
 0.000000E+000
 0.000000E+000
 0.000000E+000
 0.000000E+000
 0.000000E+000
 0.000000E+000
 0.000000E+000
 0.000000E+000
 0.000000E+000
 0.000000E+000
 0.000000E+000
 0.000000E+000
 0.000000E+000
 0.000000E+000
 0.000000E+000
 0.000000E+000
 0.000000E+000
 0.000000E+000
 0.000000E+000
 0.000000E+000
 0.000000E+000
 0.000000E+000
 0.000000E+000
 0.000000E+000
 0.000000E+000
 0.000000E+000
 0.000000E+000
 0.000000E+000
 0.000000E+000
 0.000000E+000
 0.000000E+000
 0.000000E+000
 0.000000E+000
 0.000000E+000
 0.000000E+000
 0.000000E+000
 0.000000E+000
 0.000000E+000
 0.000000E+000
 0.000000E+000
 0.000000E+000
 0.000000E+000
 0.000000E+000
 0.000000E+000
 0.000000E+000
 0.000000E+000
 0.000000E+000
 0.000000E+000
 0.000000E+000
 0.000000E+000
 0.000000E+000
 0.000000E+000
 0.000000E+000
 0.000000E+000
 0.000000E+000
 0.000000E+000
 0.000000E+000
 0.000000E+000
 0.000000E+000
 0.000000E+000
 0.000000E+000
 0.000000E+000
 0.000000E+000
 0.000000E+000
 0.000000E+000
 0.000000E+000
 0.000000E+000
 0.000000E+000
 0.000000E+000
 0.000000E+000
 0.000000E+000
 0.000000E+000
 0.000000E+000
 0.000000E+000
 0.000000E+000
 0.000000E+000
 0.000000E+000
 0.000000E+000
 0.000000E+000
 0.000000E+000
 0.000000E+000
 0.000000E+000
 0.000000E+000
 0.000000E+000
 0.000000E+000
 0.000000E+000
 0.000000E+000
 0.000000E+000
 0.000000E+000
 0.000000E+000
 0.000000E+000
 0.000000E+000
 0.000000E+000
 0.000000E+000
 0.000000E+000
 0.000000E+000
 0.000000E+000
 0.000000E+000
 0.000000E+000
 0.000000E+000
 0.000000E+000
 0.000000E+000
 0.000000E+000
 0.000000E+000
 0.000000E+000
 0.000000E+000
 0.000000E+000
 0.000000E+000
 0.000000E+000
 0.000000E+000
 0.000000E+000
 0.000000E+000
 0.000000E+000
 0.000000E+000
 0.000000E+000
 0.000000E+000
 0.000000E+000
 0.000000E+000
 0.000000E+000
 0.000000E+000
 0.000000E+000
 0.000000E+000
 0.000000E+000
 0.000000E+000
 0.000000E+000
 0.000000E+000
 0.000000E+000
 0.000000E+000
 0.000000E+000
 0.000000E+000
 0.000000E+000
 0.000000E+000
 0.000000E+000
 0.000000E+000
 0.000000E+000
 0.000000E+000
 0.000000E+000
 0.000000E+000
 0.000000E+000
 0.000000E+000
 0.000000E+000
 0.000000E+000
 0.000000E+000
 0.000000E+000
 0.000000E+000
 0.000000E+000
 0.000000E+000
 0.000000E+000
 0.000000E+000
 0.000000E+000
 0.000000E+000
 0.000000E+000
 0.000000E+000
 0.000000E+000
 0.000000E+000
 0.000000E+000
 0.000000E+000
 0.000000E+000
 0.000000E+000
 0.000000E+000
 0.000000E+000
 0.000000E+000
 0.000000E+000
 0.000000E+000
 0.000000E+000
 0.000000E+000
 0.000000E+000
 0.000000E+000
 0.000000E+000
 0.000000E+000
 0.000000E+000
 0.000000E+000
 0.000000E+000
 0.000000E+000
 0.000000E+000
 0.000000E+000
 0.000000E+000
 0.000000E+000
 0.000000E+000
 0.000000E+000
 0.000000E+000
 0.000000E+000
 0.000000E+000
 0.000000E+000
 0.000000E+000
 0.000000E+000
 0.000000E+000
 0.000000E+000
 0.000000E+000
 0.000000E+000
 0.000000E+000
 0.000000E+000
 0.000000E+000
 0.000000E+000
 0.000000E+000
 0.000000E+000
 0.000000E+000
 0.000000E+000
 0.000000E+000
 0.000000E+000
 0.000000E+000
 0.000000E+000
 0.000000E+000
 0.000000E+000
 0.000000E+000
 0.000000E+000
 0.000000E+000
 0.000000E+000
 0.000000E+000
 0.000000E+000
 0.000000E+000
 0.000000E+000
 0.000000E+000
 0.000000E+000
 0.000000E+000
 0.000000E+000
 0.000000E+000
 0.000000E+000
 0.000000E+000
 0.000000E+000
 0.000000E+000
 0.000000E+000
 0.000000E+000
 0.000000E+000
 0.000000E+000
 0.000000E+000
 0.000000E+000
 0.000000E+000
 0.000000E+000
 0.000000E+000
 0.000000E+000
 0.000000E+000
 0.000000E+000
 0.000000E+000
 0.000000E+000
 0.000000E+000
 0.000000E+000
 0.000000E+000
 0.000000E+000
 0.000000E+000
 0.000000E+000
 0.000000E+000
 0.000000E+000
 0.000000E+000
 0.000000E+000
 0.000000E+000
 0.000000E+000
 0.000000E+000
 0.000000E+000
 0.000000E+000
 0.000000E+000
 0.000000E+000
 0.000000E+000
 0.000000E+000
 0.000000E+000
 0.000000E+000
 0.000000E+000
 0.000000E+000
 0.000000E+000
 0.000000E+000
 0.000000E+000
 0.000000E+000
 0.000000E+000
 0.000000E+000
 0.000000E+000
 0.000000E+000
 0.000000E+000
 0.000000E+000
 0.000000E+000
 0.000000E+000
 0.000000E+000
 0.000000E+000
 0.000000E+000
 0.000000E+000
 0.000000E+000
 0.000000E+000
 0.000000E+000
 0.000000E+000
 0.000000E+000
 0.000000E+000
 0.000000E+000
 0.000000E+000
 0.000000E+000
 0.000000E+000
 0.000000E+000
 0.000000E+000
 0.000000E+000
 0.000000E+000
 0.000000E+000
 0.000000E+000
 0.000000E+000
 0.000000E+000
 0.000000E+000
 0.000000E+000
 0.000000E+000
 0.000000E+000
 0.000000E+000
 0.000000E+000
 0.000000E+000
 0.000000E+000
 0.000000E+000
 0.000000E+000
 0.000000E+000
 0.000000E+000
 0.000000E+000
 0.000000E+000
 0.000000E+000
 0.000000E+000
 0.000000E+000
 0.000000E+000
 0.000000E+000
 0.000000E+000
 0.000000E+000
 0.000000E+000
 0.000000E+000
 0.000000E+000
 0.000000E+000
 0.000000E+000
 0.000000E+000
 0.000000E+000
 0.000000E+000
 0.000000E+000
 0.000000E+000
 0.000000E+000
 0.000000E+000
 0.000000E+000
 0.000000E+000
 0.000000E+000
 0.000000E+000
 0.000000E+000
 0.000000E+000
 0.000000E+000
 0.000000E+000
 0.000000E+000
 0.000000E+000
 0.000000E+000
 0.000000E+000
 0.000000E+000
 0.000000E+000
 0.000000E+000
 0.000000E+000
 0.000000E+000
 0.000000E+000
 0.000000E+000
 0.000000E+000
 0.000000E+000
 0.000000E+000
 0.000000E+000
 0.000000E+000
 0.000000E+000
 0.000000E+000
 0.000000E+000
 0.000000E+000
 0.000000E+000
 0.000000E+000
 0.000000E+000
 0.000000E+000
 0.000000E+000
 0.000000E+000
 0.000000E+000
 0.000000E+000
 0.000000E+000
 0.000000E+000
 0.000000E+000
 0.000000E+000
 0.000000E+000
 0.000000E+000
 0.000000E+000
 0.000000E+000
 0.000000E+000
 0.000000E+000
 0.000000E+000
 0.000000E+000
 0.000000E+000
 0.000000E+000
 0.000000E+000
 0.000000E+000
 0.000000E+000
 0.000000E+000
 0.000000E+000
 0.000000E+000
 0.000000E+000
 0.000000E+000
 0.000000E+000
 0.000000E+000
 0.000000E+000
 0.000000E+000
 0.000000E+000
 0.000000E+000
 0.000000E+000
 0.000000E+000
 0.000000E+000
 0.000000E+000
 0.000000E+000
 0.000000E+000
 0.000000E+000
 0.000000E+000
 0.000000E+000
 0.000000E+000
 0.000000E+000
 0.000000E+000
 0.000000E+000
 0.000000E+000
 0.000000E+000
 0.000000E+000
 0.000000E+000
 0.000000E+000
 0.000000E+000
 0.000000E+000
 0.000000E+000
 0.000000E+000
 0.000000E+000
 0.000000E+000
 0.000000E+000
 0.000000E+000
 0.000000E+000
 0.000000E+000
 0.000000E+000
 0.000000E+000
 0.000000E+000
 0.000000E+000
 0.000000E+000
 0.000000E+000
 0.000000E+000
 0.000000E+000
 0.000000E+000
 0.000000E+000
 0.000000E+000
 0.000000E+000
 0.000000E+000
 0.000000E+000
 0.000000E+000
 0.000000E+000
 0.000000E+000
 0.000000E+000
 0.000000E+000
 0.000000E+000
 0.000000E+000
 0.000000E+000
 0.000000E+000
 0.000000E+000
 0.000000E+000
 0.000000E+000
 0.000000E+000
 0.000000E+000
 0.000000E+000
 0.000000E+000
 0.000000E+000
 0.000000E+000
 0.000000E+000
 0.000000E+000
 0.000000E+000
 0.000000E+000
 0.000000E+000
 0.000000E+000
 0.000000E+000
 0.000000E+000
 0.000000E+000
 0.000000E+000
 0.000000E+000
 0.000000E+000
 0.000000E+000
 0.000000E+000
 0.000000E+000
 0.000000E+000
 0.000000E+000
 0.000000E+000
 0.000000E+000
 0.000000E+000
 0.000000E+000
 0.000000E+000
 0.000000E+000
 0.000000E+000
 0.000000E+000
 0.000000E+000
 0.000000E+000
 0.000000E+000
 0.000000E+000
 0.000000E+000
 0.000000E+000
 0.000000E+000
 0.000000E+000
 0.000000E+000
 0.000000E+000
 0.000000E+000
 0.000000E+000
 0.000000E+000
 0.000000E+000
 0.000000E+000
 0.000000E+000
 0.000000E+000
 0.000000E+000
 0.000000E+000
 0.000000E+000
 0.000000E+000
 0.000000E+000
 0.000000E+000
 0.000000E+000
 0.000000E+000
 0.000000E+000
 0.000000E+000
 0.000000E+000
 0.000000E+000
 0.000000E+000
 0.000000E+000
 0.000000E+000
 0.000000E+000
 0.000000E+000
 0.000000E+000
 0.000000E+000
 0.000000E+000
 0.000000E+000
 0.000000E+000
 0.000000E+000
 0.000000E+000
 0.000000E+000
 0.000000E+000
 0.000000E+000
 0.000000E+000
 0.000000E+000
 0.000000E+000
 0.000000E+000
 0.000000E+000
 0.000000E+000
 0.000000E+000
 0.000000E+000
 0.000000E+000
 0.000000E+000
 0.000000E+000
 0.000000E+000
 0.000000E+000
 0.000000E+000
 0.000000E+000
 0.000000E+000
 0.000000E+000
 0.000000E+000
 0.000000E+000
 0.000000E+000
 0.000000E+000
 0.000000E+000
 0.000000E+000
 0.000000E+000
 0.000000E+000
 0.000000E+000
 0.000000E+000
 0.000000E+000
 0.000000E+000
 0.000000E+000
 0.000000E+000
 0.000000E+000
 0.000000E+000
 0.000000E+000
 0.000000E+000
 0.000000E+000
 0.000000E+000
 0.000000E+000
 0.000000E+000
 0.000000E+000
 0.000000E+000
 0.000000E+000
 0.000000E+000
 0.000000E+000
 0.000000E+000
 0.000000E+000
 0.000000E+000
 0.000000E+000
 0.000000E+000
 0.000000E+000
 0.000000E+000
 0.000000E+000
 0.000000E+000
 0.000000E+000
 0.000000E+000
 0.000000E+000
 0.000000E+000
 0.000000E+000
 0.000000E+000
 0.000000E+000
 0.000000E+000
 0.000000E+000
 0.000000E+000
 0.000000E+000
 0.000000E+000
 0.000000E+000
 0.000000E+000
 0.000000E+000
 0.000000E+000
 0.000000E+000
 0.000000E+000
 0.000000E+000
 0.000000E+000
 0.000000E+000
 0.000000E+000
 0.000000E+000
 0.000000E+000
 0.000000E+000
 0.000000E+000
 0.000000E+000
 0.000000E+000
 0.000000E+000
 0.000000E+000
 0.000000E+000
 0.000000E+000
 0.000000E+000
 0.000000E+000
 0.000000E+000
 0.000000E+000
 0.000000E+000
 0.000000E+000
 0.000000E+000
 0.000000E+000
 0.000000E+000
 0.000000E+000
 0.000000E+000
 0.000000E+000
 0.000000E+000
 0.000000E+000
 0.000000E+000
 0.000000E+000
 0.000000E+000
 0.000000E+000
 0.000000E+000
 0.000000E+000
 0.000000E+000
 0.000000E+000
 0.000000E+000
 0.000000E+000
 0.000000E+000
 0.000000E+000
 0.000000E+000
 0.000000E+000
 0.000000E+000
 0.000000E+000
 0.000000E+000
 0.000000E+000
 0.000000E+000
 0.000000E+000
 0.000000E+000
 0.000000E+000
 0.000000E+000
 0.000000E+000
 0.000000E+000
 0.000000E+000
 0.000000E+000
 0.000000E+000
 0.000000E+000
 0.000000E+000
 0.000000E+000
 0.000000E+000
 0.000000E+000
 0.000000E+000
 0.000000E+000
 0.000000E+000
 0.000000E+000
 0.000000E+000
 0.000000E+000
 0.000000E+000
 0.000000E+000
 0.000000E+000
 0.000000E+000
 0.000000E+000
 0.000000E+000
 0.000000E+000
 0.000000E+000
 0.000000E+000
 0.000000E+000
 0.000000E+000
 0.000000E+000
 0.000000E+000
 0.000000E+000
 0.000000E+000
 0.000000E+000
 0.000000E+000
 0.000000E+000
 0.000000E+000
 0.000000E+000
 0.000000E+000
 0.000000E+000
 0.000000E+000
 0.000000E+000
 0.000000E+000
 0.000000E+000
 0.000000E+000
 0.000000E+000
 0.000000E+000
 0.000000E+000
 0.000000E+000
 0.000000E+000
 0.000000E+000
 0.000000E+000
 0.000000E+000
 0.000000E+000
 0.000000E+000
 0.000000E+000
 0.000000E+000
 0.000000E+000
 0.000000E+000
 0.000000E+000
 0.000000E+000
 0.000000E+000
 0.000000E+000
 0.000000E+000
 0.000000E+000
 0.000000E+000
 0.000000E+000
 0.000000E+000
 0.000000E+000
 0.000000E+000
 0.000000E+000
 0.000000E+000
 0.000000E+000
 0.000000E+000
 0.000000E+000
 0.000000E+000
 0.000000E+000
 0.000000E+000
 0.000000E+000
 0.000000E+000
 0.000000E+000
 0.000000E+000
 0.000000E+000
 0.000000E+000
 0.000000E+000
 0.000000E+000
 0.000000E+000
 0.000000E+000
 0.000000E+000
 0.000000E+000
 0.000000E+000
 0.000000E+000
 0.000000E+000
 0.000000E+000
 0.000000E+000
 0.000000E+000
 0.000000E+000
 0.000000E+000
 0.000000E+000
 0.000000E+000
 0.000000E+000
 0.000000E+000
 0.000000E+000
 0.000000E+000
 0.000000E+000
 0.000000E+000
 0.000000E+000
 0.000000E+000
 0.000000E+000
 0.000000E+000
 0.000000E+000
 0.000000E+000
 0.000000E+000
 0.000000E+000
 0.000000E+000
 0.000000E+000
 0.000000E+000
 0.000000E+000
 0.000000E+000
 0.000000E+000
 0.000000E+000
 0.000000E+000
 0.000000E+000
 0.000000E+000
 0.000000E+000
 0.000000E+000
 0.000000E+000
 0.000000E+000
 0.000000E+000
 0.000000E+000
 0.000000E+000
 0.000000E+000
 0.000000E+000
 0.000000E+000
 0.000000E+000
 0.000000E+000
 0.000000E+000
 0.000000E+000
 0.000000E+000
 0.000000E+000
 0.000000E+000
 0.000000E+000
 0.000000E+000
 0.000000E+000
 0.000000E+000
 0.000000E+000
 0.000000E+000
 0.000000E+000
 0.000000E+000
 0.000000E+000
 0.000000E+000
 0.000000E+000
 0.000000E+000
 0.000000E+000
 0.000000E+000
 0.000000E+000
 0.000000E+000
 0.000000E+000
 0.000000E+000
 0.000000E+000
 0.000000E+000
 0.000000E+000
 0.000000E+000
 0.000000E+000
 0.000000E+000
 0.000000E+000
 0.000000E+000
 0.000000E+000
 0.000000E+000
 0.000000E+000
 0.000000E+000
 0.000000E+000
 0.000000E+000
 0.000000E+000
 0.000000E+000
 0.000000E+000
 0.000000E+000
 0.000000E+000
 0.000000E+000
 0.000000E+000
 0.000000E+000
 0.000000E+000
 0.000000E+000
 0.000000E+000
 0.000000E+000
 0.000000E+000
 0.000000E+000
 0.000000E+000
 0.000000E+000
 0.000000E+000
 0.000000E+000
 0.000000E+000
 0.000000E+000
 0.000000E+000
 0.000000E+000
 0.000000E+000
 0.000000E+000
 0.000000E+000
 0.000000E+000
 0.000000E+000
 0.000000E+000
 0.000000E+000
 0.000000E+000
 0.000000E+000
 0.000000E+000
 0.000000E+000
 0.000000E+000
 0.000000E+000
 0.000000E+000
 0.000000E+000
 0.000000E+000
 0.000000E+000
 0.000000E+000
 0.000000E+000
 0.000000E+000
 0.000000E+000
 0.000000E+000
 0.000000E+000
 0.000000E+000
 0.000000E+000
 0.000000E+000
 0.000000E+000
 0.000000E+000
 0.000000E+000
 0.000000E+000
 0.000000E+000
 0.000000E+000
 0.000000E+000
 0.000000E+000
 0.000000E+000
 0.000000E+000
 0.000000E+000
 0.000000E+000
 0.000000E+000
 0.000000E+000
 0.000000E+000
 0.000000E+000
 0.000000E+000
 0.000000E+000
 0.000000E+000
 0.000000E+000
 0.000000E+000
 0.000000E+000
 0.000000E+000
 0.000000E+000
 0.000000E+000
 0.000000E+000
 0.000000E+000
 0.000000E+000
 0.000000E+000
 0.000000E+000
 0.000000E+000
 0.000000E+000
 0.000000E+000
 0.000000E+000
 0.000000E+000
 0.000000E+000
 0.000000E+000
 0.000000E+000
 0.000000E+000
 0.000000E+000
 0.000000E+000
 0.000000E+000
 0.000000E+000
 0.000000E+000
 0.000000E+000
 0.000000E+000
 0.000000E+000
 0.000000E+000
 0.000000E+000
 0.000000E+000
 0.000000E+000
 0.000000E+000
 0.000000E+000
 0.000000E+000
 0.000000E+000
 0.000000E+000
 0.000000E+000
 0.000000E+000
 0.000000E+000
 0.000000E+000
 0.000000E+000
 0.000000E+000
 0.000000E+000
 0.000000E+000
 0.000000E+000
 0.000000E+000
 0.000000E+000
 0.000000E+000
 0.000000E+000
 0.000000E+000
 0.000000E+000
 0.000000E+000
 0.000000E+000
 0.000000E+000
 0.000000E+000
 0.000000E+000
 0.000000E+000
 0.000000E+000
 0.000000E+000
 0.000000E+000
 0.000000E+000
 0.000000E+000
 0.000000E+000
 0.000000E+000
 0.000000E+000
 0.000000E+000
 0.000000E+000
 0.000000E+000
 0.000000E+000
 0.000000E+000
 0.000000E+000
 0.000000E+000
 0.000000E+000
 0.000000E+000
 0.000000E+000
 0.000000E+000
 0.000000E+000
 0.000000E+000
 0.000000E+000
 0.000000E+000
 0.000000E+000
 0.000000E+000
 0.000000E+000
 0.000000E+000
 0.000000E+000
 0.000000E+000
 0.000000E+000
 0.000000E+000
 0.000000E+000
 0.000000E+000
 0.000000E+000
 0.000000E+000
 0.000000E+000
 0.000000E+000
 0.000000E+000
 0.000000E+000
 0.000000E+000
 0.000000E+000
 0.000000E+000
 0.000000E+000
 0.000000E+000
 0.000000E+000
 0.000000E+000
 0.000000E+000
 0.000000E+000
 0.000000E+000
 0.000000E+000
 0.000000E+000
 0.000000E+000
 0.000000E+000
 0.000000E+000
 0.000000E+000
 0.000000E+000
 0.000000E+000
 0.000000E+000
 0.000000E+000
 0.000000E+000
 0.000000E+000
 0.000000E+000
 0.000000E+000
 0.000000E+000
 0.000000E+000
 0.000000E+000
 0.000000E+000
 0.000000E+000
 0.000000E+000
 0.000000E+000
 0.000000E+000
 0.000000E+000
 0.000000E+000
 0.000000E+000
 0.000000E+000
 0.000000E+000
 0.000000E+000
 0.000000E+000
 0.000000E+000
 0.000000E+000
 0.000000E+000
 0.000000E+000
 0.000000E+000
 0.000000E+000
 0.000000E+000
 0.000000E+000
 0.000000E+000
 0.000000E+000
 0.000000E+000
 0.000000E+000
 0.000000E+000
 0.000000E+000
 0.000000E+000
 0.000000E+000
 0.000000E+000
 0.000000E+000
 0.000000E+000
 0.000000E+000
 0.000000E+000
 0.000000E+000
 0.000000E+000
 0.000000E+000
 0.000000E+000
 0.000000E+000
 0.000000E+000
 0.000000E+000
 0.000000E+000
 0.000000E+000
 0.000000E+000
 0.000000E+000
 0.000000E+000
 0.000000E+000
 0.000000E+000
 0.000000E+000
 0.000000E+000
 0.000000E+000
 0.000000E+000
 0.000000E+000
 0.000000E+000
 0.000000E+000
 0.000000E+000
 0.000000E+000
 0.000000E+000
 0.000000E+000
 0.000000E+000
 0.000000E+000
 0.000000E+000
 0.000000E+000
 0.000000E+000
 0.000000E+000
 0.000000E+000
 0.000000E+000
 0.000000E+000
 0.000000E+000
 0.000000E+000
 0.000000E+000
 0.000000E+000
 0.000000E+000
 0.000000E+000
 0.000000E+000
 0.000000E+000
 0.000000E+000
 0.000000E+000
 0.000000E+000
 0.000000E+000
 0.000000E+000
 0.000000E+000
 0.000000E+000
 0.000000E+000
 0.000000E+000
 0.000000E+000
 0.000000E+000
 0.000000E+000
 0.000000E+000
 0.000000E+000
 0.000000E+000
 0.000000E+000
 0.000000E+000
 0.000000E+000
 0.000000E+000
 0.000000E+000
 0.000000E+000
 0.000000E+000
 0.000000E+000
 0.000000E+000
 0.000000E+000
 0.000000E+000
 0.000000E+000
 0.000000E+000
 0.000000E+000
 0.000000E+000
 0.000000E+000
 0.000000E+000
 0.000000E+000
 0.000000E+000
 0.000000E+000
 0.000000E+000
 0.000000E+000
 0.000000E+000
 0.000000E+000
 0.000000E+000
 0.000000E+000
 0.000000E+000
 0.000000E+000
 0.000000E+000
 0.000000E+000
 0.000000E+000
 0.000000E+000
 0.000000E+000
 0.000000E+000
 0.000000E+000
 0.000000E+000
 0.000000E+000
 0.000000E+000
 0.000000E+000
 0.000000E+000
 0.000000E+000
 0.000000E+000
 0.000000E+000
 0.000000E+000
 0.000000E+000
 0.000000E+000
 0.000000E+000
 0.000000E+000
 0.000000E+000
 0.000000E+000
 0.000000E+000
 0.000000E+000
 0.000000E+000
 0.000000E+000
 0.000000E+000
 0.000000E+000
 0.000000E+000
 0.000000E+000
 0.000000E+000
 0.000000E+000
 0.000000E+000
 0.000000E+000
 0.000000E+000
 0.000000E+000
 0.000000E+000
 0.000000E+000
 0.000000E+000
 0.000000E+000
 0.000000E+000
 0.000000E+000
 0.000000E+000
 0.000000E+000
 0.000000E+000
 0.000000E+000
 0.000000E+000
 0.000000E+000
 0.000000E+000
 0.000000E+000
 0.000000E+000
 0.000000E+000
 0.000000E+000
 0.000000E+000
 0.000000E+000
 0.000000E+000
 0.000000E+000
 0.000000E+000
 0.000000E+000
 0.000000E+000
 0.000000E+000
 0.000000E+000
 0.000000E+000
 0.000000E+000
 0.000000E+000
 0.000000E+000
 0.000000E+000
 0.000000E+000
 0.000000E+000
 0.000000E+000
 0.000000E+000
 0.000000E+000
 0.000000E+000
 0.000000E+000
 0.000000E+000
 0.000000E+000
 0.000000E+000
 0.000000E+000
 0.000000E+000
 0.000000E+000
 0.000000E+000
 0.000000E+000
 0.000000E+000
 0.000000E+000
 0.000000E+000
 0.000000E+000
 0.000000E+000
 0.000000E+000
 0.000000E+000
 0.000000E+000
 0.000000E+000
 0.000000E+000
 0.000000E+000
 0.000000E+000
 0.000000E+000
 0.000000E+000
 0.000000E+000
 0.000000E+000
 0.000000E+000
 0.000000E+000
 0.000000E+000
 0.000000E+000
 0.000000E+000
 0.000000E+000
 0.000000E+000
 0.000000E+000
 0.000000E+000
 0.000000E+000
 0.000000E+000
 0.000000E+000
 0.000000E+000
 0.000000E+000
 0.000000E+000
 0.000000E+000
 0.000000E+000
 0.000000E+000
 0.000000E+000
 0.000000E+000
 0.000000E+000
 0.000000E+000
 0.000000E+000
 0.000000E+000
 0.000000E+000
 0.000000E+000
 0.000000E+000
 0.000000E+000
 0.000000E+000
 0.000000E+000
 0.000000E+000
 0.000000E+000
 0.000000E+000
 0.000000E+000
 0.000000E+000
 0.000000E+000
 0.000000E+000
 0.000000E+000
 0.000000E+000
 0.000000E+000
 0.000000E+000
 0.000000E+000
 0.000000E+000
 0.000000E+000
 0.000000E+000
 0.000000E+000
 0.000000E+000
 0.000000E+000
 0.000000E+000
 0.000000E+000
 0.000000E+000
 0.000000E+000
 0.000000E+000
 0.000000E+000
 0.000000E+000
 0.000000E+000
 0.000000E+000
 0.000000E+000
 0.000000E+000
 0.000000E+000
 0.000000E+000
 0.000000E+000
 0.000000E+000
 0.000000E+000
 0.000000E+000
 0.000000E+000
 0.000000E+000
 0.000000E+000
 0.000000E+000
 0.000000E+000
 0.000000E+000
 0.000000E+000
 0.000000E+000
 0.000000E+000
 0.000000E+000
 0.000000E+000
 0.000000E+000
 0.000000E+000
 0.000000E+000
 0.000000E+000
 0.000000E+000
 0.000000E+000
 0.000000E+000
 0.000000E+000
 0.000000E+000
 0.000000E+000
 0.000000E+000
 0.000000E+000
 0.000000E+000
 0.000000E+000
 0.000000E+000
 0.000000E+000
 0.000000E+000
 0.000000E+000
 0.000000E+000
 0.000000E+000
 0.000000E+000
 0.000000E+000
 0.000000E+000
 0.000000E+000
 0.000000E+000
 0.000000E+000
 0.000000E+000
 0.000000E+000
 0.000000E+000
 0.000000E+000
 0.000000E+000
 0.000000E+000
 0.000000E+000
 0.000000E+000
 0.000000E+000
 0.000000E+000
 0.000000E+000
 0.000000E+000
 0.000000E+000
 0.000000E+000
 0.000000E+000
 0.000000E+000
 0.000000E+000
 0.000000E+000
 0.000000E+000
 0.000000E+000
 0.000000E+000
 0.000000E+000
 0.000000E+000
 0.000000E+000
 0.000000E+000
 0.000000E+000
 0.000000E+000
 0.000000E+000
 0.000000E+000
 0.000000E+000
 0.000000E+000
 0.000000E+000
 0.000000E+000
 0.000000E+000
 0.000000E+000
 0.000000E+000
 0.000000E+000
 0.000000E+000
 0.000000E+000
 0.000000E+000
 0.000000E+000
 0.000000E+000
 0.000000E+000
 0.000000E+000
 0.000000E+000
 0.000000E+000
 0.000000E+000
 0.000000E+000
 0.000000E+000
 0.000000E+000
 0.000000E+000
 0.000000E+000
 0.000000E+000
 0.000000E+000
 0.000000E+000
 0.000000E+000
 0.000000E+000
 0.000000E+000
 0.000000E+000
 0.000000E+000
 0.000000E+000
 0.000000E+000
 0.000000E+000
 0.000000E+000
 0.000000E+000
 0.000000E+000
 0.000000E+000
 0.000000E+000
 0.000000E+000
 0.000000E+000
 0.000000E+000
 0.000000E+000
 0.000000E+000
 0.000000E+000
 0.000000E+000
 0.000000E+000
 0.000000E+000
 0.000000E+000
 0.000000E+000
 0.000000E+000
 0.000000E+000
 0.000000E+000
 0.000000E+000
 0.000000E+000
 0.000000E+000
 0.000000E+000
 0.000000E+000
 0.000000E+000
 0.000000E+000
 0.000000E+000
 0.000000E+000
 0.000000E+000
 0.000000E+000
 0.000000E+000
 0.000000E+000
 0.000000E+000
 0.000000E+000
 0.000000E+000
 0.000000E+000
 0.000000E+000
 0.000000E+000
 0.000000E+000
 0.000000E+000
 0.000000E+000
 0.000000E+000
 0.000000E+000
 0.000000E+000
 0.000000E+000
 0.000000E+000
 0.000000E+000
 0.000000E+000
 0.000000E+000
 0.000000E+000
 0.000000E+000
 0.000000E+000
 0.000000E+000
 0.000000E+000
 0.000000E+000
 0.000000E+000
 0.000000E+000
 0.000000E+000
 0.000000E+000
 0.000000E+000
 0.000000E+000
 0.000000E+000
 0.000000E+000
 0.000000E+000
 0.000000E+000
 0.000000E+000
 0.000000E+000
 0.000000E+000
 0.000000E+000
 0.000000E+000
 0.000000E+000
 0.000000E+000
 0.000000E+000
 0.000000E+000
 0.000000E+000
 0.000000E+000
 0.000000E+000
 0.000000E+000
 0.000000E+000
 0.000000E+000
 0.000000E+000
 0.000000E+000
 0.000000E+000
 0.000000E+000
 0.000000E+000
 0.000000E+000
 0.000000E+000
 0.000000E+000
 0.000000E+000
 0.000000E+000
 0.000000E+000
 0.000000E+000
 0.000000E+000
 0.000000E+000
 0.000000E+000
 0.000000E+000
 0.000000E+000
 0.000000E+000
 0.000000E+000
 0.000000E+000
 0.000000E+000
 0.000000E+000
 0.000000E+000
 0.000000E+000
 0.000000E+000
 0.000000E+000
 0.000000E+000
 0.000000E+000
 0.000000E+000
 0.000000E+000
 0.000000E+000
 0.000000E+000
 0.000000E+000
 0.000000E+000
 0.000000E+000
 0.000000E+000
 0.000000E+000
 0.000000E+000
 0.000000E+000
 0.000000E+000
 0.000000E+000
 0.000000E+000
 0.000000E+000
 0.000000E+000
 0.000000E+000
 0.000000E+000
 0.000000E+000
 0.000000E+000
 0.000000E+000
 0.000000E+000
 0.000000E+000
 0.000000E+000
 0.000000E+000
 0.000000E+000
 0.000000E+000
 0.000000E+000
 0.000000E+000
 0.000000E+000
 0.000000E+000
 0.000000E+000
 0.000000E+000
 0.000000E+000
 0.000000E+000
 0.000000E+000
 0.000000E+000
 0.000000E+000
 0.000000E+000
 0.000000E+000
 0.000000E+000
 0.000000E+000
 0.000000E+000
 0.000000E+000
 0.000000E+000
 0.000000E+000
 0.000000E+000
 0.000000E+000
 0.000000E+000
 0.000000E+000
 0.000000E+000
 0.000000E+000
 0.000000E+000
 0.000000E+000
 0.000000E+000
 0.000000E+000
 0.000000E+000
 0.000000E+000
 0.000000E+000
 0.000000E+000
 0.000000E+000
 0.000000E+000
 0.000000E+000
 0.000000E+000
 0.000000E+000
 0.000000E+000
 0.000000E+000
 0.000000E+000
 0.000000E+000
 0.000000E+000
 0.000000E+000
 0.000000E+000
 0.000000E+000
 0.000000E+000
 0.000000E+000
 0.000000E+000
 0.000000E+000
 0.000000E+000
 0.000000E+000
 0.000000E+000
 0.000000E+000
 0.000000E+000
 0.000000E+000
 0.000000E+000
 0.000000E+000
 0.000000E+000
 0.000000E+000
 0.000000E+000
 0.000000E+000
 0.000000E+000
 0.000000E+000
 0.000000E+000
 0.000000E+000
 0.000000E+000
 0.000000E+000
 0.000000E+000
 0.000000E+000
 0.000000E+000
 0.000000E+000
 0.000000E+000
 0.000000E+000
 0.000000E+000
 0.000000E+000
 0.000000E+000
 0.000000E+000
 0.000000E+000
 0.000000E+000
 0.000000E+000
 0.000000E+000
 0.000000E+000
 0.000000E+000
 0.000000E+000
 0.000000E+000
 0.000000E+000
 0.000000E+000
 0.000000E+000
 0.000000E+000
 0.000000E+000
 0.000000E+000
 0.000000E+000
 0.000000E+000
 0.000000E+000
 0.000000E+000
 0.000000E+000
 0.000000E+000
 0.000000E+000
 0.000000E+000
 0.000000E+000
 0.000000E+000
 0.000000E+000
 0.000000E+000
 0.000000E+000
 0.000000E+000
 0.000000E+000
 0.000000E+000
 0.000000E+000
 0.000000E+000
 0.000000E+000
 0.000000E+000
 0.000000E+000
 0.000000E+000
 0.000000E+000
 0.000000E+000
 0.000000E+000
 0.000000E+000
 0.000000E+000
 0.000000E+000
 0.000000E+000
 0.000000E+000
 0.000000E+000
 0.000000E+000
 0.000000E+000
 0.000000E+000
 0.000000E+000
 0.000000E+000
 0.000000E+000
 0.000000E+000
 0.000000E+000
 0.000000E+000
 0.000000E+000
 0.000000E+000
 0.000000E+000
 0.000000E+000
 0.000000E+000
 0.000000E+000
 0.000000E+000
 0.000000E+000
 0.000000E+000
 0.000000E+000
 0.000000E+000
 0.000000E+000
 0.000000E+000
 0.000000E+000
 0.000000E+000
 0.000000E+000
 0.000000E+000
 0.000000E+000
 0.000000E+000
 0.000000E+000
 0.000000E+000
 0.000000E+000
 0.000000E+000
 0.000000E+000
 0.000000E+000
 0.000000E+000
 0.000000E+000
 0.000000E+000
 0.000000E+000
 0.000000E+000
 0.000000E+000
 0.000000E+000
 0.000000E+000
 0.000000E+000
 0.000000E+000
 0.000000E+000
 0.000000E+000
 0.000000E+000
 0.000000E+000
 0.000000E+000
 0.000000E+000
 0.000000E+000
 0.000000E+000
 0.000000E+000
 0.000000E+000
 0.000000E+000
 0.000000E+000
 0.000000E+000
 0.000000E+000
 0.000000E+000
 0.000000E+000
 0.000000E+000
 0.000000E+000
 0.000000E+000
 0.000000E+000
 0.000000E+000
 0.000000E+000
 0.000000E+000
 0.000000E+000
 0.000000E+000
 0.000000E+000
 0.000000E+000
 0.000000E+000
 0.000000E+000
 0.000000E+000
 0.000000E+000
 0.000000E+000
 0.000000E+000
 0.000000E+000
 0.000000E+000
 0.000000E+000
 0.000000E+000
 0.000000E+000
 0.000000E+000
 0.000000E+000
 0.000000E+000
 0.000000E+000
 0.000000E+000
 0.000000E+000
 0.000000E+000
 0.000000E+000
 0.000000E+000
 0.000000E+000
 0.000000E+000
 0.000000E+000
 0.000000E+000
 0.000000E+000
 0.000000E+000
 0.000000E+000
 0.000000E+000
 0.000000E+000
 0.000000E+000
 0.000000E+000
 0.000000E+000
 0.000000E+000
 0.000000E+000
 0.000000E+000
 0.000000E+000
 0.000000E+000
 0.000000E+000
 0.000000E+000
 0.000000E+000
 0.000000E+000
 0.000000E+000
 0.000000E+000
 0.000000E+000
 0.000000E+000
 0.000000E+000
 0.000000E+000
 0.000000E+000
 0.000000E+000
 0.000000E+000
 0.000000E+000
 0.000000E+000
 0.000000E+000
 0.000000E+000
 0.000000E+000
 0.000000E+000
 0.000000E+000
 0.000000E+000
 0.000000E+000
 0.000000E+000
 0.000000E+000
 0.000000E+000
 0.000000E+000
 0.000000E+000
 0.000000E+000
 0.000000E+000
 0.000000E+000
 0.000000E+000
 0.000000E+000
 0.000000E+000
 0.000000E+000
 0.000000E+000
 0.000000E+000
 0.000000E+000
 0.000000E+000
 0.000000E+000
 0.000000E+000
 0.000000E+000
 0.000000E+000
 0.000000E+000
 0.000000E+000
 0.000000E+000
 0.000000E+000
 0.000000E+000
 0.000000E+000
 0.000000E+000
 0.000000E+000
 0.000000E+000
 0.000000E+000
 0.000000E+000
 0.000000E+000
 0.000000E+000
 0.000000E+000
 0.000000E+000
 0.000000E+000
 0.000000E+000
 0.000000E+000
 0.000000E+000
 0.000000E+000
 0.000000E+000
 0.000000E+000
 0.000000E+000
 0.000000E+000
 0.000000E+000
 0.000000E+000
 0.000000E+000
 0.000000E+000
 0.000000E+000
 0.000000E+000
 0.000000E+000
 0.000000E+000
 0.000000E+000
 0.000000E+000
 0.000000E+000
 0.000000E+000
 0.000000E+000
 0.000000E+000
 0.000000E+000
 0.000000E+000
 0.000000E+000
 0.000000E+000
 0.000000E+000
 0.000000E+000
 0.000000E+000
 0.000000E+000
 0.000000E+000
 0.000000E+000
 0.000000E+000
 0.000000E+000
 0.000000E+000
 0.000000E+000
 0.000000E+000
 0.000000E+000
 0.000000E+000
 0.000000E+000
 0.000000E+000
 0.000000E+000
 0.000000E+000
 0.000000E+000
 0.000000E+000
 0.000000E+000
 0.000000E+000
 0.000000E+000
 0.000000E+000
 0.000000E+000
 0.000000E+000
 0.000000E+000
 0.000000E+000
 0.000000E+000
 0.000000E+000
 0.000000E+000
 0.000000E+000
 0.000000E+000
 0.000000E+000
 0.000000E+000
 0.000000E+000
 0.000000E+000
 0.000000E+000
 0.000000E+000
 0.000000E+000
 0.000000E+000
 0.000000E+000
 0.000000E+000
 0.000000E+000
 0.000000E+000
 0.000000E+000
 0.000000E+000
 0.000000E+000
 0.000000E+000
 0.000000E+000
 0.000000E+000
 0.000000E+000
 0.000000E+000
 0.000000E+000
 0.000000E+000
 0.000000E+000
 0.000000E+000
 0.000000E+000
 0.000000E+000
 0.000000E+000
 0.000000E+000
 0.000000E+000
 0.000000E+000
 0.000000E+000
 0.000000E+000
 0.000000E+000
 0.000000E+000
 0.000000E+000
 0.000000E+000
 0.000000E+000
 0.000000E+000
 0.000000E+000
 0.000000E+000
 0.000000E+000
 0.000000E+000
 0.000000E+000
 0.000000E+000
 0.000000E+000
 0.000000E+000
 0.000000E+000
 0.000000E+000
 0.000000E+000
 0.000000E+000
 0.000000E+000
 0.000000E+000
 0.000000E+000
 0.000000E+000
 0.000000E+000
 0.000000E+000
 0.000000E+000
 0.000000E+000
 0.000000E+000
 0.000000E+000
 0.000000E+000
 0.000000E+000
 0.000000E+000
 0.000000E+000
 0.000000E+000
 0.000000E+000
 0.000000E+000
 0.000000E+000
 0.000000E+000
 0.000000E+000
 0.000000E+000
 0.000000E+000
 0.000000E+000
 0.000000E+000
 0.000000E+000
 0.000000E+000
 0.000000E+000
 0.000000E+000
 0.000000E+000
 0.000000E+000
 0.000000E+000
 0.000000E+000
 0.000000E+000
 0.000000E+000
 0.000000E+000
 0.000000E+000
 0.000000E+000
 0.000000E+000
 0.000000E+000
 0.000000E+000
 0.000000E+000
 0.000000E+000
 0.000000E+000
 0.000000E+000
 0.000000E+000
 0.000000E+000
 0.000000E+000
 0.000000E+000
 0.000000E+000
 0.000000E+000
 0.000000E+000
 0.000000E+000
 0.000000E+000
 0.000000E+000
 0.000000E+000
 0.000000E+000
 0.000000E+000
 0.000000E+000
 0.000000E+000
 0.000000E+000
 0.000000E+000
 0.000000E+000
 0.000000E+000
 0.000000E+000
 0.000000E+000
 0.000000E+000
 0.000000E+000
 0.000000E+000
 0.000000E+000
 0.000000E+000
 0.000000E+000
 0.000000E+000
 0.000000E+000
 0.000000E+000
 0.000000E+000
 0.000000E+000
 0.000000E+000
 0.000000E+000
 0.000000E+000
 0.000000E+000
 0.000000E+000
 0.000000E+000
 0.000000E+000
 0.000000E+000
 0.000000E+000
 0.000000E+000
 0.000000E+000
 0.000000E+000
 0.000000E+000
 0.000000E+000
 0.000000E+000
 0.000000E+000
 0.000000E+000
 0.000000E+000
 0.000000E+000
 0.000000E+000
 0.000000E+000
 0.000000E+000
 0.000000E+000
 0.000000E+000
 0.000000E+000
 0.000000E+000
 0.000000E+000
 0.000000E+000
 0.000000E+000
 0.000000E+000
 0.000000E+000
 0.000000E+000
 0.000000E+000
 0.000000E+000
 0.000000E+000
 0.000000E+000
 0.000000E+000
 0.000000E+000
 0.000000E+000
 0.000000E+000
 0.000000E+000
 0.000000E+000
 0.000000E+000
 0.000000E+000
 0.000000E+000
 0.000000E+000
 0.000000E+000
 0.000000E+000
 0.000000E+000
 0.000000E+000
 0.000000E+000
 0.000000E+000
 0.000000E+000
 0.000000E+000
 0.000000E+000
 0.000000E+000
 0.000000E+000
 0.000000E+000
 0.000000E+000
 0.000000E+000
 0.000000E+000
 0.000000E+000
 0.000000E+000
 0.000000E+000
 0.000000E+000
 0.000000E+000
 0.000000E+000
 0.000000E+000
 0.000000E+000
 0.000000E+000
 0.000000E+000
 0.000000E+000
 0.000000E+000
 0.000000E+000
 0.000000E+000
 0.000000E+000
 0.000000E+000
 0.000000E+000
 0.000000E+000
 0.000000E+000
 0.000000E+000
 0.000000E+000
 0.000000E+000
 0.000000E+000
 0.000000E+000
 0.000000E+000
 0.000000E+000
 0.000000E+000
 0.000000E+000
 0.000000E+000
 0.000000E+000
 0.000000E+000
 0.000000E+000
 0.000000E+000
 0.000000E+000
 0.000000E+000
 0.000000E+000
 0.000000E+000
 0.000000E+000
 0.000000E+000
 0.000000E+000
 0.000000E+000
 0.000000E+000
 0.000000E+000
 0.000000E+000
 0.000000E+000
 0.000000E+000
 0.000000E+000
 0.000000E+000
 0.000000E+000
 0.000000E+000
 0.000000E+000
 0.000000E+000
 0.000000E+000
 0.000000E+000
 0.000000E+000
 0.000000E+000
 0.000000E+000
 0.000000E+000
 0.000000E+000
 0.000000E+000
 0.000000E+000
 0.000000E+000
 0.000000E+000
 0.000000E+000
 0.000000E+000
 0.000000E+000
 0.000000E+000
 0.000000E+000
 0.000000E+000
 0.000000E+000
 0.000000E+000
 0.000000E+000
 0.000000E+000
 0.000000E+000
 0.000000E+000
 0.000000E+000
 0.000000E+000
 0.000000E+000
 0.000000E+000
 0.000000E+000
 0.000000E+000
 0.000000E+000
 0.000000E+000
 0.000000E+000
 0.000000E+000
 0.000000E+000
 0.000000E+000
 0.000000E+000
 0.000000E+000
 0.000000E+000
 0.000000E+000
 0.000000E+000
 0.000000E+000
 0.000000E+000
 0.000000E+000
 0.000000E+000
 0.000000E+000
 0.000000E+000
 0.000000E+000
 0.000000E+000
 0.000000E+000
 0.000000E+000
 0.000000E+000
 0.000000E+000
 0.000000E+000
 0.000000E+000
 0.000000E+000
 0.000000E+000
 0.000000E+000
 0.000000E+000
 0.000000E+000
 0.000000E+000
 0.000000E+000
 0.000000E+000
 0.000000E+000
 0.000000E+000
 0.000000E+000
 0.000000E+000
 0.000000E+000
 0.000000E+000
 0.000000E+000
 0.000000E+000
 0.000000E+000
 0.000000E+000
 0.000000E+000
 0.000000E+000
 0.000000E+000
 0.000000E+000
 0.000000E+000
 0.000000E+000
 0.000000E+000
 0.000000E+000
 0.000000E+000
 0.000000E+000
 0.000000E+000
 0.000000E+000
 0.000000E+000
 0.000000E+000
 0.000000E+000
 0.000000E+000
 0.000000E+000
 0.000000E+000
 0.000000E+000
 0.000000E+000
 0.000000E+000
 0.000000E+000
 0.000000E+000
 0.000000E+000
 0.000000E+000
 0.000000E+000
 0.000000E+000
 0.000000E+000
 0.000000E+000
 0.000000E+000
 0.000000E+000
 0.000000E+000
 0.000000E+000
 0.000000E+000
 0.000000E+000
 0.000000E+000
 0.000000E+000
 0.000000E+000
 0.000000E+000
 0.000000E+000
 0.000000E+000
 0.000000E+000
 0.000000E+000
 0.000000E+000
 0.000000E+000
 0.000000E+000
 0.000000E+000
 0.000000E+000
 0.000000E+000
 0.000000E+000
 0.000000E+000
 0.000000E+000
 0.000000E+000
 0.000000E+000
 0.000000E+000
 0.000000E+000
 0.000000E+000
 0.000000E+000
 0.000000E+000
 0.000000E+000
 0.000000E+000
 0.000000E+000
 0.000000E+000
 0.000000E+000
 0.000000E+000
 0.000000E+000
 0.000000E+000
 0.000000E+000
 0.000000E+000
 0.000000E+000
 0.000000E+000
 0.000000E+000
 0.000000E+000
 0.000000E+000
 0.000000E+000
 0.000000E+000
 0.000000E+000
 0.000000E+000
 0.000000E+000
 0.000000E+000
 0.000000E+000
 0.000000E+000
 0.000000E+000
 0.000000E+000
 0.000000E+000
 0.000000E+000
 0.000000E+000
 0.000000E+000
 0.000000E+000
 0.000000E+000
 0.000000E+000
 0.000000E+000
 0.000000E+000
 0.000000E+000
 0.000000E+000
 0.000000E+000
 0.000000E+000
 0.000000E+000
 0.000000E+000
 0.000000E+000
 0.000000E+000
 0.000000E+000
 0.000000E+000
 0.000000E+000
 0.000000E+000
 0.000000E+000
 0.000000E+000
 0.000000E+000
 0.000000E+000
 0.000000E+000
 0.000000E+000
 0.000000E+000
 0.000000E+000
 0.000000E+000
 0.000000E+000
 0.000000E+000
 0.000000E+000
 0.000000E+000
 0.000000E+000
 0.000000E+000
 0.000000E+000
 0.000000E+000
 0.000000E+000
 0.000000E+000
 0.000000E+000
 0.000000E+000
 0.000000E+000
 0.000000E+000
 0.000000E+000
 0.000000E+000
 0.000000E+000
 0.000000E+000
 0.000000E+000
 0.000000E+000
 0.000000E+000
 0.000000E+000
 0.000000E+000
 0.000000E+000
 0.000000E+000
 0.000000E+000
 0.000000E+000
 0.000000E+000
 0.000000E+000
 0.000000E+000
 0.000000E+000
 0.000000E+000
 0.000000E+000
 0.000000E+000
 0.000000E+000
 0.000000E+000
 0.000000E+000
 0.000000E+000
 0.000000E+000
 0.000000E+000
 0.000000E+000
 0.000000E+000
 0.000000E+000
 0.000000E+000
 0.000000E+000
 0.000000E+000
 0.000000E+000
 0.000000E+000
 0.000000E+000
 0.000000E+000
 0.000000E+000
 0.000000E+000
 0.000000E+000
 0.000000E+000
 0.000000E+000
 0.000000E+000
 0.000000E+000
 0.000000E+000
 0.000000E+000
 0.000000E+000
 0.000000E+000
 0.000000E+000
 0.000000E+000
 0.000000E+000
 0.000000E+000
 0.000000E+000
 0.000000E+000
 0.000000E+000
 0.000000E+000
 0.000000E+000
 0.000000E+000
 0.000000E+000
 0.000000E+000
 0.000000E+000
 0.000000E+000
 0.000000E+000
 0.000000E+000
 0.000000E+000
 0.000000E+000
 0.000000E+000
 0.000000E+000
 0.000000E+000
 0.000000E+000
 0.000000E+000
 0.000000E+000
 0.000000E+000
 0.000000E+000
 0.000000E+000
 0.000000E+000
 0.000000E+000
 0.000000E+000
 0.000000E+000
 0.000000E+000
 0.000000E+000
 0.000000E+000
 0.000000E+000
 0.000000E+000
 0.000000E+000
 0.000000E+000
 0.000000E+000
 0.000000E+000
 0.000000E+000
 0.000000E+000
 0.000000E+000
 0.000000E+000
 0.000000E+000
 0.000000E+000
 0.000000E+000
 0.000000E+000
 0.000000E+000
 0.000000E+000
 0.000000E+000
 0.000000E+000
 0.000000E+000
 0.000000E+000
 0.000000E+000
 0.000000E+000
 0.000000E+000
 0.000000E+000
 0.000000E+000
 0.000000E+000
 0.000000E+000
 0.000000E+000
 0.000000E+000
 0.000000E+000
 0.000000E+000
 0.000000E+000
 0.000000E+000
 0.000000E+000
 0.000000E+000
 0.000000E+000
 0.000000E+000
 0.000000E+000
 0.000000E+000
 0.000000E+000
 0.000000E+000
 0.000000E+000
SCALARS stress_13 FLOAT     1
LOOKUP_TABLE default
 0.000000E+000
 0.000000E+000
 0.000000E+000
 0.000000E+000
 0.000000E+000
 0.000000E+000
 0.000000E+000
 0.000000E+000
 0.000000E+000
 0.000000E+000
 0.000000E+000
 0.000000E+000
 0.000000E+000
 0.000000E+000
 0.000000E+000
 0.000000E+000
 0.000000E+000
 0.000000E+000
 0.000000E+000
 0.000000E+000
 0.000000E+000
 0.000000E+000
 0.000000E+000
 0.000000E+000
 0.000000E+000
 0.000000E+000
 0.000000E+000
 0.000000E+000
 0.000000E+000
 0.000000E+000
 0.000000E+000
 0.000000E+000
 0.000000E+000
 0.000000E+000
 0.000000E+000
 0.000000E+000
 0.000000E+000
 0.000000E+000
 0.000000E+000
 0.000000E+000
 0.000000E+000
 0.000000E+000
 0.000000E+000
 0.000000E+000
 0.000000E+000
 0.000000E+000
 0.000000E+000
 0.000000E+000
 0.000000E+000
 0.000000E+000
 0.000000E+000
 0.000000E+000
 0.000000E+000
 0.000000E+000
 0.000000E+000
 0.000000E+000
 0.000000E+000
 0.000000E+000
 0.000000E+000
 0.000000E+000
 0.000000E+000
 0.000000E+000
 0.000000E+000
 0.000000E+000
 0.000000E+000
 0.000000E+000
 0.000000E+000
 0.000000E+000
 0.000000E+000
 0.000000E+000
 0.000000E+000
 0.000000E+000
 0.000000E+000
 0.000000E+000
 0.000000E+000
 0.000000E+000
 0.000000E+000
 0.000000E+000
 0.000000E+000
 0.000000E+000
 0.000000E+000
 0.000000E+000
 0.000000E+000
 0.000000E+000
 0.000000E+000
 0.000000E+000
 0.000000E+000
 0.000000E+000
 0.000000E+000
 0.000000E+000
 0.000000E+000
 0.000000E+000
 0.000000E+000
 0.000000E+000
 0.000000E+000
 0.000000E+000
 0.000000E+000
 0.000000E+000
 0.000000E+000
 0.000000E+000
 0.000000E+000
 0.000000E+000
 0.000000E+000
 0.000000E+000
 0.000000E+000
 0.000000E+000
 0.000000E+000
 0.000000E+000
 0.000000E+000
 0.000000E+000
 0.000000E+000
 0.000000E+000
 0.000000E+000
 0.000000E+000
 0.000000E+000
 0.000000E+000
 0.000000E+000
 0.000000E+000
 0.000000E+000
 0.000000E+000
 0.000000E+000
 0.000000E+000
 0.000000E+000
 0.000000E+000
 0.000000E+000
 0.000000E+000
 0.000000E+000
 0.000000E+000
 0.000000E+000
 0.000000E+000
 0.000000E+000
 0.000000E+000
 0.000000E+000
 0.000000E+000
 0.000000E+000
 0.000000E+000
 0.000000E+000
 0.000000E+000
 0.000000E+000
 0.000000E+000
 0.000000E+000
 0.000000E+000
 0.000000E+000
 0.000000E+000
 0.000000E+000
 0.000000E+000
 0.000000E+000
 0.000000E+000
 0.000000E+000
 0.000000E+000
 0.000000E+000
 0.000000E+000
 0.000000E+000
 0.000000E+000
 0.000000E+000
 0.000000E+000
 0.000000E+000
 0.000000E+000
 0.000000E+000
 0.000000E+000
 0.000000E+000
 0.000000E+000
 0.000000E+000
 0.000000E+000
 0.000000E+000
 0.000000E+000
 0.000000E+000
 0.000000E+000
 0.000000E+000
 0.000000E+000
 0.000000E+000
 0.000000E+000
 0.000000E+000
 0.000000E+000
 0.000000E+000
 0.000000E+000
 0.000000E+000
 0.000000E+000
 0.000000E+000
 0.000000E+000
 0.000000E+000
 0.000000E+000
 0.000000E+000
 0.000000E+000
 0.000000E+000
 0.000000E+000
 0.000000E+000
 0.000000E+000
 0.000000E+000
 0.000000E+000
 0.000000E+000
 0.000000E+000
 0.000000E+000
 0.000000E+000
 0.000000E+000
 0.000000E+000
 0.000000E+000
 0.000000E+000
 0.000000E+000
 0.000000E+000
 0.000000E+000
 0.000000E+000
 0.000000E+000
 0.000000E+000
 0.000000E+000
 0.000000E+000
 0.000000E+000
 0.000000E+000
 0.000000E+000
 0.000000E+000
 0.000000E+000
 0.000000E+000
 0.000000E+000
 0.000000E+000
 0.000000E+000
 0.000000E+000
 0.000000E+000
 0.000000E+000
 0.000000E+000
 0.000000E+000
 0.000000E+000
 0.000000E+000
 0.000000E+000
 0.000000E+000
 0.000000E+000
 0.000000E+000
 0.000000E+000
 0.000000E+000
 0.000000E+000
 0.000000E+000
 0.000000E+000
 0.000000E+000
 0.000000E+000
 0.000000E+000
 0.000000E+000
 0.000000E+000
 0.000000E+000
 0.000000E+000
 0.000000E+000
 0.000000E+000
 0.000000E+000
 0.000000E+000
 0.000000E+000
 0.000000E+000
 0.000000E+000
 0.000000E+000
 0.000000E+000
 0.000000E+000
 0.000000E+000
 0.000000E+000
 0.000000E+000
 0.000000E+000
 0.000000E+000
 0.000000E+000
 0.000000E+000
 0.000000E+000
 0.000000E+000
 0.000000E+000
 0.000000E+000
 0.000000E+000
 0.000000E+000
 0.000000E+000
 0.000000E+000
 0.000000E+000
 0.000000E+000
 0.000000E+000
 0.000000E+000
 0.000000E+000
 0.000000E+000
 0.000000E+000
 0.000000E+000
 0.000000E+000
 0.000000E+000
 0.000000E+000
 0.000000E+000
 0.000000E+000
 0.000000E+000
 0.000000E+000
 0.000000E+000
 0.000000E+000
 0.000000E+000
 0.000000E+000
 0.000000E+000
 0.000000E+000
 0.000000E+000
 0.000000E+000
 0.000000E+000
 0.000000E+000
 0.000000E+000
 0.000000E+000
 0.000000E+000
 0.000000E+000
 0.000000E+000
 0.000000E+000
 0.000000E+000
 0.000000E+000
 0.000000E+000
 0.000000E+000
 0.000000E+000
 0.000000E+000
 0.000000E+000
 0.000000E+000
 0.000000E+000
 0.000000E+000
 0.000000E+000
 0.000000E+000
 0.000000E+000
 0.000000E+000
 0.000000E+000
 0.000000E+000
 0.000000E+000
 0.000000E+000
 0.000000E+000
 0.000000E+000
 0.000000E+000
 0.000000E+000
 0.000000E+000
 0.000000E+000
 0.000000E+000
 0.000000E+000
 0.000000E+000
 0.000000E+000
 0.000000E+000
 0.000000E+000
 0.000000E+000
 0.000000E+000
 0.000000E+000
 0.000000E+000
 0.000000E+000
 0.000000E+000
 0.000000E+000
 0.000000E+000
 0.000000E+000
 0.000000E+000
 0.000000E+000
 0.000000E+000
 0.000000E+000
 0.000000E+000
 0.000000E+000
 0.000000E+000
 0.000000E+000
 0.000000E+000
 0.000000E+000
 0.000000E+000
 0.000000E+000
 0.000000E+000
 0.000000E+000
 0.000000E+000
 0.000000E+000
 0.000000E+000
 0.000000E+000
 0.000000E+000
 0.000000E+000
 0.000000E+000
 0.000000E+000
 0.000000E+000
 0.000000E+000
 0.000000E+000
 0.000000E+000
 0.000000E+000
 0.000000E+000
 0.000000E+000
 0.000000E+000
 0.000000E+000
 0.000000E+000
 0.000000E+000
 0.000000E+000
 0.000000E+000
 0.000000E+000
 0.000000E+000
 0.000000E+000
 0.000000E+000
 0.000000E+000
 0.000000E+000
 0.000000E+000
 0.000000E+000
 0.000000E+000
 0.000000E+000
 0.000000E+000
 0.000000E+000
 0.000000E+000
 0.000000E+000
 0.000000E+000
 0.000000E+000
 0.000000E+000
 0.000000E+000
 0.000000E+000
 0.000000E+000
 0.000000E+000
 0.000000E+000
 0.000000E+000
 0.000000E+000
 0.000000E+000
 0.000000E+000
 0.000000E+000
 0.000000E+000
 0.000000E+000
 0.000000E+000
 0.000000E+000
 0.000000E+000
 0.000000E+000
 0.000000E+000
 0.000000E+000
 0.000000E+000
 0.000000E+000
 0.000000E+000
 0.000000E+000
 0.000000E+000
 0.000000E+000
 0.000000E+000
 0.000000E+000
 0.000000E+000
 0.000000E+000
 0.000000E+000
 0.000000E+000
 0.000000E+000
 0.000000E+000
 0.000000E+000
 0.000000E+000
 0.000000E+000
 0.000000E+000
 0.000000E+000
 0.000000E+000
 0.000000E+000
 0.000000E+000
 0.000000E+000
 0.000000E+000
 0.000000E+000
 0.000000E+000
 0.000000E+000
 0.000000E+000
 0.000000E+000
 0.000000E+000
 0.000000E+000
 0.000000E+000
 0.000000E+000
 0.000000E+000
 0.000000E+000
 0.000000E+000
 0.000000E+000
 0.000000E+000
 0.000000E+000
 0.000000E+000
 0.000000E+000
 0.000000E+000
 0.000000E+000
 0.000000E+000
 0.000000E+000
 0.000000E+000
 0.000000E+000
 0.000000E+000
 0.000000E+000
 0.000000E+000
 0.000000E+000
 0.000000E+000
 0.000000E+000
 0.000000E+000
 0.000000E+000
 0.000000E+000
 0.000000E+000
 0.000000E+000
 0.000000E+000
 0.000000E+000
 0.000000E+000
 0.000000E+000
 0.000000E+000
 0.000000E+000
 0.000000E+000
 0.000000E+000
 0.000000E+000
 0.000000E+000
 0.000000E+000
 0.000000E+000
 0.000000E+000
 0.000000E+000
 0.000000E+000
 0.000000E+000
 0.000000E+000
 0.000000E+000
 0.000000E+000
 0.000000E+000
 0.000000E+000
 0.000000E+000
 0.000000E+000
 0.000000E+000
 0.000000E+000
 0.000000E+000
 0.000000E+000
 0.000000E+000
 0.000000E+000
 0.000000E+000
 0.000000E+000
 0.000000E+000
 0.000000E+000
 0.000000E+000
 0.000000E+000
 0.000000E+000
 0.000000E+000
 0.000000E+000
 0.000000E+000
 0.000000E+000
 0.000000E+000
 0.000000E+000
 0.000000E+000
 0.000000E+000
 0.000000E+000
 0.000000E+000
 0.000000E+000
 0.000000E+000
 0.000000E+000
 0.000000E+000
 0.000000E+000
 0.000000E+000
 0.000000E+000
 0.000000E+000
 0.000000E+000
 0.000000E+000
 0.000000E+000
 0.000000E+000
 0.000000E+000
 0.000000E+000
 0.000000E+000
 0.000000E+000
 0.000000E+000
 0.000000E+000
 0.000000E+000
 0.000000E+000
 0.000000E+000
 0.000000E+000
 0.000000E+000
 0.000000E+000
 0.000000E+000
 0.000000E+000
 0.000000E+000
 0.000000E+000
 0.000000E+000
 0.000000E+000
 0.000000E+000
 0.000000E+000
 0.000000E+000
 0.000000E+000
 0.000000E+000
 0.000000E+000
 0.000000E+000
 0.000000E+000
 0.000000E+000
 0.000000E+000
 0.000000E+000
 0.000000E+000
 0.000000E+000
 0.000000E+000
 0.000000E+000
 0.000000E+000
 0.000000E+000
 0.000000E+000
 0.000000E+000
 0.000000E+000
 0.000000E+000
 0.000000E+000
 0.000000E+000
 0.000000E+000
 0.000000E+000
 0.000000E+000
 0.000000E+000
 0.000000E+000
 0.000000E+000
 0.000000E+000
 0.000000E+000
 0.000000E+000
 0.000000E+000
 0.000000E+000
 0.000000E+000
 0.000000E+000
 0.000000E+000
 0.000000E+000
 0.000000E+000
 0.000000E+000
 0.000000E+000
 0.000000E+000
 0.000000E+000
 0.000000E+000
 0.000000E+000
 0.000000E+000
 0.000000E+000
 0.000000E+000
 0.000000E+000
 0.000000E+000
 0.000000E+000
 0.000000E+000
 0.000000E+000
 0.000000E+000
 0.000000E+000
 0.000000E+000
 0.000000E+000
 0.000000E+000
 0.000000E+000
 0.000000E+000
 0.000000E+000
 0.000000E+000
 0.000000E+000
 0.000000E+000
 0.000000E+000
 0.000000E+000
 0.000000E+000
 0.000000E+000
 0.000000E+000
 0.000000E+000
 0.000000E+000
 0.000000E+000
 0.000000E+000
 0.000000E+000
 0.000000E+000
 0.000000E+000
 0.000000E+000
 0.000000E+000
 0.000000E+000
 0.000000E+000
 0.000000E+000
 0.000000E+000
 0.000000E+000
 0.000000E+000
 0.000000E+000
 0.000000E+000
 0.000000E+000
 0.000000E+000
 0.000000E+000
 0.000000E+000
 0.000000E+000
 0.000000E+000
 0.000000E+000
 0.000000E+000
 0.000000E+000
 0.000000E+000
 0.000000E+000
 0.000000E+000
 0.000000E+000
 0.000000E+000
 0.000000E+000
 0.000000E+000
 0.000000E+000
 0.000000E+000
 0.000000E+000
 0.000000E+000
 0.000000E+000
 0.000000E+000
 0.000000E+000
 0.000000E+000
 0.000000E+000
 0.000000E+000
 0.000000E+000
 0.000000E+000
 0.000000E+000
 0.000000E+000
 0.000000E+000
 0.000000E+000
 0.000000E+000
 0.000000E+000
 0.000000E+000
 0.000000E+000
 0.000000E+000
 0.000000E+000
 0.000000E+000
 0.000000E+000
 0.000000E+000
 0.000000E+000
 0.000000E+000
 0.000000E+000
 0.000000E+000
 0.000000E+000
 0.000000E+000
 0.000000E+000
 0.000000E+000
 0.000000E+000
 0.000000E+000
 0.000000E+000
 0.000000E+000
 0.000000E+000
 0.000000E+000
 0.000000E+000
 0.000000E+000
 0.000000E+000
 0.000000E+000
 0.000000E+000
 0.000000E+000
 0.000000E+000
 0.000000E+000
 0.000000E+000
 0.000000E+000
 0.000000E+000
 0.000000E+000
 0.000000E+000
 0.000000E+000
 0.000000E+000
 0.000000E+000
 0.000000E+000
 0.000000E+000
 0.000000E+000
 0.000000E+000
 0.000000E+000
 0.000000E+000
 0.000000E+000
 0.000000E+000
 0.000000E+000
 0.000000E+000
 0.000000E+000
 0.000000E+000
 0.000000E+000
 0.000000E+000
 0.000000E+000
 0.000000E+000
 0.000000E+000
 0.000000E+000
 0.000000E+000
 0.000000E+000
 0.000000E+000
 0.000000E+000
 0.000000E+000
 0.000000E+000
 0.000000E+000
 0.000000E+000
 0.000000E+000
 0.000000E+000
 0.000000E+000
 0.000000E+000
 0.000000E+000
 0.000000E+000
 0.000000E+000
 0.000000E+000
 0.000000E+000
 0.000000E+000
 0.000000E+000
 0.000000E+000
 0.000000E+000
 0.000000E+000
 0.000000E+000
 0.000000E+000
 0.000000E+000
 0.000000E+000
 0.000000E+000
 0.000000E+000
 0.000000E+000
 0.000000E+000
 0.000000E+000
 0.000000E+000
 0.000000E+000
 0.000000E+000
 0.000000E+000
 0.000000E+000
 0.000000E+000
 0.000000E+000
 0.000000E+000
 0.000000E+000
 0.000000E+000
 0.000000E+000
 0.000000E+000
 0.000000E+000
 0.000000E+000
 0.000000E+000
 0.000000E+000
 0.000000E+000
 0.000000E+000
 0.000000E+000
 0.000000E+000
 0.000000E+000
 0.000000E+000
 0.000000E+000
 0.000000E+000
 0.000000E+000
 0.000000E+000
 0.000000E+000
 0.000000E+000
 0.000000E+000
 0.000000E+000
 0.000000E+000
 0.000000E+000
 0.000000E+000
 0.000000E+000
 0.000000E+000
 0.000000E+000
 0.000000E+000
 0.000000E+000
 0.000000E+000
 0.000000E+000
 0.000000E+000
 0.000000E+000
 0.000000E+000
 0.000000E+000
 0.000000E+000
 0.000000E+000
 0.000000E+000
 0.000000E+000
 0.000000E+000
 0.000000E+000
 0.000000E+000
 0.000000E+000
 0.000000E+000
 0.000000E+000
 0.000000E+000
 0.000000E+000
 0.000000E+000
 0.000000E+000
 0.000000E+000
 0.000000E+000
 0.000000E+000
 0.000000E+000
 0.000000E+000
 0.000000E+000
 0.000000E+000
 0.000000E+000
 0.000000E+000
 0.000000E+000
 0.000000E+000
 0.000000E+000
 0.000000E+000
 0.000000E+000
 0.000000E+000
 0.000000E+000
 0.000000E+000
 0.000000E+000
 0.000000E+000
 0.000000E+000
 0.000000E+000
 0.000000E+000
 0.000000E+000
 0.000000E+000
 0.000000E+000
 0.000000E+000
 0.000000E+000
 0.000000E+000
 0.000000E+000
 0.000000E+000
 0.000000E+000
 0.000000E+000
 0.000000E+000
 0.000000E+000
 0.000000E+000
 0.000000E+000
 0.000000E+000
 0.000000E+000
 0.000000E+000
 0.000000E+000
 0.000000E+000
 0.000000E+000
 0.000000E+000
 0.000000E+000
 0.000000E+000
 0.000000E+000
 0.000000E+000
 0.000000E+000
 0.000000E+000
 0.000000E+000
 0.000000E+000
 0.000000E+000
 0.000000E+000
 0.000000E+000
 0.000000E+000
 0.000000E+000
 0.000000E+000
 0.000000E+000
 0.000000E+000
 0.000000E+000
 0.000000E+000
 0.000000E+000
 0.000000E+000
 0.000000E+000
 0.000000E+000
 0.000000E+000
 0.000000E+000
 0.000000E+000
 0.000000E+000
 0.000000E+000
 0.000000E+000
 0.000000E+000
 0.000000E+000
 0.000000E+000
 0.000000E+000
 0.000000E+000
 0.000000E+000
 0.000000E+000
 0.000000E+000
 0.000000E+000
 0.000000E+000
 0.000000E+000
 0.000000E+000
 0.000000E+000
 0.000000E+000
 0.000000E+000
 0.000000E+000
 0.000000E+000
 0.000000E+000
 0.000000E+000
 0.000000E+000
 0.000000E+000
 0.000000E+000
 0.000000E+000
 0.000000E+000
 0.000000E+000
 0.000000E+000
 0.000000E+000
 0.000000E+000
 0.000000E+000
 0.000000E+000
 0.000000E+000
 0.000000E+000
 0.000000E+000
 0.000000E+000
 0.000000E+000
 0.000000E+000
 0.000000E+000
 0.000000E+000
 0.000000E+000
 0.000000E+000
 0.000000E+000
 0.000000E+000
 0.000000E+000
 0.000000E+000
 0.000000E+000
 0.000000E+000
 0.000000E+000
 0.000000E+000
 0.000000E+000
 0.000000E+000
 0.000000E+000
 0.000000E+000
 0.000000E+000
 0.000000E+000
 0.000000E+000
 0.000000E+000
 0.000000E+000
 0.000000E+000
 0.000000E+000
 0.000000E+000
 0.000000E+000
 0.000000E+000
 0.000000E+000
 0.000000E+000
 0.000000E+000
 0.000000E+000
 0.000000E+000
 0.000000E+000
 0.000000E+000
 0.000000E+000
 0.000000E+000
 0.000000E+000
 0.000000E+000
 0.000000E+000
 0.000000E+000
 0.000000E+000
 0.000000E+000
 0.000000E+000
 0.000000E+000
 0.000000E+000
 0.000000E+000
 0.000000E+000
 0.000000E+000
 0.000000E+000
 0.000000E+000
 0.000000E+000
 0.000000E+000
 0.000000E+000
 0.000000E+000
 0.000000E+000
 0.000000E+000
 0.000000E+000
 0.000000E+000
 0.000000E+000
 0.000000E+000
 0.000000E+000
 0.000000E+000
 0.000000E+000
 0.000000E+000
 0.000000E+000
 0.000000E+000
 0.000000E+000
 0.000000E+000
 0.000000E+000
 0.000000E+000
 0.000000E+000
 0.000000E+000
 0.000000E+000
 0.000000E+000
 0.000000E+000
 0.000000E+000
 0.000000E+000
 0.000000E+000
 0.000000E+000
 0.000000E+000
 0.000000E+000
 0.000000E+000
 0.000000E+000
 0.000000E+000
 0.000000E+000
 0.000000E+000
 0.000000E+000
 0.000000E+000
 0.000000E+000
 0.000000E+000
 0.000000E+000
 0.000000E+000
 0.000000E+000
 0.000000E+000
 0.000000E+000
 0.000000E+000
 0.000000E+000
 0.000000E+000
 0.000000E+000
 0.000000E+000
 0.000000E+000
 0.000000E+000
 0.000000E+000
 0.000000E+000
 0.000000E+000
 0.000000E+000
 0.000000E+000
 0.000000E+000
 0.000000E+000
 0.000000E+000
 0.000000E+000
 0.000000E+000
 0.000000E+000
 0.000000E+000
 0.000000E+000
 0.000000E+000
 0.000000E+000
 0.000000E+000
 0.000000E+000
 0.000000E+000
 0.000000E+000
 0.000000E+000
 0.000000E+000
 0.000000E+000
 0.000000E+000
 0.000000E+000
 0.000000E+000
 0.000000E+000
 0.000000E+000
 0.000000E+000
 0.000000E+000
 0.000000E+000
 0.000000E+000
 0.000000E+000
 0.000000E+000
 0.000000E+000
 0.000000E+000
 0.000000E+000
 0.000000E+000
 0.000000E+000
 0.000000E+000
 0.000000E+000
 0.000000E+000
 0.000000E+000
 0.000000E+000
 0.000000E+000
 0.000000E+000
 0.000000E+000
 0.000000E+000
 0.000000E+000
 0.000000E+000
 0.000000E+000
 0.000000E+000
 0.000000E+000
 0.000000E+000
 0.000000E+000
 0.000000E+000
 0.000000E+000
 0.000000E+000
 0.000000E+000
 0.000000E+000
 0.000000E+000
 0.000000E+000
 0.000000E+000
 0.000000E+000
 0.000000E+000
 0.000000E+000
 0.000000E+000
 0.000000E+000
 0.000000E+000
 0.000000E+000
 0.000000E+000
 0.000000E+000
 0.000000E+000
 0.000000E+000
 0.000000E+000
 0.000000E+000
 0.000000E+000
 0.000000E+000
 0.000000E+000
 0.000000E+000
 0.000000E+000
 0.000000E+000
 0.000000E+000
 0.000000E+000
 0.000000E+000
 0.000000E+000
 0.000000E+000
 0.000000E+000
 0.000000E+000
 0.000000E+000
 0.000000E+000
 0.000000E+000
 0.000000E+000
 0.000000E+000
 0.000000E+000
 0.000000E+000
 0.000000E+000
 0.000000E+000
 0.000000E+000
 0.000000E+000
 0.000000E+000
 0.000000E+000
 0.000000E+000
 0.000000E+000
 0.000000E+000
 0.000000E+000
 0.000000E+000
 0.000000E+000
 0.000000E+000
 0.000000E+000
 0.000000E+000
 0.000000E+000
 0.000000E+000
 0.000000E+000
 0.000000E+000
 0.000000E+000
 0.000000E+000
 0.000000E+000
 0.000000E+000
 0.000000E+000
 0.000000E+000
 0.000000E+000
 0.000000E+000
 0.000000E+000
 0.000000E+000
 0.000000E+000
 0.000000E+000
 0.000000E+000
 0.000000E+000
 0.000000E+000
 0.000000E+000
 0.000000E+000
 0.000000E+000
 0.000000E+000
 0.000000E+000
 0.000000E+000
 0.000000E+000
 0.000000E+000
 0.000000E+000
 0.000000E+000
 0.000000E+000
 0.000000E+000
 0.000000E+000
 0.000000E+000
 0.000000E+000
 0.000000E+000
 0.000000E+000
 0.000000E+000
 0.000000E+000
 0.000000E+000
 0.000000E+000
 0.000000E+000
 0.000000E+000
 0.000000E+000
 0.000000E+000
 0.000000E+000
 0.000000E+000
 0.000000E+000
 0.000000E+000
 0.000000E+000
 0.000000E+000
 0.000000E+000
 0.000000E+000
 0.000000E+000
 0.000000E+000
 0.000000E+000
 0.000000E+000
 0.000000E+000
 0.000000E+000
 0.000000E+000
 0.000000E+000
 0.000000E+000
 0.000000E+000
 0.000000E+000
 0.000000E+000
 0.000000E+000
 0.000000E+000
 0.000000E+000
 0.000000E+000
 0.000000E+000
 0.000000E+000
 0.000000E+000
 0.000000E+000
 0.000000E+000
 0.000000E+000
 0.000000E+000
 0.000000E+000
 0.000000E+000
 0.000000E+000
 0.000000E+000
 0.000000E+000
 0.000000E+000
 0.000000E+000
 0.000000E+000
 0.000000E+000
 0.000000E+000
 0.000000E+000
 0.000000E+000
 0.000000E+000
 0.000000E+000
 0.000000E+000
 0.000000E+000
 0.000000E+000
 0.000000E+000
 0.000000E+000
 0.000000E+000
 0.000000E+000
 0.000000E+000
 0.000000E+000
 0.000000E+000
 0.000000E+000
 0.000000E+000
 0.000000E+000
 0.000000E+000
 0.000000E+000
 0.000000E+000
 0.000000E+000
 0.000000E+000
 0.000000E+000
 0.000000E+000
 0.000000E+000
 0.000000E+000
 0.000000E+000
 0.000000E+000
 0.000000E+000
 0.000000E+000
 0.000000E+000
 0.000000E+000
 0.000000E+000
 0.000000E+000
 0.000000E+000
 0.000000E+000
 0.000000E+000
 0.000000E+000
 0.000000E+000
 0.000000E+000
 0.000000E+000
 0.000000E+000
 0.000000E+000
 0.000000E+000
 0.000000E+000
 0.000000E+000
 0.000000E+000
 0.000000E+000
 0.000000E+000
 0.000000E+000
 0.000000E+000
 0.000000E+000
 0.000000E+000
 0.000000E+000
 0.000000E+000
 0.000000E+000
 0.000000E+000
 0.000000E+000
 0.000000E+000
 0.000000E+000
 0.000000E+000
 0.000000E+000
 0.000000E+000
 0.000000E+000
 0.000000E+000
 0.000000E+000
 0.000000E+000
 0.000000E+000
 0.000000E+000
 0.000000E+000
 0.000000E+000
 0.000000E+000
 0.000000E+000
 0.000000E+000
 0.000000E+000
 0.000000E+000
 0.000000E+000
 0.000000E+000
 0.000000E+000
 0.000000E+000
 0.000000E+000
 0.000000E+000
 0.000000E+000
 0.000000E+000
 0.000000E+000
 0.000000E+000
 0.000000E+000
 0.000000E+000
 0.000000E+000
 0.000000E+000
 0.000000E+000
 0.000000E+000
 0.000000E+000
 0.000000E+000
 0.000000E+000
 0.000000E+000
 0.000000E+000
 0.000000E+000
 0.000000E+000
 0.000000E+000
 0.000000E+000
 0.000000E+000
 0.000000E+000
 0.000000E+000
 0.000000E+000
 0.000000E+000
 0.000000E+000
 0.000000E+000
 0.000000E+000
 0.000000E+000
 0.000000E+000
 0.000000E+000
 0.000000E+000
 0.000000E+000
 0.000000E+000
 0.000000E+000
 0.000000E+000
 0.000000E+000
 0.000000E+000
 0.000000E+000
 0.000000E+000
 0.000000E+000
 0.000000E+000
 0.000000E+000
 0.000000E+000
 0.000000E+000
 0.000000E+000
 0.000000E+000
 0.000000E+000
 0.000000E+000
 0.000000E+000
 0.000000E+000
 0.000000E+000
 0.000000E+000
 0.000000E+000
 0.000000E+000
 0.000000E+000
 0.000000E+000
 0.000000E+000
 0.000000E+000
 0.000000E+000
 0.000000E+000
 0.000000E+000
 0.000000E+000
 0.000000E+000
 0.000000E+000
 0.000000E+000
 0.000000E+000
 0.000000E+000
 0.000000E+000
 0.000000E+000
 0.000000E+000
 0.000000E+000
 0.000000E+000
 0.000000E+000
 0.000000E+000
 0.000000E+000
 0.000000E+000
 0.000000E+000
 0.000000E+000
 0.000000E+000
 0.000000E+000
 0.000000E+000
 0.000000E+000
 0.000000E+000
 0.000000E+000
 0.000000E+000
 0.000000E+000
 0.000000E+000
 0.000000E+000
 0.000000E+000
 0.000000E+000
 0.000000E+000
 0.000000E+000
 0.000000E+000
 0.000000E+000
 0.000000E+000
 0.000000E+000
 0.000000E+000
 0.000000E+000
 0.000000E+000
 0.000000E+000
 0.000000E+000
 0.000000E+000
 0.000000E+000
 0.000000E+000
 0.000000E+000
 0.000000E+000
 0.000000E+000
 0.000000E+000
 0.000000E+000
 0.000000E+000
 0.000000E+000
 0.000000E+000
 0.000000E+000
 0.000000E+000
 0.000000E+000
 0.000000E+000
 0.000000E+000
 0.000000E+000
 0.000000E+000
 0.000000E+000
 0.000000E+000
 0.000000E+000
 0.000000E+000
 0.000000E+000
 0.000000E+000
 0.000000E+000
 0.000000E+000
 0.000000E+000
 0.000000E+000
 0.000000E+000
 0.000000E+000
 0.000000E+000
 0.000000E+000
 0.000000E+000
 0.000000E+000
 0.000000E+000
 0.000000E+000
 0.000000E+000
 0.000000E+000
 0.000000E+000
 0.000000E+000
 0.000000E+000
 0.000000E+000
 0.000000E+000
 0.000000E+000
 0.000000E+000
 0.000000E+000
 0.000000E+000
 0.000000E+000
 0.000000E+000
 0.000000E+000
 0.000000E+000
 0.000000E+000
 0.000000E+000
 0.000000E+000
 0.000000E+000
 0.000000E+000
 0.000000E+000
 0.000000E+000
 0.000000E+000
 0.000000E+000
 0.000000E+000
 0.000000E+000
 0.000000E+000
 0.000000E+000
 0.000000E+000
 0.000000E+000
 0.000000E+000
 0.000000E+000
 0.000000E+000
 0.000000E+000
 0.000000E+000
 0.000000E+000
 0.000000E+000
 0.000000E+000
 0.000000E+000
 0.000000E+000
 0.000000E+000
 0.000000E+000
 0.000000E+000
 0.000000E+000
 0.000000E+000
 0.000000E+000
 0.000000E+000
 0.000000E+000
 0.000000E+000
 0.000000E+000
 0.000000E+000
 0.000000E+000
 0.000000E+000
 0.000000E+000
 0.000000E+000
 0.000000E+000
 0.000000E+000
 0.000000E+000
 0.000000E+000
 0.000000E+000
 0.000000E+000
 0.000000E+000
 0.000000E+000
 0.000000E+000
 0.000000E+000
 0.000000E+000
 0.000000E+000
 0.000000E+000
 0.000000E+000
 0.000000E+000
 0.000000E+000
 0.000000E+000
 0.000000E+000
 0.000000E+000
 0.000000E+000
 0.000000E+000
 0.000000E+000
 0.000000E+000
 0.000000E+000
 0.000000E+000
 0.000000E+000
 0.000000E+000
 0.000000E+000
 0.000000E+000
 0.000000E+000
 0.000000E+000
 0.000000E+000
 0.000000E+000
 0.000000E+000
 0.000000E+000
 0.000000E+000
 0.000000E+000
 0.000000E+000
 0.000000E+000
 0.000000E+000
 0.000000E+000
 0.000000E+000
 0.000000E+000
 0.000000E+000
 0.000000E+000
 0.000000E+000
 0.000000E+000
 0.000000E+000
 0.000000E+000
 0.000000E+000
 0.000000E+000
 0.000000E+000
 0.000000E+000
 0.000000E+000
 0.000000E+000
 0.000000E+000
 0.000000E+000
 0.000000E+000
 0.000000E+000
 0.000000E+000
 0.000000E+000
 0.000000E+000
 0.000000E+000
 0.000000E+000
 0.000000E+000
 0.000000E+000
 0.000000E+000
 0.000000E+000
 0.000000E+000
 0.000000E+000
 0.000000E+000
 0.000000E+000
 0.000000E+000
 0.000000E+000
 0.000000E+000
 0.000000E+000
 0.000000E+000
 0.000000E+000
 0.000000E+000
 0.000000E+000
 0.000000E+000
 0.000000E+000
 0.000000E+000
 0.000000E+000
 0.000000E+000
 0.000000E+000
 0.000000E+000
 0.000000E+000
 0.000000E+000
 0.000000E+000
 0.000000E+000
 0.000000E+000
 0.000000E+000
 0.000000E+000
 0.000000E+000
 0.000000E+000
 0.000000E+000
 0.000000E+000
 0.000000E+000
 0.000000E+000
 0.000000E+000
 0.000000E+000
 0.000000E+000
 0.000000E+000
 0.000000E+000
 0.000000E+000
 0.000000E+000
 0.000000E+000
 0.000000E+000
 0.000000E+000
 0.000000E+000
 0.000000E+000
 0.000000E+000
 0.000000E+000
 0.000000E+000
 0.000000E+000
 0.000000E+000
 0.000000E+000
 0.000000E+000
 0.000000E+000
 0.000000E+000
 0.000000E+000
 0.000000E+000
 0.000000E+000
 0.000000E+000
 0.000000E+000
 0.000000E+000
 0.000000E+000
 0.000000E+000
 0.000000E+000
 0.000000E+000
 0.000000E+000
 0.000000E+000
 0.000000E+000
 0.000000E+000
 0.000000E+000
 0.000000E+000
 0.000000E+000
 0.000000E+000
 0.000000E+000
 0.000000E+000
 0.000000E+000
 0.000000E+000
 0.000000E+000
 0.000000E+000
 0.000000E+000
 0.000000E+000
 0.000000E+000
 0.000000E+000
 0.000000E+000
 0.000000E+000
 0.000000E+000
 0.000000E+000
 0.000000E+000
 0.000000E+000
 0.000000E+000
 0.000000E+000
 0.000000E+000
 0.000000E+000
 0.000000E+000
 0.000000E+000
 0.000000E+000
 0.000000E+000
 0.000000E+000
 0.000000E+000
 0.000000E+000
 0.000000E+000
 0.000000E+000
 0.000000E+000
 0.000000E+000
 0.000000E+000
 0.000000E+000
 0.000000E+000
 0.000000E+000
 0.000000E+000
 0.000000E+000
 0.000000E+000
 0.000000E+000
 0.000000E+000
 0.000000E+000
 0.000000E+000
 0.000000E+000
 0.000000E+000
 0.000000E+000
 0.000000E+000
 0.000000E+000
 0.000000E+000
 0.000000E+000
 0.000000E+000
 0.000000E+000
 0.000000E+000
 0.000000E+000
 0.000000E+000
 0.000000E+000
 0.000000E+000
 0.000000E+000
 0.000000E+000
 0.000000E+000
 0.000000E+000
 0.000000E+000
 0.000000E+000
 0.000000E+000
 0.000000E+000
 0.000000E+000
 0.000000E+000
 0.000000E+000
 0.000000E+000
 0.000000E+000
 0.000000E+000
 0.000000E+000
 0.000000E+000
 0.000000E+000
 0.000000E+000
 0.000000E+000
 0.000000E+000
 0.000000E+000
 0.000000E+000
 0.000000E+000
 0.000000E+000
 0.000000E+000
 0.000000E+000
 0.000000E+000
 0.000000E+000
 0.000000E+000
 0.000000E+000
 0.000000E+000
 0.000000E+000
 0.000000E+000
 0.000000E+000
 0.000000E+000
 0.000000E+000
 0.000000E+000
 0.000000E+000
 0.000000E+000
 0.000000E+000
 0.000000E+000
 0.000000E+000
 0.000000E+000
 0.000000E+000
 0.000000E+000
 0.000000E+000
 0.000000E+000
 0.000000E+000
 0.000000E+000
 0.000000E+000
 0.000000E+000
 0.000000E+000
 0.000000E+000
 0.000000E+000
 0.000000E+000
 0.000000E+000
 0.000000E+000
 0.000000E+000
 0.000000E+000
 0.000000E+000
 0.000000E+000
 0.000000E+000
 0.000000E+000
 0.000000E+000
 0.000000E+000
 0.000000E+000
 0.000000E+000
 0.000000E+000
 0.000000E+000
 0.000000E+000
 0.000000E+000
 0.000000E+000
 0.000000E+000
 0.000000E+000
 0.000000E+000
 0.000000E+000
 0.000000E+000
 0.000000E+000
 0.000000E+000
 0.000000E+000
 0.000000E+000
 0.000000E+000
 0.000000E+000
 0.000000E+000
 0.000000E+000
 0.000000E+000
 0.000000E+000
 0.000000E+000
 0.000000E+000
 0.000000E+000
 0.000000E+000
 0.000000E+000
 0.000000E+000
 0.000000E+000
 0.000000E+000
 0.000000E+000
 0.000000E+000
 0.000000E+000
 0.000000E+000
 0.000000E+000
 0.000000E+000
 0.000000E+000
 0.000000E+000
 0.000000E+000
 0.000000E+000
 0.000000E+000
 0.000000E+000
 0.000000E+000
 0.000000E+000
 0.000000E+000
 0.000000E+000
 0.000000E+000
 0.000000E+000
 0.000000E+000
 0.000000E+000
 0.000000E+000
 0.000000E+000
 0.000000E+000
 0.000000E+000
 0.000000E+000
 0.000000E+000
 0.000000E+000
 0.000000E+000
 0.000000E+000
 0.000000E+000
 0.000000E+000
 0.000000E+000
 0.000000E+000
 0.000000E+000
 0.000000E+000
 0.000000E+000
 0.000000E+000
 0.000000E+000
 0.000000E+000
 0.000000E+000
 0.000000E+000
 0.000000E+000
 0.000000E+000
 0.000000E+000
 0.000000E+000
 0.000000E+000
 0.000000E+000
 0.000000E+000
 0.000000E+000
 0.000000E+000
 0.000000E+000
 0.000000E+000
 0.000000E+000
 0.000000E+000
 0.000000E+000
 0.000000E+000
 0.000000E+000
 0.000000E+000
 0.000000E+000
 0.000000E+000
 0.000000E+000
 0.000000E+000
 0.000000E+000
 0.000000E+000
 0.000000E+000
 0.000000E+000
 0.000000E+000
 0.000000E+000
 0.000000E+000
 0.000000E+000
 0.000000E+000
 0.000000E+000
 0.000000E+000
 0.000000E+000
 0.000000E+000
 0.000000E+000
 0.000000E+000
 0.000000E+000
 0.000000E+000
 0.000000E+000
 0.000000E+000
 0.000000E+000
 0.000000E+000
 0.000000E+000
 0.000000E+000
 0.000000E+000
 0.000000E+000
 0.000000E+000
 0.000000E+000
 0.000000E+000
 0.000000E+000
 0.000000E+000
 0.000000E+000
 0.000000E+000
 0.000000E+000
 0.000000E+000
 0.000000E+000
 0.000000E+000
 0.000000E+000
 0.000000E+000
 0.000000E+000
 0.000000E+000
 0.000000E+000
 0.000000E+000
 0.000000E+000
 0.000000E+000
 0.000000E+000
 0.000000E+000
 0.000000E+000
 0.000000E+000
 0.000000E+000
 0.000000E+000
 0.000000E+000
 0.000000E+000
 0.000000E+000
 0.000000E+000
 0.000000E+000
 0.000000E+000
 0.000000E+000
 0.000000E+000
 0.000000E+000
 0.000000E+000
 0.000000E+000
 0.000000E+000
 0.000000E+000
 0.000000E+000
 0.000000E+000
 0.000000E+000
 0.000000E+000
 0.000000E+000
 0.000000E+000
 0.000000E+000
 0.000000E+000
 0.000000E+000
 0.000000E+000
 0.000000E+000
 0.000000E+000
 0.000000E+000
 0.000000E+000
 0.000000E+000
 0.000000E+000
 0.000000E+000
 0.000000E+000
 0.000000E+000
 0.000000E+000
 0.000000E+000
 0.000000E+000
 0.000000E+000
 0.000000E+000
 0.000000E+000
 0.000000E+000
 0.000000E+000
 0.000000E+000
 0.000000E+000
 0.000000E+000
 0.000000E+000
 0.000000E+000
 0.000000E+000
 0.000000E+000
 0.000000E+000
 0.000000E+000
 0.000000E+000
 0.000000E+000
 0.000000E+000
 0.000000E+000
 0.000000E+000
 0.000000E+000
 0.000000E+000
 0.000000E+000
 0.000000E+000
 0.000000E+000
 0.000000E+000
 0.000000E+000
 0.000000E+000
 0.000000E+000
 0.000000E+000
 0.000000E+000
 0.000000E+000
 0.000000E+000
 0.000000E+000
 0.000000E+000
 0.000000E+000
 0.000000E+000
 0.000000E+000
 0.000000E+000
 0.000000E+000
 0.000000E+000
 0.000000E+000
 0.000000E+000
 0.000000E+000
 0.000000E+000
 0.000000E+000
 0.000000E+000
 0.000000E+000
 0.000000E+000
 0.000000E+000
 0.000000E+000
 0.000000E+000
 0.000000E+000
 0.000000E+000
 0.000000E+000
 0.000000E+000
 0.000000E+000
 0.000000E+000
 0.000000E+000
 0.000000E+000
 0.000000E+000
 0.000000E+000
 0.000000E+000
 0.000000E+000
 0.000000E+000
 0.000000E+000
 0.000000E+000
 0.000000E+000
 0.000000E+000
 0.000000E+000
 0.000000E+000
 0.000000E+000
 0.000000E+000
 0.000000E+000
 0.000000E+000
 0.000000E+000
 0.000000E+000
 0.000000E+000
 0.000000E+000
 0.000000E+000
 0.000000E+000
 0.000000E+000
 0.000000E+000
 0.000000E+000
 0.000000E+000
 0.000000E+000
 0.000000E+000
 0.000000E+000
 0.000000E+000
 0.000000E+000
 0.000000E+000
 0.000000E+000
 0.000000E+000
 0.000000E+000
 0.000000E+000
 0.000000E+000
 0.000000E+000
 0.000000E+000
 0.000000E+000
 0.000000E+000
 0.000000E+000
 0.000000E+000
 0.000000E+000
 0.000000E+000
 0.000000E+000
 0.000000E+000
 0.000000E+000
 0.000000E+000
 0.000000E+000
 0.000000E+000
 0.000000E+000
 0.000000E+000
 0.000000E+000
 0.000000E+000
 0.000000E+000
 0.000000E+000
 0.000000E+000
 0.000000E+000
 0.000000E+000
 0.000000E+000
 0.000000E+000
 0.000000E+000
 0.000000E+000
 0.000000E+000
 0.000000E+000
 0.000000E+000
 0.000000E+000
 0.000000E+000
 0.000000E+000
 0.000000E+000
 0.000000E+000
 0.000000E+000
 0.000000E+000
 0.000000E+000
 0.000000E+000
 0.000000E+000
 0.000000E+000
 0.000000E+000
 0.000000E+000
 0.000000E+000
 0.000000E+000
 0.000000E+000
 0.000000E+000
 0.000000E+000
 0.000000E+000
 0.000000E+000
 0.000000E+000
 0.000000E+000
 0.000000E+000
 0.000000E+000
 0.000000E+000
 0.000000E+000
 0.000000E+000
 0.000000E+000
 0.000000E+000
 0.000000E+000
 0.000000E+000
 0.000000E+000
 0.000000E+000
 0.000000E+000
 0.000000E+000
 0.000000E+000
 0.000000E+000
 0.000000E+000
 0.000000E+000
 0.000000E+000
 0.000000E+000
 0.000000E+000
 0.000000E+000
 0.000000E+000
 0.000000E+000
 0.000000E+000
 0.000000E+000
 0.000000E+000
 0.000000E+000
 0.000000E+000
 0.000000E+000
 0.000000E+000
 0.000000E+000
 0.000000E+000
 0.000000E+000
 0.000000E+000
 0.000000E+000
 0.000000E+000
 0.000000E+000
 0.000000E+000
 0.000000E+000
 0.000000E+000
 0.000000E+000
 0.000000E+000
 0.000000E+000
 0.000000E+000
 0.000000E+000
 0.000000E+000
 0.000000E+000
 0.000000E+000
 0.000000E+000
 0.000000E+000
 0.000000E+000
 0.000000E+000
 0.000000E+000
 0.000000E+000
 0.000000E+000
 0.000000E+000
 0.000000E+000
 0.000000E+000
 0.000000E+000
 0.000000E+000
 0.000000E+000
 0.000000E+000
 0.000000E+000
 0.000000E+000
 0.000000E+000
 0.000000E+000
 0.000000E+000
 0.000000E+000
 0.000000E+000
 0.000000E+000
 0.000000E+000
 0.000000E+000
 0.000000E+000
 0.000000E+000
 0.000000E+000
 0.000000E+000
 0.000000E+000
 0.000000E+000
 0.000000E+000
 0.000000E+000
 0.000000E+000
 0.000000E+000
 0.000000E+000
 0.000000E+000
 0.000000E+000
 0.000000E+000
 0.000000E+000
 0.000000E+000
 0.000000E+000
 0.000000E+000
 0.000000E+000
 0.000000E+000
 0.000000E+000
 0.000000E+000
 0.000000E+000
 0.000000E+000
 0.000000E+000
 0.000000E+000
 0.000000E+000
 0.000000E+000
 0.000000E+000
 0.000000E+000
 0.000000E+000
 0.000000E+000
 0.000000E+000
 0.000000E+000
 0.000000E+000
 0.000000E+000
 0.000000E+000
 0.000000E+000
 0.000000E+000
 0.000000E+000
 0.000000E+000
 0.000000E+000
 0.000000E+000
 0.000000E+000
 0.000000E+000
 0.000000E+000
 0.000000E+000
 0.000000E+000
 0.000000E+000
 0.000000E+000
 0.000000E+000
 0.000000E+000
 0.000000E+000
 0.000000E+000
 0.000000E+000
 0.000000E+000
 0.000000E+000
 0.000000E+000
 0.000000E+000
 0.000000E+000
 0.000000E+000
 0.000000E+000
 0.000000E+000
 0.000000E+000
 0.000000E+000
 0.000000E+000
 0.000000E+000
 0.000000E+000
 0.000000E+000
 0.000000E+000
 0.000000E+000
 0.000000E+000
 0.000000E+000
 0.000000E+000
 0.000000E+000
 0.000000E+000
 0.000000E+000
 0.000000E+000
 0.000000E+000
 0.000000E+000
 0.000000E+000
 0.000000E+000
 0.000000E+000
 0.000000E+000
 0.000000E+000
 0.000000E+000
 0.000000E+000
 0.000000E+000
 0.000000E+000
 0.000000E+000
 0.000000E+000
 0.000000E+000
 0.000000E+000
 0.000000E+000
 0.000000E+000
 0.000000E+000
 0.000000E+000
 0.000000E+000
 0.000000E+000
 0.000000E+000
 0.000000E+000
 0.000000E+000
 0.000000E+000
 0.000000E+000
 0.000000E+000
 0.000000E+000
 0.000000E+000
 0.000000E+000
 0.000000E+000
 0.000000E+000
 0.000000E+000
 0.000000E+000
 0.000000E+000
 0.000000E+000
 0.000000E+000
 0.000000E+000
 0.000000E+000
 0.000000E+000
 0.000000E+000
 0.000000E+000
 0.000000E+000
 0.000000E+000
 0.000000E+000
 0.000000E+000
 0.000000E+000
 0.000000E+000
 0.000000E+000
 0.000000E+000
 0.000000E+000
 0.000000E+000
 0.000000E+000
 0.000000E+000
 0.000000E+000
 0.000000E+000
 0.000000E+000
 0.000000E+000
 0.000000E+000
 0.000000E+000
 0.000000E+000
 0.000000E+000
 0.000000E+000
 0.000000E+000
 0.000000E+000
 0.000000E+000
 0.000000E+000
 0.000000E+000
 0.000000E+000
 0.000000E+000
 0.000000E+000
 0.000000E+000
 0.000000E+000
 0.000000E+000
 0.000000E+000
 0.000000E+000
 0.000000E+000
 0.000000E+000
 0.000000E+000
 0.000000E+000
 0.000000E+000
 0.000000E+000
 0.000000E+000
 0.000000E+000
 0.000000E+000
 0.000000E+000
 0.000000E+000
 0.000000E+000
 0.000000E+000
 0.000000E+000
 0.000000E+000
 0.000000E+000
 0.000000E+000
 0.000000E+000
 0.000000E+000
 0.000000E+000
 0.000000E+000
 0.000000E+000
 0.000000E+000
 0.000000E+000
 0.000000E+000
 0.000000E+000
 0.000000E+000
 0.000000E+000
 0.000000E+000
 0.000000E+000
 0.000000E+000
 0.000000E+000
 0.000000E+000
 0.000000E+000
 0.000000E+000
 0.000000E+000
 0.000000E+000
 0.000000E+000
 0.000000E+000
 0.000000E+000
 0.000000E+000
 0.000000E+000
 0.000000E+000
 0.000000E+000
 0.000000E+000
 0.000000E+000
 0.000000E+000
 0.000000E+000
 0.000000E+000
 0.000000E+000
 0.000000E+000
 0.000000E+000
 0.000000E+000
 0.000000E+000
 0.000000E+000
 0.000000E+000
 0.000000E+000
 0.000000E+000
 0.000000E+000
 0.000000E+000
 0.000000E+000
 0.000000E+000
 0.000000E+000
 0.000000E+000
 0.000000E+000
 0.000000E+000
 0.000000E+000
 0.000000E+000
 0.000000E+000
 0.000000E+000
 0.000000E+000
 0.000000E+000
 0.000000E+000
 0.000000E+000
 0.000000E+000
 0.000000E+000
 0.000000E+000
 0.000000E+000
 0.000000E+000
 0.000000E+000
 0.000000E+000
 0.000000E+000
 0.000000E+000
 0.000000E+000
 0.000000E+000
 0.000000E+000
 0.000000E+000
 0.000000E+000
 0.000000E+000
 0.000000E+000
 0.000000E+000
 0.000000E+000
 0.000000E+000
 0.000000E+000
 0.000000E+000
 0.000000E+000
 0.000000E+000
 0.000000E+000
 0.000000E+000
 0.000000E+000
 0.000000E+000
 0.000000E+000
 0.000000E+000
 0.000000E+000
 0.000000E+000
 0.000000E+000
 0.000000E+000
 0.000000E+000
 0.000000E+000
 0.000000E+000
 0.000000E+000
 0.000000E+000
 0.000000E+000
 0.000000E+000
 0.000000E+000
 0.000000E+000
 0.000000E+000
 0.000000E+000
 0.000000E+000
 0.000000E+000
 0.000000E+000
 0.000000E+000
 0.000000E+000
 0.000000E+000
 0.000000E+000
 0.000000E+000
 0.000000E+000
 0.000000E+000
 0.000000E+000
 0.000000E+000
 0.000000E+000
 0.000000E+000
 0.000000E+000
 0.000000E+000
 0.000000E+000
 0.000000E+000
 0.000000E+000
 0.000000E+000
 0.000000E+000
 0.000000E+000
 0.000000E+000
 0.000000E+000
 0.000000E+000
 0.000000E+000
 0.000000E+000
 0.000000E+000
 0.000000E+000
 0.000000E+000
 0.000000E+000
 0.000000E+000
 0.000000E+000
 0.000000E+000
 0.000000E+000
 0.000000E+000
 0.000000E+000
 0.000000E+000
 0.000000E+000
 0.000000E+000
 0.000000E+000
 0.000000E+000
 0.000000E+000
 0.000000E+000
 0.000000E+000
 0.000000E+000
 0.000000E+000
 0.000000E+000
 0.000000E+000
 0.000000E+000
 0.000000E+000
 0.000000E+000
 0.000000E+000
 0.000000E+000
 0.000000E+000
 0.000000E+000
 0.000000E+000
 0.000000E+000
 0.000000E+000
 0.000000E+000
 0.000000E+000
 0.000000E+000
 0.000000E+000
 0.000000E+000
 0.000000E+000
 0.000000E+000
 0.000000E+000
 0.000000E+000
 0.000000E+000
 0.000000E+000
 0.000000E+000
 0.000000E+000
 0.000000E+000
 0.000000E+000
 0.000000E+000
 0.000000E+000
 0.000000E+000
 0.000000E+000
 0.000000E+000
 0.000000E+000
 0.000000E+000
 0.000000E+000
 0.000000E+000
 0.000000E+000
 0.000000E+000
 0.000000E+000
 0.000000E+000
 0.000000E+000
 0.000000E+000
 0.000000E+000
 0.000000E+000
 0.000000E+000
 0.000000E+000
 0.000000E+000
 0.000000E+000
 0.000000E+000
 0.000000E+000
 0.000000E+000
 0.000000E+000
 0.000000E+000
 0.000000E+000
 0.000000E+000
 0.000000E+000
 0.000000E+000
 0.000000E+000
 0.000000E+000
 0.000000E+000
 0.000000E+000
 0.000000E+000
 0.000000E+000
 0.000000E+000
 0.000000E+000
 0.000000E+000
 0.000000E+000
 0.000000E+000
 0.000000E+000
 0.000000E+000
 0.000000E+000
 0.000000E+000
 0.000000E+000
 0.000000E+000
 0.000000E+000
 0.000000E+000
 0.000000E+000
 0.000000E+000
 0.000000E+000
 0.000000E+000
 0.000000E+000
 0.000000E+000
 0.000000E+000
 0.000000E+000
 0.000000E+000
 0.000000E+000
 0.000000E+000
 0.000000E+000
 0.000000E+000
 0.000000E+000
 0.000000E+000
 0.000000E+000
 0.000000E+000
 0.000000E+000
 0.000000E+000
 0.000000E+000
 0.000000E+000
 0.000000E+000
 0.000000E+000
 0.000000E+000
 0.000000E+000
 0.000000E+000
 0.000000E+000
 0.000000E+000
 0.000000E+000
 0.000000E+000
 0.000000E+000
 0.000000E+000
 0.000000E+000
 0.000000E+000
 0.000000E+000
 0.000000E+000
 0.000000E+000
 0.000000E+000
 0.000000E+000
 0.000000E+000
 0.000000E+000
 0.000000E+000
 0.000000E+000
 0.000000E+000
 0.000000E+000
 0.000000E+000
 0.000000E+000
 0.000000E+000
 0.000000E+000
 0.000000E+000
 0.000000E+000
 0.000000E+000
 0.000000E+000
 0.000000E+000
 0.000000E+000
 0.000000E+000
 0.000000E+000
 0.000000E+000
 0.000000E+000
 0.000000E+000
 0.000000E+000
 0.000000E+000
 0.000000E+000
 0.000000E+000
 0.000000E+000
 0.000000E+000
 0.000000E+000
 0.000000E+000
 0.000000E+000
 0.000000E+000
 0.000000E+000
 0.000000E+000
 0.000000E+000
 0.000000E+000
 0.000000E+000
 0.000000E+000
 0.000000E+000
 0.000000E+000
 0.000000E+000
 0.000000E+000
 0.000000E+000
 0.000000E+000
 0.000000E+000
 0.000000E+000
 0.000000E+000
 0.000000E+000
 0.000000E+000
 0.000000E+000
 0.000000E+000
 0.000000E+000
 0.000000E+000
 0.000000E+000
 0.000000E+000
 0.000000E+000
 0.000000E+000
 0.000000E+000
 0.000000E+000
 0.000000E+000
 0.000000E+000
 0.000000E+000
 0.000000E+000
 0.000000E+000
 0.000000E+000
 0.000000E+000
 0.000000E+000
 0.000000E+000
 0.000000E+000
 0.000000E+000
 0.000000E+000
 0.000000E+000
 0.000000E+000
 0.000000E+000
 0.000000E+000
 0.000000E+000
 0.000000E+000
 0.000000E+000
 0.000000E+000
 0.000000E+000
 0.000000E+000
 0.000000E+000
 0.000000E+000
 0.000000E+000
 0.000000E+000
 0.000000E+000
 0.000000E+000
 0.000000E+000
 0.000000E+000
 0.000000E+000
 0.000000E+000
 0.000000E+000
 0.000000E+000
 0.000000E+000
 0.000000E+000
 0.000000E+000
 0.000000E+000
 0.000000E+000
 0.000000E+000
 0.000000E+000
 0.000000E+000
 0.000000E+000
 0.000000E+000
 0.000000E+000
 0.000000E+000
 0.000000E+000
 0.000000E+000
 0.000000E+000
 0.000000E+000
 0.000000E+000
 0.000000E+000
 0.000000E+000
 0.000000E+000
 0.000000E+000
 0.000000E+000
 0.000000E+000
 0.000000E+000
 0.000000E+000
 0.000000E+000
 0.000000E+000
 0.000000E+000
 0.000000E+000
 0.000000E+000
 0.000000E+000
 0.000000E+000
 0.000000E+000
 0.000000E+000
 0.000000E+000
 0.000000E+000
 0.000000E+000
 0.000000E+000
 0.000000E+000
 0.000000E+000
 0.000000E+000
 0.000000E+000
 0.000000E+000
 0.000000E+000
 0.000000E+000
 0.000000E+000
 0.000000E+000
 0.000000E+000
 0.000000E+000
 0.000000E+000
 0.000000E+000
 0.000000E+000
 0.000000E+000
 0.000000E+000
 0.000000E+000
 0.000000E+000
 0.000000E+000
 0.000000E+000
 0.000000E+000
 0.000000E+000
 0.000000E+000
 0.000000E+000
 0.000000E+000
 0.000000E+000
 0.000000E+000
 0.000000E+000
 0.000000E+000
 0.000000E+000
 0.000000E+000
 0.000000E+000
 0.000000E+000
 0.000000E+000
 0.000000E+000
 0.000000E+000
 0.000000E+000
 0.000000E+000
 0.000000E+000
 0.000000E+000
 0.000000E+000
 0.000000E+000
 0.000000E+000
 0.000000E+000
 0.000000E+000
 0.000000E+000
 0.000000E+000
 0.000000E+000
 0.000000E+000
 0.000000E+000
 0.000000E+000
 0.000000E+000
 0.000000E+000
 0.000000E+000
 0.000000E+000
 0.000000E+000
 0.000000E+000
 0.000000E+000
 0.000000E+000
 0.000000E+000
 0.000000E+000
 0.000000E+000
 0.000000E+000
 0.000000E+000
 0.000000E+000
 0.000000E+000
 0.000000E+000
 0.000000E+000
 0.000000E+000
 0.000000E+000
 0.000000E+000
 0.000000E+000
 0.000000E+000
 0.000000E+000
 0.000000E+000
 0.000000E+000
 0.000000E+000
 0.000000E+000
 0.000000E+000
 0.000000E+000
 0.000000E+000
 0.000000E+000
 0.000000E+000
 0.000000E+000
 0.000000E+000
 0.000000E+000
 0.000000E+000
 0.000000E+000
 0.000000E+000
 0.000000E+000
 0.000000E+000
 0.000000E+000
 0.000000E+000
 0.000000E+000
 0.000000E+000
 0.000000E+000
 0.000000E+000
 0.000000E+000
 0.000000E+000
 0.000000E+000
 0.000000E+000
 0.000000E+000
 0.000000E+000
 0.000000E+000
 0.000000E+000
 0.000000E+000
 0.000000E+000
 0.000000E+000
 0.000000E+000
 0.000000E+000
 0.000000E+000
 0.000000E+000
 0.000000E+000
 0.000000E+000
 0.000000E+000
 0.000000E+000
 0.000000E+000
 0.000000E+000
 0.000000E+000
 0.000000E+000
 0.000000E+000
 0.000000E+000
 0.000000E+000
 0.000000E+000
 0.000000E+000
 0.000000E+000
 0.000000E+000
 0.000000E+000
 0.000000E+000
 0.000000E+000
 0.000000E+000
 0.000000E+000
 0.000000E+000
 0.000000E+000
 0.000000E+000
 0.000000E+000
 0.000000E+000
 0.000000E+000
 0.000000E+000
 0.000000E+000
 0.000000E+000
 0.000000E+000
 0.000000E+000
 0.000000E+000
 0.000000E+000
 0.000000E+000
 0.000000E+000
 0.000000E+000
 0.000000E+000
 0.000000E+000
 0.000000E+000
 0.000000E+000
 0.000000E+000
 0.000000E+000
 0.000000E+000
 0.000000E+000
 0.000000E+000
 0.000000E+000
 0.000000E+000
 0.000000E+000
 0.000000E+000
 0.000000E+000
 0.000000E+000
 0.000000E+000
 0.000000E+000
 0.000000E+000
 0.000000E+000
 0.000000E+000
 0.000000E+000
 0.000000E+000
 0.000000E+000
 0.000000E+000
 0.000000E+000
 0.000000E+000
 0.000000E+000
 0.000000E+000
 0.000000E+000
 0.000000E+000
 0.000000E+000
 0.000000E+000
 0.000000E+000
 0.000000E+000
 0.000000E+000
 0.000000E+000
 0.000000E+000
 0.000000E+000
 0.000000E+000
 0.000000E+000
 0.000000E+000
 0.000000E+000
 0.000000E+000
 0.000000E+000
 0.000000E+000
 0.000000E+000
 0.000000E+000
 0.000000E+000
 0.000000E+000
 0.000000E+000
 0.000000E+000
 0.000000E+000
 0.000000E+000
 0.000000E+000
 0.000000E+000
 0.000000E+000
 0.000000E+000
 0.000000E+000
 0.000000E+000
 0.000000E+000
 0.000000E+000
 0.000000E+000
 0.000000E+000
 0.000000E+000
 0.000000E+000
 0.000000E+000
 0.000000E+000
 0.000000E+000
 0.000000E+000
 0.000000E+000
 0.000000E+000
 0.000000E+000
 0.000000E+000
 0.000000E+000
 0.000000E+000
 0.000000E+000
 0.000000E+000
 0.000000E+000
 0.000000E+000
 0.000000E+000
 0.000000E+000
 0.000000E+000
 0.000000E+000
 0.000000E+000
 0.000000E+000
 0.000000E+000
 0.000000E+000
 0.000000E+000
 0.000000E+000
 0.000000E+000
 0.000000E+000
 0.000000E+000
 0.000000E+000
 0.000000E+000
 0.000000E+000
 0.000000E+000
 0.000000E+000
 0.000000E+000
 0.000000E+000
 0.000000E+000
 0.000000E+000
 0.000000E+000
 0.000000E+000
 0.000000E+000
 0.000000E+000
 0.000000E+000
 0.000000E+000
 0.000000E+000
 0.000000E+000
 0.000000E+000
 0.000000E+000
 0.000000E+000
 0.000000E+000
 0.000000E+000
 0.000000E+000
 0.000000E+000
 0.000000E+000
 0.000000E+000
 0.000000E+000
 0.000000E+000
 0.000000E+000
 0.000000E+000
 0.000000E+000
 0.000000E+000
 0.000000E+000
 0.000000E+000
 0.000000E+000
 0.000000E+000
 0.000000E+000
 0.000000E+000
 0.000000E+000
 0.000000E+000
 0.000000E+000
 0.000000E+000
 0.000000E+000
 0.000000E+000
 0.000000E+000
 0.000000E+000
 0.000000E+000
 0.000000E+000
 0.000000E+000
 0.000000E+000
 0.000000E+000
 0.000000E+000
 0.000000E+000
 0.000000E+000
 0.000000E+000
 0.000000E+000
 0.000000E+000
 0.000000E+000
 0.000000E+000
 0.000000E+000
 0.000000E+000
 0.000000E+000
 0.000000E+000
 0.000000E+000
 0.000000E+000
 0.000000E+000
 0.000000E+000
 0.000000E+000
 0.000000E+000
 0.000000E+000
 0.000000E+000
 0.000000E+000
 0.000000E+000
 0.000000E+000
 0.000000E+000
 0.000000E+000
 0.000000E+000
 0.000000E+000
 0.000000E+000
 0.000000E+000
 0.000000E+000
 0.000000E+000
 0.000000E+000
 0.000000E+000
 0.000000E+000
 0.000000E+000
 0.000000E+000
 0.000000E+000
 0.000000E+000
 0.000000E+000
 0.000000E+000
 0.000000E+000
 0.000000E+000
 0.000000E+000
 0.000000E+000
 0.000000E+000
 0.000000E+000
 0.000000E+000
 0.000000E+000
 0.000000E+000
 0.000000E+000
 0.000000E+000
 0.000000E+000
 0.000000E+000
 0.000000E+000
 0.000000E+000
 0.000000E+000
 0.000000E+000
 0.000000E+000
 0.000000E+000
 0.000000E+000
 0.000000E+000
 0.000000E+000
 0.000000E+000
 0.000000E+000
 0.000000E+000
 0.000000E+000
 0.000000E+000
 0.000000E+000
 0.000000E+000
 0.000000E+000
 0.000000E+000
 0.000000E+000
 0.000000E+000
 0.000000E+000
 0.000000E+000
 0.000000E+000
 0.000000E+000
 0.000000E+000
 0.000000E+000
 0.000000E+000
 0.000000E+000
 0.000000E+000
 0.000000E+000
 0.000000E+000
 0.000000E+000
 0.000000E+000
 0.000000E+000
 0.000000E+000
 0.000000E+000
 0.000000E+000
 0.000000E+000
 0.000000E+000
 0.000000E+000
 0.000000E+000
 0.000000E+000
 0.000000E+000
 0.000000E+000
 0.000000E+000
 0.000000E+000
 0.000000E+000
 0.000000E+000
 0.000000E+000
 0.000000E+000
 0.000000E+000
 0.000000E+000
 0.000000E+000
 0.000000E+000
 0.000000E+000
 0.000000E+000
 0.000000E+000
 0.000000E+000
 0.000000E+000
 0.000000E+000
 0.000000E+000
 0.000000E+000
 0.000000E+000
 0.000000E+000
 0.000000E+000
 0.000000E+000
 0.000000E+000
 0.000000E+000
 0.000000E+000
 0.000000E+000
 0.000000E+000
 0.000000E+000
 0.000000E+000
 0.000000E+000
 0.000000E+000
 0.000000E+000
 0.000000E+000
 0.000000E+000
 0.000000E+000
 0.000000E+000
 0.000000E+000
 0.000000E+000
 0.000000E+000
 0.000000E+000
 0.000000E+000
 0.000000E+000
 0.000000E+000
 0.000000E+000
 0.000000E+000
 0.000000E+000
 0.000000E+000
 0.000000E+000
 0.000000E+000
 0.000000E+000
 0.000000E+000
 0.000000E+000
 0.000000E+000
 0.000000E+000
 0.000000E+000
 0.000000E+000
 0.000000E+000
 0.000000E+000
 0.000000E+000
 0.000000E+000
 0.000000E+000
 0.000000E+000
 0.000000E+000
 0.000000E+000
 0.000000E+000
 0.000000E+000
 0.000000E+000
 0.000000E+000
 0.000000E+000
 0.000000E+000
 0.000000E+000
 0.000000E+000
 0.000000E+000
 0.000000E+000
 0.000000E+000
 0.000000E+000
 0.000000E+000
 0.000000E+000
 0.000000E+000
 0.000000E+000
 0.000000E+000
 0.000000E+000
 0.000000E+000
 0.000000E+000
 0.000000E+000
 0.000000E+000
 0.000000E+000
 0.000000E+000
 0.000000E+000
 0.000000E+000
 0.000000E+000
 0.000000E+000
 0.000000E+000
 0.000000E+000
 0.000000E+000
 0.000000E+000
 0.000000E+000
 0.000000E+000
 0.000000E+000
 0.000000E+000
 0.000000E+000
 0.000000E+000
 0.000000E+000
 0.000000E+000
 0.000000E+000
 0.000000E+000
 0.000000E+000
 0.000000E+000
 0.000000E+000
 0.000000E+000
 0.000000E+000
 0.000000E+000
 0.000000E+000
 0.000000E+000
 0.000000E+000
 0.000000E+000
 0.000000E+000
 0.000000E+000
 0.000000E+000
 0.000000E+000
 0.000000E+000
 0.000000E+000
 0.000000E+000
 0.000000E+000
 0.000000E+000
 0.000000E+000
 0.000000E+000
 0.000000E+000
 0.000000E+000
 0.000000E+000
 0.000000E+000
 0.000000E+000
 0.000000E+000
 0.000000E+000
 0.000000E+000
 0.000000E+000
 0.000000E+000
 0.000000E+000
 0.000000E+000
 0.000000E+000
 0.000000E+000
 0.000000E+000
 0.000000E+000
 0.000000E+000
 0.000000E+000
 0.000000E+000
 0.000000E+000
 0.000000E+000
 0.000000E+000
 0.000000E+000
 0.000000E+000
 0.000000E+000
 0.000000E+000
 0.000000E+000
 0.000000E+000
 0.000000E+000
 0.000000E+000
 0.000000E+000
 0.000000E+000
 0.000000E+000
 0.000000E+000
 0.000000E+000
 0.000000E+000
 0.000000E+000
 0.000000E+000
 0.000000E+000
 0.000000E+000
 0.000000E+000
 0.000000E+000
 0.000000E+000
 0.000000E+000
 0.000000E+000
 0.000000E+000
 0.000000E+000
 0.000000E+000
 0.000000E+000
 0.000000E+000
 0.000000E+000
 0.000000E+000
 0.000000E+000
 0.000000E+000
 0.000000E+000
 0.000000E+000
 0.000000E+000
 0.000000E+000
 0.000000E+000
 0.000000E+000
 0.000000E+000
 0.000000E+000
 0.000000E+000
 0.000000E+000
 0.000000E+000
 0.000000E+000
 0.000000E+000
 0.000000E+000
 0.000000E+000
 0.000000E+000
 0.000000E+000
 0.000000E+000
 0.000000E+000
 0.000000E+000
 0.000000E+000
 0.000000E+000
 0.000000E+000
 0.000000E+000
 0.000000E+000
 0.000000E+000
 0.000000E+000
 0.000000E+000
 0.000000E+000
 0.000000E+000
 0.000000E+000
 0.000000E+000
 0.000000E+000
 0.000000E+000
 0.000000E+000
 0.000000E+000
 0.000000E+000
 0.000000E+000
 0.000000E+000
 0.000000E+000
 0.000000E+000
 0.000000E+000
 0.000000E+000
 0.000000E+000
 0.000000E+000
 0.000000E+000
 0.000000E+000
 0.000000E+000
 0.000000E+000
 0.000000E+000
 0.000000E+000
 0.000000E+000
 0.000000E+000
 0.000000E+000
 0.000000E+000
 0.000000E+000
 0.000000E+000
 0.000000E+000
 0.000000E+000
 0.000000E+000
 0.000000E+000
 0.000000E+000
 0.000000E+000
 0.000000E+000
 0.000000E+000
 0.000000E+000
 0.000000E+000
 0.000000E+000
 0.000000E+000
 0.000000E+000
 0.000000E+000
 0.000000E+000
 0.000000E+000
 0.000000E+000
 0.000000E+000
 0.000000E+000
 0.000000E+000
 0.000000E+000
 0.000000E+000
 0.000000E+000
 0.000000E+000
 0.000000E+000
 0.000000E+000
 0.000000E+000
 0.000000E+000
 0.000000E+000
 0.000000E+000
 0.000000E+000
 0.000000E+000
 0.000000E+000
 0.000000E+000
 0.000000E+000
 0.000000E+000
 0.000000E+000
 0.000000E+000
 0.000000E+000
 0.000000E+000
 0.000000E+000
 0.000000E+000
 0.000000E+000
 0.000000E+000
 0.000000E+000
 0.000000E+000
 0.000000E+000
 0.000000E+000
 0.000000E+000
 0.000000E+000
 0.000000E+000
 0.000000E+000
 0.000000E+000
 0.000000E+000
 0.000000E+000
 0.000000E+000
 0.000000E+000
 0.000000E+000
 0.000000E+000
 0.000000E+000
 0.000000E+000
 0.000000E+000
 0.000000E+000
 0.000000E+000
 0.000000E+000
 0.000000E+000
 0.000000E+000
 0.000000E+000
 0.000000E+000
 0.000000E+000
 0.000000E+000
 0.000000E+000
 0.000000E+000
 0.000000E+000
 0.000000E+000
 0.000000E+000
 0.000000E+000
 0.000000E+000
 0.000000E+000
 0.000000E+000
 0.000000E+000
 0.000000E+000
 0.000000E+000
 0.000000E+000
 0.000000E+000
 0.000000E+000
 0.000000E+000
 0.000000E+000
 0.000000E+000
 0.000000E+000
 0.000000E+000
 0.000000E+000
 0.000000E+000
 0.000000E+000
 0.000000E+000
 0.000000E+000
 0.000000E+000
 0.000000E+000
 0.000000E+000
 0.000000E+000
 0.000000E+000
 0.000000E+000
 0.000000E+000
 0.000000E+000
 0.000000E+000
 0.000000E+000
 0.000000E+000
 0.000000E+000
 0.000000E+000
 0.000000E+000
 0.000000E+000
 0.000000E+000
 0.000000E+000
 0.000000E+000
 0.000000E+000
 0.000000E+000
 0.000000E+000
 0.000000E+000
 0.000000E+000
 0.000000E+000
 0.000000E+000
 0.000000E+000
 0.000000E+000
 0.000000E+000
 0.000000E+000
 0.000000E+000
 0.000000E+000
 0.000000E+000
 0.000000E+000
 0.000000E+000
 0.000000E+000
 0.000000E+000
 0.000000E+000
 0.000000E+000
 0.000000E+000
 0.000000E+000
 0.000000E+000
 0.000000E+000
 0.000000E+000
 0.000000E+000
 0.000000E+000
 0.000000E+000
 0.000000E+000
 0.000000E+000
 0.000000E+000
 0.000000E+000
 0.000000E+000
 0.000000E+000
 0.000000E+000
 0.000000E+000
 0.000000E+000
 0.000000E+000
 0.000000E+000
 0.000000E+000
 0.000000E+000
 0.000000E+000
 0.000000E+000
 0.000000E+000
 0.000000E+000
 0.000000E+000
 0.000000E+000
 0.000000E+000
 0.000000E+000
 0.000000E+000
 0.000000E+000
 0.000000E+000
 0.000000E+000
 0.000000E+000
 0.000000E+000
 0.000000E+000
 0.000000E+000
 0.000000E+000
 0.000000E+000
 0.000000E+000
 0.000000E+000
 0.000000E+000
 0.000000E+000
 0.000000E+000
 0.000000E+000
 0.000000E+000
 0.000000E+000
 0.000000E+000
 0.000000E+000
 0.000000E+000
 0.000000E+000
 0.000000E+000
 0.000000E+000
 0.000000E+000
 0.000000E+000
 0.000000E+000
 0.000000E+000
 0.000000E+000
 0.000000E+000
 0.000000E+000
 0.000000E+000
 0.000000E+000
 0.000000E+000
 0.000000E+000
 0.000000E+000
 0.000000E+000
 0.000000E+000
 0.000000E+000
 0.000000E+000
 0.000000E+000
 0.000000E+000
 0.000000E+000
 0.000000E+000
 0.000000E+000
 0.000000E+000
 0.000000E+000
 0.000000E+000
 0.000000E+000
 0.000000E+000
 0.000000E+000
 0.000000E+000
 0.000000E+000
 0.000000E+000
 0.000000E+000
 0.000000E+000
 0.000000E+000
 0.000000E+000
 0.000000E+000
 0.000000E+000
 0.000000E+000
 0.000000E+000
 0.000000E+000
 0.000000E+000
 0.000000E+000
 0.000000E+000
 0.000000E+000
 0.000000E+000
 0.000000E+000
 0.000000E+000
 0.000000E+000
 0.000000E+000
 0.000000E+000
 0.000000E+000
 0.000000E+000
 0.000000E+000
 0.000000E+000
 0.000000E+000
 0.000000E+000
 0.000000E+000
 0.000000E+000
 0.000000E+000
 0.000000E+000
 0.000000E+000
 0.000000E+000
 0.000000E+000
 0.000000E+000
 0.000000E+000
 0.000000E+000
 0.000000E+000
 0.000000E+000
 0.000000E+000
 0.000000E+000
 0.000000E+000
 0.000000E+000
 0.000000E+000
 0.000000E+000
 0.000000E+000
 0.000000E+000
 0.000000E+000
 0.000000E+000
 0.000000E+000
 0.000000E+000
 0.000000E+000
 0.000000E+000
 0.000000E+000
 0.000000E+000
 0.000000E+000
 0.000000E+000
 0.000000E+000
 0.000000E+000
 0.000000E+000
 0.000000E+000
 0.000000E+000
 0.000000E+000
 0.000000E+000
 0.000000E+000
 0.000000E+000
 0.000000E+000
 0.000000E+000
 0.000000E+000
 0.000000E+000
 0.000000E+000
 0.000000E+000
 0.000000E+000
 0.000000E+000
 0.000000E+000
 0.000000E+000
 0.000000E+000
 0.000000E+000
 0.000000E+000
 0.000000E+000
 0.000000E+000
 0.000000E+000
 0.000000E+000
 0.000000E+000
 0.000000E+000
 0.000000E+000
 0.000000E+000
 0.000000E+000
 0.000000E+000
 0.000000E+000
 0.000000E+000
 0.000000E+000
 0.000000E+000
 0.000000E+000
 0.000000E+000
 0.000000E+000
 0.000000E+000
 0.000000E+000
 0.000000E+000
 0.000000E+000
 0.000000E+000
 0.000000E+000
 0.000000E+000
 0.000000E+000
 0.000000E+000
 0.000000E+000
 0.000000E+000
 0.000000E+000
 0.000000E+000
 0.000000E+000
 0.000000E+000
 0.000000E+000
 0.000000E+000
 0.000000E+000
 0.000000E+000
 0.000000E+000
 0.000000E+000
 0.000000E+000
 0.000000E+000
 0.000000E+000
 0.000000E+000
 0.000000E+000
 0.000000E+000
 0.000000E+000
 0.000000E+000
 0.000000E+000
 0.000000E+000
 0.000000E+000
 0.000000E+000
 0.000000E+000
 0.000000E+000
 0.000000E+000
 0.000000E+000
 0.000000E+000
 0.000000E+000
 0.000000E+000
 0.000000E+000
 0.000000E+000
 0.000000E+000
 0.000000E+000
 0.000000E+000
 0.000000E+000
 0.000000E+000
 0.000000E+000
 0.000000E+000
 0.000000E+000
 0.000000E+000
 0.000000E+000
 0.000000E+000
 0.000000E+000
 0.000000E+000
 0.000000E+000
 0.000000E+000
 0.000000E+000
 0.000000E+000
 0.000000E+000
 0.000000E+000
 0.000000E+000
 0.000000E+000
 0.000000E+000
 0.000000E+000
 0.000000E+000
 0.000000E+000
 0.000000E+000
 0.000000E+000
 0.000000E+000
 0.000000E+000
 0.000000E+000
 0.000000E+000
 0.000000E+000
 0.000000E+000
 0.000000E+000
 0.000000E+000
 0.000000E+000
 0.000000E+000
 0.000000E+000
 0.000000E+000
 0.000000E+000
 0.000000E+000
 0.000000E+000
 0.000000E+000
 0.000000E+000
 0.000000E+000
 0.000000E+000
 0.000000E+000
 0.000000E+000
 0.000000E+000
 0.000000E+000
 0.000000E+000
 0.000000E+000
 0.000000E+000
 0.000000E+000
 0.000000E+000
 0.000000E+000
 0.000000E+000
 0.000000E+000
 0.000000E+000
 0.000000E+000
 0.000000E+000
 0.000000E+000
 0.000000E+000
 0.000000E+000
 0.000000E+000
 0.000000E+000
 0.000000E+000
 0.000000E+000
 0.000000E+000
 0.000000E+000
 0.000000E+000
 0.000000E+000
 0.000000E+000
 0.000000E+000
 0.000000E+000
 0.000000E+000
 0.000000E+000
 0.000000E+000
 0.000000E+000
 0.000000E+000
 0.000000E+000
 0.000000E+000
 0.000000E+000
 0.000000E+000
 0.000000E+000
 0.000000E+000
 0.000000E+000
 0.000000E+000
 0.000000E+000
 0.000000E+000
 0.000000E+000
 0.000000E+000
 0.000000E+000
 0.000000E+000
 0.000000E+000
 0.000000E+000
 0.000000E+000
 0.000000E+000
 0.000000E+000
 0.000000E+000
 0.000000E+000
 0.000000E+000
 0.000000E+000
 0.000000E+000
 0.000000E+000
 0.000000E+000
 0.000000E+000
 0.000000E+000
 0.000000E+000
 0.000000E+000
 0.000000E+000
 0.000000E+000
 0.000000E+000
 0.000000E+000
 0.000000E+000
 0.000000E+000
 0.000000E+000
 0.000000E+000
 0.000000E+000
 0.000000E+000
 0.000000E+000
 0.000000E+000
 0.000000E+000
 0.000000E+000
 0.000000E+000
 0.000000E+000
 0.000000E+000
 0.000000E+000
 0.000000E+000
 0.000000E+000
 0.000000E+000
 0.000000E+000
 0.000000E+000
 0.000000E+000
 0.000000E+000
 0.000000E+000
 0.000000E+000
 0.000000E+000
 0.000000E+000
 0.000000E+000
 0.000000E+000
 0.000000E+000
 0.000000E+000
 0.000000E+000
 0.000000E+000
 0.000000E+000
 0.000000E+000
 0.000000E+000
 0.000000E+000
 0.000000E+000
 0.000000E+000
 0.000000E+000
 0.000000E+000
 0.000000E+000
 0.000000E+000
 0.000000E+000
 0.000000E+000
 0.000000E+000
 0.000000E+000
 0.000000E+000
 0.000000E+000
 0.000000E+000
 0.000000E+000
 0.000000E+000
 0.000000E+000
 0.000000E+000
 0.000000E+000
 0.000000E+000
 0.000000E+000
 0.000000E+000
 0.000000E+000
 0.000000E+000
 0.000000E+000
 0.000000E+000
 0.000000E+000
 0.000000E+000
 0.000000E+000
 0.000000E+000
 0.000000E+000
 0.000000E+000
 0.000000E+000
 0.000000E+000
 0.000000E+000
 0.000000E+000
 0.000000E+000
 0.000000E+000
 0.000000E+000
 0.000000E+000
 0.000000E+000
 0.000000E+000
 0.000000E+000
 0.000000E+000
 0.000000E+000
 0.000000E+000
 0.000000E+000
 0.000000E+000
 0.000000E+000
 0.000000E+000
 0.000000E+000
 0.000000E+000
 0.000000E+000
 0.000000E+000
 0.000000E+000
 0.000000E+000
 0.000000E+000
 0.000000E+000
 0.000000E+000
 0.000000E+000
 0.000000E+000
 0.000000E+000
 0.000000E+000
 0.000000E+000
 0.000000E+000
 0.000000E+000
 0.000000E+000
 0.000000E+000
 0.000000E+000
 0.000000E+000
 0.000000E+000
 0.000000E+000
 0.000000E+000
 0.000000E+000
 0.000000E+000
 0.000000E+000
 0.000000E+000
 0.000000E+000
 0.000000E+000
 0.000000E+000
 0.000000E+000
 0.000000E+000
 0.000000E+000
 0.000000E+000
 0.000000E+000
 0.000000E+000
 0.000000E+000
 0.000000E+000
 0.000000E+000
 0.000000E+000
 0.000000E+000
 0.000000E+000
 0.000000E+000
 0.000000E+000
 0.000000E+000
 0.000000E+000
 0.000000E+000
 0.000000E+000
 0.000000E+000
 0.000000E+000
 0.000000E+000
 0.000000E+000
 0.000000E+000
 0.000000E+000
 0.000000E+000
 0.000000E+000
 0.000000E+000
 0.000000E+000
 0.000000E+000
 0.000000E+000
 0.000000E+000
 0.000000E+000
 0.000000E+000
 0.000000E+000
 0.000000E+000
 0.000000E+000
 0.000000E+000
 0.000000E+000
 0.000000E+000
 0.000000E+000
 0.000000E+000
 0.000000E+000
 0.000000E+000
 0.000000E+000
 0.000000E+000
 0.000000E+000
 0.000000E+000
 0.000000E+000
 0.000000E+000
 0.000000E+000
 0.000000E+000
 0.000000E+000
 0.000000E+000
 0.000000E+000
 0.000000E+000
 0.000000E+000
 0.000000E+000
 0.000000E+000
 0.000000E+000
 0.000000E+000
 0.000000E+000
 0.000000E+000
 0.000000E+000
 0.000000E+000
 0.000000E+000
 0.000000E+000
 0.000000E+000
 0.000000E+000
 0.000000E+000
 0.000000E+000
 0.000000E+000
 0.000000E+000
 0.000000E+000
 0.000000E+000
 0.000000E+000
 0.000000E+000
 0.000000E+000
 0.000000E+000
 0.000000E+000
 0.000000E+000
 0.000000E+000
 0.000000E+000
 0.000000E+000
 0.000000E+000
 0.000000E+000
 0.000000E+000
 0.000000E+000
 0.000000E+000
 0.000000E+000
 0.000000E+000
 0.000000E+000
 0.000000E+000
 0.000000E+000
 0.000000E+000
 0.000000E+000
 0.000000E+000
 0.000000E+000
 0.000000E+000
 0.000000E+000
 0.000000E+000
 0.000000E+000
 0.000000E+000
 0.000000E+000
 0.000000E+000
 0.000000E+000
 0.000000E+000
 0.000000E+000
 0.000000E+000
 0.000000E+000
 0.000000E+000
 0.000000E+000
 0.000000E+000
 0.000000E+000
 0.000000E+000
 0.000000E+000
 0.000000E+000
 0.000000E+000
 0.000000E+000
 0.000000E+000
 0.000000E+000
 0.000000E+000
 0.000000E+000
 0.000000E+000
 0.000000E+000
 0.000000E+000
 0.000000E+000
 0.000000E+000
 0.000000E+000
 0.000000E+000
 0.000000E+000
 0.000000E+000
 0.000000E+000
 0.000000E+000
 0.000000E+000
 0.000000E+000
 0.000000E+000
 0.000000E+000
 0.000000E+000
 0.000000E+000
 0.000000E+000
 0.000000E+000
 0.000000E+000
 0.000000E+000
 0.000000E+000
 0.000000E+000
 0.000000E+000
 0.000000E+000
 0.000000E+000
 0.000000E+000
 0.000000E+000
 0.000000E+000
 0.000000E+000
 0.000000E+000
 0.000000E+000
 0.000000E+000
 0.000000E+000
 0.000000E+000
 0.000000E+000
 0.000000E+000
 0.000000E+000
 0.000000E+000
 0.000000E+000
 0.000000E+000
 0.000000E+000
 0.000000E+000
 0.000000E+000
 0.000000E+000
 0.000000E+000
 0.000000E+000
 0.000000E+000
 0.000000E+000
 0.000000E+000
 0.000000E+000
 0.000000E+000
 0.000000E+000
 0.000000E+000
 0.000000E+000
 0.000000E+000
 0.000000E+000
 0.000000E+000
 0.000000E+000
 0.000000E+000
 0.000000E+000
 0.000000E+000
 0.000000E+000
 0.000000E+000
 0.000000E+000
 0.000000E+000
 0.000000E+000
 0.000000E+000
 0.000000E+000
 0.000000E+000
 0.000000E+000
 0.000000E+000
 0.000000E+000
 0.000000E+000
 0.000000E+000
 0.000000E+000
 0.000000E+000
 0.000000E+000
 0.000000E+000
 0.000000E+000
 0.000000E+000
 0.000000E+000
 0.000000E+000
 0.000000E+000
 0.000000E+000
 0.000000E+000
 0.000000E+000
 0.000000E+000
 0.000000E+000
 0.000000E+000
 0.000000E+000
 0.000000E+000
 0.000000E+000
 0.000000E+000
 0.000000E+000
 0.000000E+000
 0.000000E+000
 0.000000E+000
 0.000000E+000
 0.000000E+000
 0.000000E+000
 0.000000E+000
 0.000000E+000
 0.000000E+000
 0.000000E+000
 0.000000E+000
 0.000000E+000
 0.000000E+000
 0.000000E+000
 0.000000E+000
 0.000000E+000
 0.000000E+000
 0.000000E+000
 0.000000E+000
 0.000000E+000
 0.000000E+000
 0.000000E+000
 0.000000E+000
 0.000000E+000
 0.000000E+000
 0.000000E+000
 0.000000E+000
 0.000000E+000
 0.000000E+000
 0.000000E+000
 0.000000E+000
 0.000000E+000
 0.000000E+000
 0.000000E+000
 0.000000E+000
 0.000000E+000
 0.000000E+000
 0.000000E+000
 0.000000E+000
 0.000000E+000
 0.000000E+000
 0.000000E+000
 0.000000E+000
 0.000000E+000
 0.000000E+000
 0.000000E+000
 0.000000E+000
 0.000000E+000
 0.000000E+000
 0.000000E+000
 0.000000E+000
 0.000000E+000
 0.000000E+000
 0.000000E+000
 0.000000E+000
 0.000000E+000
 0.000000E+000
 0.000000E+000
 0.000000E+000
 0.000000E+000
 0.000000E+000
 0.000000E+000
 0.000000E+000
 0.000000E+000
 0.000000E+000
 0.000000E+000
 0.000000E+000
 0.000000E+000
 0.000000E+000
 0.000000E+000
 0.000000E+000
 0.000000E+000
 0.000000E+000
 0.000000E+000
 0.000000E+000
 0.000000E+000
 0.000000E+000
 0.000000E+000
 0.000000E+000
 0.000000E+000
 0.000000E+000
 0.000000E+000
 0.000000E+000
 0.000000E+000
 0.000000E+000
 0.000000E+000
 0.000000E+000
 0.000000E+000
 0.000000E+000
 0.000000E+000
 0.000000E+000
 0.000000E+000
 0.000000E+000
 0.000000E+000
 0.000000E+000
 0.000000E+000
 0.000000E+000
 0.000000E+000
 0.000000E+000
 0.000000E+000
 0.000000E+000
 0.000000E+000
 0.000000E+000
 0.000000E+000
 0.000000E+000
 0.000000E+000
 0.000000E+000
 0.000000E+000
 0.000000E+000
 0.000000E+000
 0.000000E+000
 0.000000E+000
 0.000000E+000
 0.000000E+000
 0.000000E+000
 0.000000E+000
 0.000000E+000
 0.000000E+000
 0.000000E+000
 0.000000E+000
 0.000000E+000
 0.000000E+000
 0.000000E+000
 0.000000E+000
 0.000000E+000
 0.000000E+000
 0.000000E+000
 0.000000E+000
 0.000000E+000
 0.000000E+000
 0.000000E+000
 0.000000E+000
 0.000000E+000
 0.000000E+000
 0.000000E+000
 0.000000E+000
 0.000000E+000
 0.000000E+000
 0.000000E+000
 0.000000E+000
 0.000000E+000
 0.000000E+000
 0.000000E+000
 0.000000E+000
 0.000000E+000
 0.000000E+000
 0.000000E+000
 0.000000E+000
 0.000000E+000
 0.000000E+000
 0.000000E+000
 0.000000E+000
 0.000000E+000
 0.000000E+000
 0.000000E+000
 0.000000E+000
 0.000000E+000
 0.000000E+000
 0.000000E+000
 0.000000E+000
 0.000000E+000
 0.000000E+000
 0.000000E+000
 0.000000E+000
 0.000000E+000
 0.000000E+000
 0.000000E+000
 0.000000E+000
 0.000000E+000
 0.000000E+000
 0.000000E+000
 0.000000E+000
 0.000000E+000
 0.000000E+000
 0.000000E+000
 0.000000E+000
 0.000000E+000
 0.000000E+000
 0.000000E+000
 0.000000E+000
 0.000000E+000
 0.000000E+000
 0.000000E+000
 0.000000E+000
 0.000000E+000
 0.000000E+000
 0.000000E+000
 0.000000E+000
 0.000000E+000
 0.000000E+000
 0.000000E+000
 0.000000E+000
 0.000000E+000
 0.000000E+000
 0.000000E+000
 0.000000E+000
 0.000000E+000
 0.000000E+000
 0.000000E+000
 0.000000E+000
 0.000000E+000
 0.000000E+000
 0.000000E+000
 0.000000E+000
 0.000000E+000
 0.000000E+000
 0.000000E+000
 0.000000E+000
 0.000000E+000
 0.000000E+000
 0.000000E+000
 0.000000E+000
 0.000000E+000
 0.000000E+000
 0.000000E+000
 0.000000E+000
 0.000000E+000
 0.000000E+000
 0.000000E+000
 0.000000E+000
 0.000000E+000
 0.000000E+000
 0.000000E+000
 0.000000E+000
 0.000000E+000
 0.000000E+000
 0.000000E+000
 0.000000E+000
 0.000000E+000
 0.000000E+000
 0.000000E+000
 0.000000E+000
 0.000000E+000
 0.000000E+000
 0.000000E+000
 0.000000E+000
 0.000000E+000
 0.000000E+000
 0.000000E+000
 0.000000E+000
 0.000000E+000
 0.000000E+000
 0.000000E+000
 0.000000E+000
 0.000000E+000
 0.000000E+000
 0.000000E+000
 0.000000E+000
 0.000000E+000
 0.000000E+000
 0.000000E+000
 0.000000E+000
 0.000000E+000
 0.000000E+000
 0.000000E+000
 0.000000E+000
 0.000000E+000
 0.000000E+000
 0.000000E+000
 0.000000E+000
 0.000000E+000
 0.000000E+000
 0.000000E+000
 0.000000E+000
 0.000000E+000
 0.000000E+000
 0.000000E+000
 0.000000E+000
 0.000000E+000
 0.000000E+000
 0.000000E+000
 0.000000E+000
 0.000000E+000
 0.000000E+000
 0.000000E+000
 0.000000E+000
 0.000000E+000
 0.000000E+000
 0.000000E+000
 0.000000E+000
 0.000000E+000
 0.000000E+000
 0.000000E+000
 0.000000E+000
 0.000000E+000
 0.000000E+000
 0.000000E+000
 0.000000E+000
 0.000000E+000
 0.000000E+000
 0.000000E+000
 0.000000E+000
 0.000000E+000
 0.000000E+000
 0.000000E+000
 0.000000E+000
 0.000000E+000
 0.000000E+000
 0.000000E+000
 0.000000E+000
 0.000000E+000
 0.000000E+000
 0.000000E+000
 0.000000E+000
 0.000000E+000
 0.000000E+000
 0.000000E+000
 0.000000E+000
 0.000000E+000
 0.000000E+000
 0.000000E+000
 0.000000E+000
 0.000000E+000
 0.000000E+000
 0.000000E+000
 0.000000E+000
 0.000000E+000
 0.000000E+000
 0.000000E+000
 0.000000E+000
 0.000000E+000
 0.000000E+000
 0.000000E+000
 0.000000E+000
 0.000000E+000
 0.000000E+000
 0.000000E+000
 0.000000E+000
 0.000000E+000
 0.000000E+000
 0.000000E+000
 0.000000E+000
 0.000000E+000
 0.000000E+000
 0.000000E+000
 0.000000E+000
 0.000000E+000
 0.000000E+000
 0.000000E+000
 0.000000E+000
 0.000000E+000
 0.000000E+000
 0.000000E+000
 0.000000E+000
 0.000000E+000
 0.000000E+000
 0.000000E+000
 0.000000E+000
 0.000000E+000
 0.000000E+000
 0.000000E+000
 0.000000E+000
 0.000000E+000
 0.000000E+000
 0.000000E+000
 0.000000E+000
 0.000000E+000
 0.000000E+000
 0.000000E+000
 0.000000E+000
 0.000000E+000
 0.000000E+000
 0.000000E+000
 0.000000E+000
 0.000000E+000
 0.000000E+000
 0.000000E+000
 0.000000E+000
 0.000000E+000
 0.000000E+000
 0.000000E+000
 0.000000E+000
 0.000000E+000
 0.000000E+000
 0.000000E+000
 0.000000E+000
 0.000000E+000
 0.000000E+000
 0.000000E+000
 0.000000E+000
 0.000000E+000
 0.000000E+000
 0.000000E+000
 0.000000E+000
 0.000000E+000
 0.000000E+000
 0.000000E+000
 0.000000E+000
 0.000000E+000
 0.000000E+000
 0.000000E+000
 0.000000E+000
 0.000000E+000
 0.000000E+000
 0.000000E+000
 0.000000E+000
 0.000000E+000
 0.000000E+000
 0.000000E+000
 0.000000E+000
 0.000000E+000
 0.000000E+000
 0.000000E+000
 0.000000E+000
 0.000000E+000
 0.000000E+000
 0.000000E+000
 0.000000E+000
 0.000000E+000
 0.000000E+000
 0.000000E+000
 0.000000E+000
 0.000000E+000
 0.000000E+000
 0.000000E+000
 0.000000E+000
 0.000000E+000
 0.000000E+000
 0.000000E+000
 0.000000E+000
 0.000000E+000
 0.000000E+000
 0.000000E+000
 0.000000E+000
 0.000000E+000
 0.000000E+000
 0.000000E+000
 0.000000E+000
 0.000000E+000
 0.000000E+000
 0.000000E+000
 0.000000E+000
 0.000000E+000
 0.000000E+000
 0.000000E+000
 0.000000E+000
 0.000000E+000
 0.000000E+000
 0.000000E+000
 0.000000E+000
 0.000000E+000
 0.000000E+000
 0.000000E+000
 0.000000E+000
 0.000000E+000
 0.000000E+000
 0.000000E+000
 0.000000E+000
 0.000000E+000
 0.000000E+000
 0.000000E+000
 0.000000E+000
 0.000000E+000
 0.000000E+000
 0.000000E+000
 0.000000E+000
 0.000000E+000
 0.000000E+000
 0.000000E+000
 0.000000E+000
 0.000000E+000
 0.000000E+000
 0.000000E+000
 0.000000E+000
 0.000000E+000
 0.000000E+000
 0.000000E+000
 0.000000E+000
 0.000000E+000
 0.000000E+000
 0.000000E+000
 0.000000E+000
 0.000000E+000
 0.000000E+000
 0.000000E+000
 0.000000E+000
 0.000000E+000
 0.000000E+000
 0.000000E+000
 0.000000E+000
 0.000000E+000
 0.000000E+000
 0.000000E+000
 0.000000E+000
 0.000000E+000
 0.000000E+000
 0.000000E+000
 0.000000E+000
 0.000000E+000
 0.000000E+000
 0.000000E+000
 0.000000E+000
 0.000000E+000
 0.000000E+000
 0.000000E+000
 0.000000E+000
 0.000000E+000
 0.000000E+000
 0.000000E+000
 0.000000E+000
 0.000000E+000
 0.000000E+000
 0.000000E+000
 0.000000E+000
 0.000000E+000
 0.000000E+000
 0.000000E+000
 0.000000E+000
 0.000000E+000
 0.000000E+000
 0.000000E+000
 0.000000E+000
 0.000000E+000
 0.000000E+000
 0.000000E+000
 0.000000E+000
 0.000000E+000
 0.000000E+000
 0.000000E+000
 0.000000E+000
 0.000000E+000
 0.000000E+000
 0.000000E+000
 0.000000E+000
 0.000000E+000
 0.000000E+000
 0.000000E+000
 0.000000E+000
 0.000000E+000
 0.000000E+000
 0.000000E+000
 0.000000E+000
 0.000000E+000
 0.000000E+000
 0.000000E+000
 0.000000E+000
 0.000000E+000
 0.000000E+000
 0.000000E+000
 0.000000E+000
 0.000000E+000
 0.000000E+000
 0.000000E+000
 0.000000E+000
 0.000000E+000
 0.000000E+000
 0.000000E+000
 0.000000E+000
 0.000000E+000
 0.000000E+000
 0.000000E+000
 0.000000E+000
 0.000000E+000
 0.000000E+000
 0.000000E+000
 0.000000E+000
 0.000000E+000
 0.000000E+000
 0.000000E+000
 0.000000E+000
 0.000000E+000
 0.000000E+000
 0.000000E+000
 0.000000E+000
 0.000000E+000
 0.000000E+000
 0.000000E+000
 0.000000E+000
 0.000000E+000
 0.000000E+000
 0.000000E+000
 0.000000E+000
 0.000000E+000
 0.000000E+000
 0.000000E+000
 0.000000E+000
 0.000000E+000
 0.000000E+000
 0.000000E+000
 0.000000E+000
 0.000000E+000
 0.000000E+000
 0.000000E+000
 0.000000E+000
 0.000000E+000
 0.000000E+000
 0.000000E+000
 0.000000E+000
 0.000000E+000
 0.000000E+000
 0.000000E+000
 0.000000E+000
 0.000000E+000
 0.000000E+000
 0.000000E+000
 0.000000E+000
 0.000000E+000
 0.000000E+000
 0.000000E+000
 0.000000E+000
 0.000000E+000
 0.000000E+000
 0.000000E+000
 0.000000E+000
 0.000000E+000
 0.000000E+000
 0.000000E+000
 0.000000E+000
 0.000000E+000
 0.000000E+000
 0.000000E+000
 0.000000E+000
 0.000000E+000
 0.000000E+000
 0.000000E+000
 0.000000E+000
 0.000000E+000
 0.000000E+000
 0.000000E+000
 0.000000E+000
 0.000000E+000
 0.000000E+000
 0.000000E+000
 0.000000E+000
 0.000000E+000
 0.000000E+000
 0.000000E+000
 0.000000E+000
 0.000000E+000
 0.000000E+000
 0.000000E+000
 0.000000E+000
 0.000000E+000
 0.000000E+000
 0.000000E+000
 0.000000E+000
 0.000000E+000
 0.000000E+000
 0.000000E+000
 0.000000E+000
 0.000000E+000
 0.000000E+000
 0.000000E+000
 0.000000E+000
 0.000000E+000
 0.000000E+000
 0.000000E+000
 0.000000E+000
 0.000000E+000
 0.000000E+000
 0.000000E+000
 0.000000E+000
 0.000000E+000
 0.000000E+000
 0.000000E+000
 0.000000E+000
 0.000000E+000
 0.000000E+000
 0.000000E+000
 0.000000E+000
 0.000000E+000
 0.000000E+000
 0.000000E+000
 0.000000E+000
 0.000000E+000
 0.000000E+000
 0.000000E+000
 0.000000E+000
 0.000000E+000
 0.000000E+000
 0.000000E+000
 0.000000E+000
 0.000000E+000
 0.000000E+000
 0.000000E+000
 0.000000E+000
 0.000000E+000
 0.000000E+000
 0.000000E+000
 0.000000E+000
 0.000000E+000
 0.000000E+000
 0.000000E+000
 0.000000E+000
 0.000000E+000
 0.000000E+000
 0.000000E+000
 0.000000E+000
 0.000000E+000
 0.000000E+000
 0.000000E+000
 0.000000E+000
 0.000000E+000
 0.000000E+000
 0.000000E+000
 0.000000E+000
 0.000000E+000
 0.000000E+000
 0.000000E+000
 0.000000E+000
 0.000000E+000
 0.000000E+000
 0.000000E+000
 0.000000E+000
 0.000000E+000
 0.000000E+000
 0.000000E+000
 0.000000E+000
 0.000000E+000
 0.000000E+000
 0.000000E+000
 0.000000E+000
 0.000000E+000
 0.000000E+000
 0.000000E+000
 0.000000E+000
 0.000000E+000
 0.000000E+000
 0.000000E+000
 0.000000E+000
 0.000000E+000
 0.000000E+000
 0.000000E+000
 0.000000E+000
 0.000000E+000
 0.000000E+000
 0.000000E+000
 0.000000E+000
 0.000000E+000
 0.000000E+000
 0.000000E+000
 0.000000E+000
 0.000000E+000
 0.000000E+000
 0.000000E+000
 0.000000E+000
 0.000000E+000
 0.000000E+000
 0.000000E+000
 0.000000E+000
 0.000000E+000
 0.000000E+000
 0.000000E+000
 0.000000E+000
 0.000000E+000
 0.000000E+000
 0.000000E+000
 0.000000E+000
 0.000000E+000
 0.000000E+000
 0.000000E+000
 0.000000E+000
 0.000000E+000
 0.000000E+000
 0.000000E+000
 0.000000E+000
 0.000000E+000
 0.000000E+000
 0.000000E+000
 0.000000E+000
 0.000000E+000
 0.000000E+000
 0.000000E+000
 0.000000E+000
 0.000000E+000
 0.000000E+000
 0.000000E+000
 0.000000E+000
 0.000000E+000
 0.000000E+000
 0.000000E+000
 0.000000E+000
 0.000000E+000
 0.000000E+000
 0.000000E+000
 0.000000E+000
 0.000000E+000
 0.000000E+000
 0.000000E+000
 0.000000E+000
 0.000000E+000
 0.000000E+000
 0.000000E+000
 0.000000E+000
 0.000000E+000
 0.000000E+000
 0.000000E+000
 0.000000E+000
 0.000000E+000
 0.000000E+000
 0.000000E+000
 0.000000E+000
 0.000000E+000
 0.000000E+000
 0.000000E+000
 0.000000E+000
 0.000000E+000
 0.000000E+000
 0.000000E+000
 0.000000E+000
 0.000000E+000
 0.000000E+000
 0.000000E+000
 0.000000E+000
 0.000000E+000
 0.000000E+000
 0.000000E+000
 0.000000E+000
 0.000000E+000
 0.000000E+000
 0.000000E+000
 0.000000E+000
 0.000000E+000
 0.000000E+000
 0.000000E+000
 0.000000E+000
 0.000000E+000
 0.000000E+000
 0.000000E+000
 0.000000E+000
 0.000000E+000
 0.000000E+000
 0.000000E+000
 0.000000E+000
 0.000000E+000
 0.000000E+000
 0.000000E+000
 0.000000E+000
 0.000000E+000
 0.000000E+000
 0.000000E+000
 0.000000E+000
 0.000000E+000
 0.000000E+000
 0.000000E+000
 0.000000E+000
 0.000000E+000
 0.000000E+000
 0.000000E+000
 0.000000E+000
 0.000000E+000
 0.000000E+000
 0.000000E+000
 0.000000E+000
 0.000000E+000
 0.000000E+000
 0.000000E+000
 0.000000E+000
 0.000000E+000
 0.000000E+000
 0.000000E+000
 0.000000E+000
 0.000000E+000
 0.000000E+000
 0.000000E+000
 0.000000E+000
 0.000000E+000
 0.000000E+000
 0.000000E+000
 0.000000E+000
 0.000000E+000
 0.000000E+000
 0.000000E+000
 0.000000E+000
 0.000000E+000
 0.000000E+000
 0.000000E+000
 0.000000E+000
 0.000000E+000
 0.000000E+000
 0.000000E+000
 0.000000E+000
 0.000000E+000
 0.000000E+000
 0.000000E+000
 0.000000E+000
 0.000000E+000
 0.000000E+000
 0.000000E+000
 0.000000E+000
 0.000000E+000
 0.000000E+000
 0.000000E+000
 0.000000E+000
 0.000000E+000
 0.000000E+000
 0.000000E+000
 0.000000E+000
 0.000000E+000
 0.000000E+000
 0.000000E+000
 0.000000E+000
 0.000000E+000
 0.000000E+000
 0.000000E+000
 0.000000E+000
 0.000000E+000
 0.000000E+000
 0.000000E+000
 0.000000E+000
 0.000000E+000
 0.000000E+000
 0.000000E+000
 0.000000E+000
 0.000000E+000
 0.000000E+000
 0.000000E+000
 0.000000E+000
 0.000000E+000
 0.000000E+000
 0.000000E+000
 0.000000E+000
 0.000000E+000
 0.000000E+000
 0.000000E+000
 0.000000E+000
 0.000000E+000
 0.000000E+000
 0.000000E+000
 0.000000E+000
 0.000000E+000
 0.000000E+000
 0.000000E+000
 0.000000E+000
 0.000000E+000
 0.000000E+000
 0.000000E+000
 0.000000E+000
 0.000000E+000
 0.000000E+000
 0.000000E+000
 0.000000E+000
 0.000000E+000
 0.000000E+000
 0.000000E+000
 0.000000E+000
 0.000000E+000
 0.000000E+000
 0.000000E+000
 0.000000E+000
 0.000000E+000
 0.000000E+000
 0.000000E+000
 0.000000E+000
 0.000000E+000
 0.000000E+000
 0.000000E+000
 0.000000E+000
 0.000000E+000
 0.000000E+000
 0.000000E+000
 0.000000E+000
 0.000000E+000
 0.000000E+000
 0.000000E+000
 0.000000E+000
 0.000000E+000
 0.000000E+000
 0.000000E+000
 0.000000E+000
 0.000000E+000
 0.000000E+000
 0.000000E+000
 0.000000E+000
 0.000000E+000
 0.000000E+000
 0.000000E+000
 0.000000E+000
 0.000000E+000
 0.000000E+000
 0.000000E+000
 0.000000E+000
 0.000000E+000
 0.000000E+000
 0.000000E+000
 0.000000E+000
 0.000000E+000
 0.000000E+000
 0.000000E+000
 0.000000E+000
 0.000000E+000
 0.000000E+000
 0.000000E+000
 0.000000E+000
 0.000000E+000
 0.000000E+000
 0.000000E+000
 0.000000E+000
 0.000000E+000
 0.000000E+000
 0.000000E+000
 0.000000E+000
 0.000000E+000
 0.000000E+000
 0.000000E+000
 0.000000E+000
 0.000000E+000
 0.000000E+000
 0.000000E+000
 0.000000E+000
 0.000000E+000
 0.000000E+000
 0.000000E+000
 0.000000E+000
 0.000000E+000
 0.000000E+000
 0.000000E+000
 0.000000E+000
 0.000000E+000
 0.000000E+000
 0.000000E+000
 0.000000E+000
 0.000000E+000
 0.000000E+000
 0.000000E+000
 0.000000E+000
 0.000000E+000
 0.000000E+000
 0.000000E+000
 0.000000E+000
 0.000000E+000
 0.000000E+000
 0.000000E+000
 0.000000E+000
 0.000000E+000
 0.000000E+000
 0.000000E+000
 0.000000E+000
 0.000000E+000
 0.000000E+000
 0.000000E+000
 0.000000E+000
 0.000000E+000
 0.000000E+000
 0.000000E+000
 0.000000E+000
 0.000000E+000
 0.000000E+000
 0.000000E+000
 0.000000E+000
 0.000000E+000
 0.000000E+000
 0.000000E+000
 0.000000E+000
 0.000000E+000
 0.000000E+000
 0.000000E+000
 0.000000E+000
 0.000000E+000
 0.000000E+000
 0.000000E+000
 0.000000E+000
 0.000000E+000
 0.000000E+000
 0.000000E+000
 0.000000E+000
 0.000000E+000
 0.000000E+000
 0.000000E+000
 0.000000E+000
 0.000000E+000
 0.000000E+000
 0.000000E+000
 0.000000E+000
 0.000000E+000
 0.000000E+000
 0.000000E+000
 0.000000E+000
 0.000000E+000
 0.000000E+000
 0.000000E+000
 0.000000E+000
 0.000000E+000
 0.000000E+000
 0.000000E+000
 0.000000E+000
 0.000000E+000
 0.000000E+000
 0.000000E+000
 0.000000E+000
 0.000000E+000
 0.000000E+000
 0.000000E+000
 0.000000E+000
 0.000000E+000
 0.000000E+000
 0.000000E+000
 0.000000E+000
 0.000000E+000
 0.000000E+000
 0.000000E+000
 0.000000E+000
 0.000000E+000
 0.000000E+000
 0.000000E+000
 0.000000E+000
 0.000000E+000
 0.000000E+000
 0.000000E+000
 0.000000E+000
 0.000000E+000
 0.000000E+000
 0.000000E+000
 0.000000E+000
 0.000000E+000
 0.000000E+000
 0.000000E+000
 0.000000E+000
 0.000000E+000
 0.000000E+000
 0.000000E+000
 0.000000E+000
 0.000000E+000
 0.000000E+000
 0.000000E+000
 0.000000E+000
 0.000000E+000
 0.000000E+000
 0.000000E+000
 0.000000E+000
 0.000000E+000
 0.000000E+000
 0.000000E+000
 0.000000E+000
 0.000000E+000
 0.000000E+000
 0.000000E+000
 0.000000E+000
 0.000000E+000
 0.000000E+000
 0.000000E+000
 0.000000E+000
 0.000000E+000
 0.000000E+000
 0.000000E+000
 0.000000E+000
 0.000000E+000
 0.000000E+000
 0.000000E+000
 0.000000E+000
 0.000000E+000
 0.000000E+000
 0.000000E+000
 0.000000E+000
 0.000000E+000
 0.000000E+000
 0.000000E+000
 0.000000E+000
 0.000000E+000
 0.000000E+000
 0.000000E+000
 0.000000E+000
 0.000000E+000
 0.000000E+000
 0.000000E+000
 0.000000E+000
 0.000000E+000
 0.000000E+000
 0.000000E+000
 0.000000E+000
 0.000000E+000
 0.000000E+000
 0.000000E+000
 0.000000E+000
 0.000000E+000
 0.000000E+000
 0.000000E+000
 0.000000E+000
 0.000000E+000
 0.000000E+000
 0.000000E+000
 0.000000E+000
 0.000000E+000
 0.000000E+000
 0.000000E+000
 0.000000E+000
 0.000000E+000
 0.000000E+000
 0.000000E+000
 0.000000E+000
 0.000000E+000
 0.000000E+000
 0.000000E+000
 0.000000E+000
 0.000000E+000
 0.000000E+000
 0.000000E+000
 0.000000E+000
 0.000000E+000
 0.000000E+000
 0.000000E+000
 0.000000E+000
 0.000000E+000
 0.000000E+000
 0.000000E+000
 0.000000E+000
 0.000000E+000
 0.000000E+000
 0.000000E+000
 0.000000E+000
 0.000000E+000
 0.000000E+000
 0.000000E+000
 0.000000E+000
 0.000000E+000
 0.000000E+000
 0.000000E+000
 0.000000E+000
 0.000000E+000
 0.000000E+000
 0.000000E+000
 0.000000E+000
 0.000000E+000
 0.000000E+000
 0.000000E+000
 0.000000E+000
 0.000000E+000
 0.000000E+000
 0.000000E+000
 0.000000E+000
 0.000000E+000
 0.000000E+000
 0.000000E+000
 0.000000E+000
 0.000000E+000
 0.000000E+000
 0.000000E+000
 0.000000E+000
 0.000000E+000
 0.000000E+000
 0.000000E+000
 0.000000E+000
 0.000000E+000
 0.000000E+000
 0.000000E+000
 0.000000E+000
 0.000000E+000
 0.000000E+000
 0.000000E+000
 0.000000E+000
 0.000000E+000
 0.000000E+000
 0.000000E+000
 0.000000E+000
 0.000000E+000
 0.000000E+000
 0.000000E+000
 0.000000E+000
 0.000000E+000
 0.000000E+000
 0.000000E+000
 0.000000E+000
 0.000000E+000
 0.000000E+000
 0.000000E+000
 0.000000E+000
 0.000000E+000
 0.000000E+000
 0.000000E+000
 0.000000E+000
 0.000000E+000
 0.000000E+000
 0.000000E+000
 0.000000E+000
 0.000000E+000
 0.000000E+000
 0.000000E+000
 0.000000E+000
 0.000000E+000
 0.000000E+000
 0.000000E+000
 0.000000E+000
 0.000000E+000
 0.000000E+000
 0.000000E+000
 0.000000E+000
 0.000000E+000
 0.000000E+000
 0.000000E+000
 0.000000E+000
 0.000000E+000
 0.000000E+000
 0.000000E+000
 0.000000E+000
 0.000000E+000
 0.000000E+000
 0.000000E+000
 0.000000E+000
 0.000000E+000
 0.000000E+000
 0.000000E+000
 0.000000E+000
 0.000000E+000
 0.000000E+000
 0.000000E+000
 0.000000E+000
 0.000000E+000
 0.000000E+000
 0.000000E+000
 0.000000E+000
 0.000000E+000
 0.000000E+000
 0.000000E+000
 0.000000E+000
 0.000000E+000
 0.000000E+000
 0.000000E+000
 0.000000E+000
 0.000000E+000
 0.000000E+000
 0.000000E+000
 0.000000E+000
 0.000000E+000
 0.000000E+000
 0.000000E+000
 0.000000E+000
 0.000000E+000
 0.000000E+000
 0.000000E+000
 0.000000E+000
 0.000000E+000
 0.000000E+000
 0.000000E+000
 0.000000E+000
 0.000000E+000
 0.000000E+000
 0.000000E+000
 0.000000E+000
 0.000000E+000
 0.000000E+000
 0.000000E+000
 0.000000E+000
 0.000000E+000
 0.000000E+000
 0.000000E+000
 0.000000E+000
 0.000000E+000
 0.000000E+000
 0.000000E+000
 0.000000E+000
 0.000000E+000
 0.000000E+000
 0.000000E+000
 0.000000E+000
 0.000000E+000
 0.000000E+000
 0.000000E+000
 0.000000E+000
 0.000000E+000
 0.000000E+000
 0.000000E+000
 0.000000E+000
 0.000000E+000
 0.000000E+000
 0.000000E+000
 0.000000E+000
 0.000000E+000
 0.000000E+000
 0.000000E+000
 0.000000E+000
 0.000000E+000
 0.000000E+000
 0.000000E+000
 0.000000E+000
 0.000000E+000
 0.000000E+000
 0.000000E+000
 0.000000E+000
 0.000000E+000
 0.000000E+000
 0.000000E+000
 0.000000E+000
 0.000000E+000
 0.000000E+000
 0.000000E+000
 0.000000E+000
 0.000000E+000
 0.000000E+000
 0.000000E+000
 0.000000E+000
 0.000000E+000
 0.000000E+000
 0.000000E+000
 0.000000E+000
 0.000000E+000
 0.000000E+000
 0.000000E+000
 0.000000E+000
 0.000000E+000
 0.000000E+000
 0.000000E+000
 0.000000E+000
 0.000000E+000
 0.000000E+000
 0.000000E+000
 0.000000E+000
 0.000000E+000
 0.000000E+000
 0.000000E+000
 0.000000E+000
 0.000000E+000
 0.000000E+000
 0.000000E+000
 0.000000E+000
 0.000000E+000
 0.000000E+000
 0.000000E+000
 0.000000E+000
 0.000000E+000
 0.000000E+000
 0.000000E+000
 0.000000E+000
 0.000000E+000
 0.000000E+000
 0.000000E+000
 0.000000E+000
 0.000000E+000
 0.000000E+000
 0.000000E+000
 0.000000E+000
 0.000000E+000
 0.000000E+000
 0.000000E+000
 0.000000E+000
 0.000000E+000
 0.000000E+000
 0.000000E+000
 0.000000E+000
 0.000000E+000
 0.000000E+000
 0.000000E+000
 0.000000E+000
 0.000000E+000
 0.000000E+000
 0.000000E+000
 0.000000E+000
 0.000000E+000
 0.000000E+000
 0.000000E+000
 0.000000E+000
 0.000000E+000
 0.000000E+000
 0.000000E+000
 0.000000E+000
 0.000000E+000
 0.000000E+000
 0.000000E+000
 0.000000E+000
 0.000000E+000
 0.000000E+000
 0.000000E+000
 0.000000E+000
 0.000000E+000
 0.000000E+000
 0.000000E+000
 0.000000E+000
 0.000000E+000
 0.000000E+000
 0.000000E+000
 0.000000E+000
 0.000000E+000
 0.000000E+000
 0.000000E+000
 0.000000E+000
 0.000000E+000
 0.000000E+000
 0.000000E+000
 0.000000E+000
 0.000000E+000
 0.000000E+000
 0.000000E+000
 0.000000E+000
 0.000000E+000
 0.000000E+000
 0.000000E+000
 0.000000E+000
 0.000000E+000
 0.000000E+000
 0.000000E+000
 0.000000E+000
 0.000000E+000
 0.000000E+000
 0.000000E+000
 0.000000E+000
 0.000000E+000
 0.000000E+000
 0.000000E+000
 0.000000E+000
 0.000000E+000
 0.000000E+000
 0.000000E+000
 0.000000E+000
 0.000000E+000
 0.000000E+000
 0.000000E+000
 0.000000E+000
 0.000000E+000
 0.000000E+000
 0.000000E+000
 0.000000E+000
 0.000000E+000
 0.000000E+000
 0.000000E+000
 0.000000E+000
 0.000000E+000
 0.000000E+000
 0.000000E+000
 0.000000E+000
 0.000000E+000
 0.000000E+000
 0.000000E+000
 0.000000E+000
 0.000000E+000
 0.000000E+000
 0.000000E+000
 0.000000E+000
 0.000000E+000
 0.000000E+000
 0.000000E+000
 0.000000E+000
 0.000000E+000
 0.000000E+000
 0.000000E+000
 0.000000E+000
 0.000000E+000
 0.000000E+000
 0.000000E+000
 0.000000E+000
 0.000000E+000
 0.000000E+000
 0.000000E+000
 0.000000E+000
 0.000000E+000
 0.000000E+000
 0.000000E+000
 0.000000E+000
 0.000000E+000
 0.000000E+000
 0.000000E+000
 0.000000E+000
 0.000000E+000
 0.000000E+000
 0.000000E+000
 0.000000E+000
 0.000000E+000
 0.000000E+000
 0.000000E+000
 0.000000E+000
 0.000000E+000
 0.000000E+000
 0.000000E+000
 0.000000E+000
 0.000000E+000
 0.000000E+000
 0.000000E+000
 0.000000E+000
 0.000000E+000
 0.000000E+000
 0.000000E+000
 0.000000E+000
 0.000000E+000
 0.000000E+000
 0.000000E+000
 0.000000E+000
 0.000000E+000
 0.000000E+000
 0.000000E+000
 0.000000E+000
 0.000000E+000
 0.000000E+000
 0.000000E+000
 0.000000E+000
 0.000000E+000
 0.000000E+000
 0.000000E+000
 0.000000E+000
 0.000000E+000
 0.000000E+000
 0.000000E+000
 0.000000E+000
 0.000000E+000
 0.000000E+000
 0.000000E+000
 0.000000E+000
 0.000000E+000
 0.000000E+000
 0.000000E+000
 0.000000E+000
 0.000000E+000
 0.000000E+000
 0.000000E+000
 0.000000E+000
 0.000000E+000
 0.000000E+000
 0.000000E+000
 0.000000E+000
 0.000000E+000
 0.000000E+000
 0.000000E+000
 0.000000E+000
 0.000000E+000
 0.000000E+000
 0.000000E+000
 0.000000E+000
 0.000000E+000
 0.000000E+000
 0.000000E+000
 0.000000E+000
 0.000000E+000
 0.000000E+000
 0.000000E+000
 0.000000E+000
 0.000000E+000
 0.000000E+000
 0.000000E+000
 0.000000E+000
 0.000000E+000
 0.000000E+000
 0.000000E+000
 0.000000E+000
 0.000000E+000
 0.000000E+000
 0.000000E+000
 0.000000E+000
 0.000000E+000
 0.000000E+000
 0.000000E+000
 0.000000E+000
 0.000000E+000
 0.000000E+000
 0.000000E+000
 0.000000E+000
 0.000000E+000
 0.000000E+000
 0.000000E+000
 0.000000E+000
 0.000000E+000
 0.000000E+000
 0.000000E+000
 0.000000E+000
 0.000000E+000
 0.000000E+000
 0.000000E+000
 0.000000E+000
 0.000000E+000
 0.000000E+000
 0.000000E+000
 0.000000E+000
 0.000000E+000
 0.000000E+000
 0.000000E+000
 0.000000E+000
 0.000000E+000
 0.000000E+000
 0.000000E+000
 0.000000E+000
 0.000000E+000
 0.000000E+000
 0.000000E+000
 0.000000E+000
 0.000000E+000
 0.000000E+000
 0.000000E+000
 0.000000E+000
 0.000000E+000
 0.000000E+000
 0.000000E+000
 0.000000E+000
 0.000000E+000
 0.000000E+000
 0.000000E+000
 0.000000E+000
 0.000000E+000
 0.000000E+000
 0.000000E+000
 0.000000E+000
 0.000000E+000
 0.000000E+000
 0.000000E+000
 0.000000E+000
 0.000000E+000
 0.000000E+000
 0.000000E+000
 0.000000E+000
 0.000000E+000
 0.000000E+000
 0.000000E+000
 0.000000E+000
 0.000000E+000
 0.000000E+000
 0.000000E+000
 0.000000E+000
 0.000000E+000
 0.000000E+000
 0.000000E+000
 0.000000E+000
 0.000000E+000
 0.000000E+000
 0.000000E+000
 0.000000E+000
 0.000000E+000
 0.000000E+000
 0.000000E+000
 0.000000E+000
 0.000000E+000
 0.000000E+000
 0.000000E+000
 0.000000E+000
 0.000000E+000
 0.000000E+000
 0.000000E+000
 0.000000E+000
 0.000000E+000
 0.000000E+000
 0.000000E+000
 0.000000E+000
 0.000000E+000
 0.000000E+000
 0.000000E+000
 0.000000E+000
 0.000000E+000
 0.000000E+000
 0.000000E+000
 0.000000E+000
 0.000000E+000
 0.000000E+000
 0.000000E+000
 0.000000E+000
 0.000000E+000
 0.000000E+000
 0.000000E+000
 0.000000E+000
 0.000000E+000
 0.000000E+000
 0.000000E+000
 0.000000E+000
 0.000000E+000
 0.000000E+000
 0.000000E+000
 0.000000E+000
 0.000000E+000
 0.000000E+000
 0.000000E+000
 0.000000E+000
 0.000000E+000
 0.000000E+000
 0.000000E+000
 0.000000E+000
 0.000000E+000
 0.000000E+000
 0.000000E+000
 0.000000E+000
 0.000000E+000
 0.000000E+000
 0.000000E+000
 0.000000E+000
 0.000000E+000
 0.000000E+000
 0.000000E+000
 0.000000E+000
 0.000000E+000
 0.000000E+000
 0.000000E+000
 0.000000E+000
 0.000000E+000
 0.000000E+000
 0.000000E+000
 0.000000E+000
 0.000000E+000
 0.000000E+000
 0.000000E+000
 0.000000E+000
 0.000000E+000
 0.000000E+000
 0.000000E+000
 0.000000E+000
 0.000000E+000
 0.000000E+000
 0.000000E+000
 0.000000E+000
 0.000000E+000
 0.000000E+000
 0.000000E+000
 0.000000E+000
 0.000000E+000
 0.000000E+000
 0.000000E+000
 0.000000E+000
 0.000000E+000
 0.000000E+000
 0.000000E+000
 0.000000E+000
 0.000000E+000
 0.000000E+000
 0.000000E+000
 0.000000E+000
 0.000000E+000
 0.000000E+000
 0.000000E+000
 0.000000E+000
 0.000000E+000
 0.000000E+000
 0.000000E+000
 0.000000E+000
 0.000000E+000
 0.000000E+000
 0.000000E+000
 0.000000E+000
 0.000000E+000
 0.000000E+000
 0.000000E+000
 0.000000E+000
 0.000000E+000
 0.000000E+000
 0.000000E+000
 0.000000E+000
 0.000000E+000
 0.000000E+000
 0.000000E+000
 0.000000E+000
 0.000000E+000
 0.000000E+000
 0.000000E+000
 0.000000E+000
 0.000000E+000
 0.000000E+000
 0.000000E+000
 0.000000E+000
 0.000000E+000
 0.000000E+000
 0.000000E+000
 0.000000E+000
 0.000000E+000
 0.000000E+000
 0.000000E+000
 0.000000E+000
 0.000000E+000
 0.000000E+000
 0.000000E+000
 0.000000E+000
 0.000000E+000
 0.000000E+000
 0.000000E+000
 0.000000E+000
 0.000000E+000
 0.000000E+000
 0.000000E+000
 0.000000E+000
 0.000000E+000
 0.000000E+000
 0.000000E+000
 0.000000E+000
 0.000000E+000
 0.000000E+000
 0.000000E+000
 0.000000E+000
 0.000000E+000
 0.000000E+000
 0.000000E+000
 0.000000E+000
 0.000000E+000
 0.000000E+000
 0.000000E+000
 0.000000E+000
 0.000000E+000
 0.000000E+000
 0.000000E+000
 0.000000E+000
 0.000000E+000
 0.000000E+000
 0.000000E+000
 0.000000E+000
 0.000000E+000
 0.000000E+000
 0.000000E+000
 0.000000E+000
 0.000000E+000
 0.000000E+000
 0.000000E+000
 0.000000E+000
 0.000000E+000
 0.000000E+000
 0.000000E+000
 0.000000E+000
 0.000000E+000
 0.000000E+000
 0.000000E+000
 0.000000E+000
 0.000000E+000
 0.000000E+000
 0.000000E+000
 0.000000E+000
 0.000000E+000
 0.000000E+000
 0.000000E+000
 0.000000E+000
 0.000000E+000
 0.000000E+000
 0.000000E+000
 0.000000E+000
 0.000000E+000
 0.000000E+000
 0.000000E+000
 0.000000E+000
 0.000000E+000
 0.000000E+000
 0.000000E+000
 0.000000E+000
 0.000000E+000
 0.000000E+000
 0.000000E+000
 0.000000E+000
 0.000000E+000
 0.000000E+000
 0.000000E+000
 0.000000E+000
 0.000000E+000
 0.000000E+000
 0.000000E+000
 0.000000E+000
 0.000000E+000
 0.000000E+000
 0.000000E+000
 0.000000E+000
 0.000000E+000
 0.000000E+000
 0.000000E+000
 0.000000E+000
 0.000000E+000
 0.000000E+000
 0.000000E+000
 0.000000E+000
 0.000000E+000
 0.000000E+000
 0.000000E+000
 0.000000E+000
 0.000000E+000
 0.000000E+000
 0.000000E+000
 0.000000E+000
 0.000000E+000
 0.000000E+000
 0.000000E+000
 0.000000E+000
 0.000000E+000
 0.000000E+000
 0.000000E+000
 0.000000E+000
 0.000000E+000
 0.000000E+000
 0.000000E+000
 0.000000E+000
 0.000000E+000
 0.000000E+000
 0.000000E+000
 0.000000E+000
 0.000000E+000
 0.000000E+000
 0.000000E+000
 0.000000E+000
 0.000000E+000
 0.000000E+000
 0.000000E+000
 0.000000E+000
 0.000000E+000
 0.000000E+000
 0.000000E+000
 0.000000E+000
 0.000000E+000
 0.000000E+000
 0.000000E+000
 0.000000E+000
 0.000000E+000
 0.000000E+000
 0.000000E+000
 0.000000E+000
 0.000000E+000
 0.000000E+000
 0.000000E+000
 0.000000E+000
 0.000000E+000
 0.000000E+000
 0.000000E+000
 0.000000E+000
 0.000000E+000
 0.000000E+000
 0.000000E+000
 0.000000E+000
 0.000000E+000
 0.000000E+000
 0.000000E+000
 0.000000E+000
 0.000000E+000
 0.000000E+000
 0.000000E+000
 0.000000E+000
 0.000000E+000
 0.000000E+000
 0.000000E+000
 0.000000E+000
 0.000000E+000
 0.000000E+000
 0.000000E+000
 0.000000E+000
 0.000000E+000
 0.000000E+000
 0.000000E+000
 0.000000E+000
 0.000000E+000
 0.000000E+000
 0.000000E+000
 0.000000E+000
 0.000000E+000
 0.000000E+000
 0.000000E+000
 0.000000E+000
 0.000000E+000
 0.000000E+000
 0.000000E+000
 0.000000E+000
 0.000000E+000
 0.000000E+000
 0.000000E+000
 0.000000E+000
 0.000000E+000
 0.000000E+000
 0.000000E+000
 0.000000E+000
 0.000000E+000
 0.000000E+000
 0.000000E+000
 0.000000E+000
 0.000000E+000
 0.000000E+000
 0.000000E+000
 0.000000E+000
 0.000000E+000
 0.000000E+000
 0.000000E+000
 0.000000E+000
 0.000000E+000
 0.000000E+000
 0.000000E+000
 0.000000E+000
 0.000000E+000
 0.000000E+000
 0.000000E+000
 0.000000E+000
 0.000000E+000
 0.000000E+000
 0.000000E+000
 0.000000E+000
 0.000000E+000
 0.000000E+000
 0.000000E+000
 0.000000E+000
 0.000000E+000
 0.000000E+000
 0.000000E+000
 0.000000E+000
 0.000000E+000
 0.000000E+000
 0.000000E+000
 0.000000E+000
 0.000000E+000
 0.000000E+000
 0.000000E+000
 0.000000E+000
 0.000000E+000
 0.000000E+000
 0.000000E+000
 0.000000E+000
 0.000000E+000
 0.000000E+000
 0.000000E+000
 0.000000E+000
 0.000000E+000
 0.000000E+000
 0.000000E+000
 0.000000E+000
 0.000000E+000
 0.000000E+000
 0.000000E+000
 0.000000E+000
 0.000000E+000
 0.000000E+000
 0.000000E+000
 0.000000E+000
 0.000000E+000
 0.000000E+000
 0.000000E+000
 0.000000E+000
 0.000000E+000
 0.000000E+000
 0.000000E+000
 0.000000E+000
 0.000000E+000
 0.000000E+000
 0.000000E+000
 0.000000E+000
 0.000000E+000
 0.000000E+000
 0.000000E+000
 0.000000E+000
 0.000000E+000
 0.000000E+000
 0.000000E+000
 0.000000E+000
 0.000000E+000
 0.000000E+000
 0.000000E+000
 0.000000E+000
 0.000000E+000
 0.000000E+000
 0.000000E+000
 0.000000E+000
 0.000000E+000
 0.000000E+000
 0.000000E+000
 0.000000E+000
 0.000000E+000
 0.000000E+000
 0.000000E+000
 0.000000E+000
 0.000000E+000
 0.000000E+000
 0.000000E+000
 0.000000E+000
 0.000000E+000
 0.000000E+000
 0.000000E+000
 0.000000E+000
 0.000000E+000
 0.000000E+000
 0.000000E+000
 0.000000E+000
 0.000000E+000
 0.000000E+000
 0.000000E+000
 0.000000E+000
 0.000000E+000
 0.000000E+000
 0.000000E+000
 0.000000E+000
 0.000000E+000
 0.000000E+000
 0.000000E+000
 0.000000E+000
 0.000000E+000
 0.000000E+000
 0.000000E+000
 0.000000E+000
 0.000000E+000
 0.000000E+000
 0.000000E+000
 0.000000E+000
 0.000000E+000
 0.000000E+000
 0.000000E+000
 0.000000E+000
 0.000000E+000
 0.000000E+000
 0.000000E+000
 0.000000E+000
 0.000000E+000
 0.000000E+000
 0.000000E+000
 0.000000E+000
 0.000000E+000
 0.000000E+000
 0.000000E+000
 0.000000E+000
 0.000000E+000
 0.000000E+000
 0.000000E+000
 0.000000E+000
 0.000000E+000
 0.000000E+000
 0.000000E+000
 0.000000E+000
 0.000000E+000
 0.000000E+000
 0.000000E+000
 0.000000E+000
 0.000000E+000
 0.000000E+000
 0.000000E+000
 0.000000E+000
 0.000000E+000
 0.000000E+000
 0.000000E+000
 0.000000E+000
 0.000000E+000
 0.000000E+000
 0.000000E+000
 0.000000E+000
 0.000000E+000
 0.000000E+000
 0.000000E+000
 0.000000E+000
 0.000000E+000
 0.000000E+000
 0.000000E+000
 0.000000E+000
 0.000000E+000
 0.000000E+000
 0.000000E+000
 0.000000E+000
 0.000000E+000
 0.000000E+000
 0.000000E+000
 0.000000E+000
 0.000000E+000
 0.000000E+000
 0.000000E+000
 0.000000E+000
 0.000000E+000
 0.000000E+000
 0.000000E+000
 0.000000E+000
 0.000000E+000
 0.000000E+000
 0.000000E+000
 0.000000E+000
 0.000000E+000
 0.000000E+000
 0.000000E+000
 0.000000E+000
 0.000000E+000
 0.000000E+000
 0.000000E+000
 0.000000E+000
 0.000000E+000
 0.000000E+000
 0.000000E+000
 0.000000E+000
 0.000000E+000
 0.000000E+000
 0.000000E+000
 0.000000E+000
 0.000000E+000
 0.000000E+000
 0.000000E+000
 0.000000E+000
 0.000000E+000
 0.000000E+000
 0.000000E+000
 0.000000E+000
 0.000000E+000
 0.000000E+000
 0.000000E+000
 0.000000E+000
 0.000000E+000
 0.000000E+000
 0.000000E+000
 0.000000E+000
 0.000000E+000
 0.000000E+000
 0.000000E+000
 0.000000E+000
 0.000000E+000
 0.000000E+000
 0.000000E+000
 0.000000E+000
 0.000000E+000
 0.000000E+000
 0.000000E+000
 0.000000E+000
 0.000000E+000
 0.000000E+000
 0.000000E+000
 0.000000E+000
 0.000000E+000
 0.000000E+000
 0.000000E+000
 0.000000E+000
 0.000000E+000
 0.000000E+000
 0.000000E+000
 0.000000E+000
 0.000000E+000
 0.000000E+000
 0.000000E+000
 0.000000E+000
 0.000000E+000
 0.000000E+000
 0.000000E+000
 0.000000E+000
 0.000000E+000
 0.000000E+000
 0.000000E+000
 0.000000E+000
 0.000000E+000
 0.000000E+000
 0.000000E+000
 0.000000E+000
 0.000000E+000
 0.000000E+000
 0.000000E+000
 0.000000E+000
 0.000000E+000
 0.000000E+000
 0.000000E+000
 0.000000E+000
 0.000000E+000
 0.000000E+000
 0.000000E+000
 0.000000E+000
 0.000000E+000
 0.000000E+000
 0.000000E+000
 0.000000E+000
 0.000000E+000
 0.000000E+000
 0.000000E+000
 0.000000E+000
 0.000000E+000
 0.000000E+000
 0.000000E+000
 0.000000E+000
 0.000000E+000
 0.000000E+000
 0.000000E+000
 0.000000E+000
 0.000000E+000
 0.000000E+000
 0.000000E+000
 0.000000E+000
 0.000000E+000
 0.000000E+000
 0.000000E+000
 0.000000E+000
 0.000000E+000
 0.000000E+000
 0.000000E+000
 0.000000E+000
 0.000000E+000
 0.000000E+000
 0.000000E+000
 0.000000E+000
 0.000000E+000
 0.000000E+000
 0.000000E+000
 0.000000E+000
 0.000000E+000
 0.000000E+000
 0.000000E+000
 0.000000E+000
 0.000000E+000
 0.000000E+000
 0.000000E+000
 0.000000E+000
 0.000000E+000
 0.000000E+000
 0.000000E+000
 0.000000E+000
 0.000000E+000
 0.000000E+000
 0.000000E+000
 0.000000E+000
 0.000000E+000
 0.000000E+000
 0.000000E+000
 0.000000E+000
 0.000000E+000
 0.000000E+000
 0.000000E+000
 0.000000E+000
 0.000000E+000
 0.000000E+000
 0.000000E+000
 0.000000E+000
 0.000000E+000
 0.000000E+000
 0.000000E+000
 0.000000E+000
 0.000000E+000
 0.000000E+000
 0.000000E+000
 0.000000E+000
 0.000000E+000
 0.000000E+000
 0.000000E+000
 0.000000E+000
 0.000000E+000
 0.000000E+000
 0.000000E+000
 0.000000E+000
 0.000000E+000
 0.000000E+000
 0.000000E+000
 0.000000E+000
 0.000000E+000
 0.000000E+000
 0.000000E+000
 0.000000E+000
 0.000000E+000
 0.000000E+000
 0.000000E+000
 0.000000E+000
 0.000000E+000
 0.000000E+000
 0.000000E+000
 0.000000E+000
 0.000000E+000
 0.000000E+000
 0.000000E+000
 0.000000E+000
 0.000000E+000
 0.000000E+000
 0.000000E+000
 0.000000E+000
 0.000000E+000
 0.000000E+000
 0.000000E+000
 0.000000E+000
 0.000000E+000
 0.000000E+000
 0.000000E+000
 0.000000E+000
 0.000000E+000
 0.000000E+000
 0.000000E+000
 0.000000E+000
 0.000000E+000
 0.000000E+000
 0.000000E+000
 0.000000E+000
 0.000000E+000
 0.000000E+000
 0.000000E+000
 0.000000E+000
 0.000000E+000
 0.000000E+000
 0.000000E+000
 0.000000E+000
 0.000000E+000
 0.000000E+000
 0.000000E+000
 0.000000E+000
 0.000000E+000
 0.000000E+000
 0.000000E+000
 0.000000E+000
 0.000000E+000
 0.000000E+000
 0.000000E+000
 0.000000E+000
 0.000000E+000
 0.000000E+000
 0.000000E+000
 0.000000E+000
 0.000000E+000
 0.000000E+000
 0.000000E+000
 0.000000E+000
 0.000000E+000
 0.000000E+000
 0.000000E+000
 0.000000E+000
 0.000000E+000
 0.000000E+000
 0.000000E+000
 0.000000E+000
 0.000000E+000
 0.000000E+000
 0.000000E+000
 0.000000E+000
 0.000000E+000
 0.000000E+000
 0.000000E+000
 0.000000E+000
 0.000000E+000
 0.000000E+000
 0.000000E+000
 0.000000E+000
 0.000000E+000
 0.000000E+000
 0.000000E+000
 0.000000E+000
 0.000000E+000
 0.000000E+000
 0.000000E+000
 0.000000E+000
 0.000000E+000
 0.000000E+000
 0.000000E+000
 0.000000E+000
 0.000000E+000
 0.000000E+000
 0.000000E+000
 0.000000E+000
 0.000000E+000
 0.000000E+000
 0.000000E+000
 0.000000E+000
 0.000000E+000
 0.000000E+000
 0.000000E+000
 0.000000E+000
 0.000000E+000
 0.000000E+000
 0.000000E+000
 0.000000E+000
 0.000000E+000
 0.000000E+000
 0.000000E+000
 0.000000E+000
 0.000000E+000
 0.000000E+000
 0.000000E+000
 0.000000E+000
 0.000000E+000
 0.000000E+000
 0.000000E+000
 0.000000E+000
 0.000000E+000
 0.000000E+000
 0.000000E+000
 0.000000E+000
 0.000000E+000
 0.000000E+000
 0.000000E+000
 0.000000E+000
 0.000000E+000
 0.000000E+000
 0.000000E+000
 0.000000E+000
 0.000000E+000
 0.000000E+000
 0.000000E+000
 0.000000E+000
 0.000000E+000
 0.000000E+000
 0.000000E+000
 0.000000E+000
 0.000000E+000
 0.000000E+000
 0.000000E+000
 0.000000E+000
 0.000000E+000
 0.000000E+000
 0.000000E+000
 0.000000E+000
 0.000000E+000
 0.000000E+000
 0.000000E+000
 0.000000E+000
 0.000000E+000
 0.000000E+000
 0.000000E+000
 0.000000E+000
 0.000000E+000
 0.000000E+000
 0.000000E+000
 0.000000E+000
 0.000000E+000
 0.000000E+000
 0.000000E+000
 0.000000E+000
 0.000000E+000
 0.000000E+000
 0.000000E+000
 0.000000E+000
 0.000000E+000
 0.000000E+000
 0.000000E+000
 0.000000E+000
 0.000000E+000
 0.000000E+000
 0.000000E+000
 0.000000E+000
 0.000000E+000
 0.000000E+000
 0.000000E+000
 0.000000E+000
 0.000000E+000
 0.000000E+000
 0.000000E+000
 0.000000E+000
 0.000000E+000
 0.000000E+000
 0.000000E+000
 0.000000E+000
 0.000000E+000
 0.000000E+000
 0.000000E+000
 0.000000E+000
 0.000000E+000
 0.000000E+000
 0.000000E+000
 0.000000E+000
 0.000000E+000
 0.000000E+000
 0.000000E+000
 0.000000E+000
 0.000000E+000
 0.000000E+000
 0.000000E+000
 0.000000E+000
 0.000000E+000
 0.000000E+000
 0.000000E+000
 0.000000E+000
 0.000000E+000
 0.000000E+000
 0.000000E+000
 0.000000E+000
 0.000000E+000
 0.000000E+000
 0.000000E+000
 0.000000E+000
 0.000000E+000
 0.000000E+000
 0.000000E+000
 0.000000E+000
 0.000000E+000
 0.000000E+000
 0.000000E+000
 0.000000E+000
 0.000000E+000
 0.000000E+000
 0.000000E+000
 0.000000E+000
 0.000000E+000
 0.000000E+000
 0.000000E+000
 0.000000E+000
 0.000000E+000
 0.000000E+000
 0.000000E+000
 0.000000E+000
 0.000000E+000
 0.000000E+000
 0.000000E+000
 0.000000E+000
 0.000000E+000
 0.000000E+000
 0.000000E+000
 0.000000E+000
 0.000000E+000
 0.000000E+000
 0.000000E+000
 0.000000E+000
 0.000000E+000
 0.000000E+000
 0.000000E+000
 0.000000E+000
 0.000000E+000
 0.000000E+000
 0.000000E+000
 0.000000E+000
 0.000000E+000
 0.000000E+000
 0.000000E+000
 0.000000E+000
 0.000000E+000
 0.000000E+000
 0.000000E+000
 0.000000E+000
 0.000000E+000
 0.000000E+000
 0.000000E+000
 0.000000E+000
 0.000000E+000
 0.000000E+000
 0.000000E+000
 0.000000E+000
 0.000000E+000
 0.000000E+000
 0.000000E+000
 0.000000E+000
 0.000000E+000
 0.000000E+000
 0.000000E+000
 0.000000E+000
 0.000000E+000
 0.000000E+000
 0.000000E+000
 0.000000E+000
 0.000000E+000
 0.000000E+000
 0.000000E+000
 0.000000E+000
 0.000000E+000
 0.000000E+000
 0.000000E+000
 0.000000E+000
 0.000000E+000
 0.000000E+000
 0.000000E+000
 0.000000E+000
 0.000000E+000
 0.000000E+000
 0.000000E+000
 0.000000E+000
 0.000000E+000
 0.000000E+000
 0.000000E+000
 0.000000E+000
 0.000000E+000
 0.000000E+000
 0.000000E+000
 0.000000E+000
 0.000000E+000
 0.000000E+000
 0.000000E+000
 0.000000E+000
 0.000000E+000
 0.000000E+000
 0.000000E+000
 0.000000E+000
 0.000000E+000
 0.000000E+000
 0.000000E+000
 0.000000E+000
 0.000000E+000
 0.000000E+000
 0.000000E+000
 0.000000E+000
 0.000000E+000
 0.000000E+000
 0.000000E+000
 0.000000E+000
 0.000000E+000
 0.000000E+000
 0.000000E+000
 0.000000E+000
 0.000000E+000
 0.000000E+000
 0.000000E+000
 0.000000E+000
 0.000000E+000
 0.000000E+000
 0.000000E+000
 0.000000E+000
 0.000000E+000
 0.000000E+000
 0.000000E+000
 0.000000E+000
 0.000000E+000
 0.000000E+000
 0.000000E+000
 0.000000E+000
 0.000000E+000
 0.000000E+000
 0.000000E+000
 0.000000E+000
 0.000000E+000
 0.000000E+000
 0.000000E+000
 0.000000E+000
 0.000000E+000
 0.000000E+000
 0.000000E+000
 0.000000E+000
 0.000000E+000
 0.000000E+000
 0.000000E+000
 0.000000E+000
 0.000000E+000
 0.000000E+000
 0.000000E+000
 0.000000E+000
 0.000000E+000
 0.000000E+000
 0.000000E+000
 0.000000E+000
 0.000000E+000
 0.000000E+000
 0.000000E+000
 0.000000E+000
 0.000000E+000
 0.000000E+000
 0.000000E+000
 0.000000E+000
 0.000000E+000
 0.000000E+000
 0.000000E+000
 0.000000E+000
 0.000000E+000
 0.000000E+000
 0.000000E+000
 0.000000E+000
 0.000000E+000
 0.000000E+000
 0.000000E+000
 0.000000E+000
 0.000000E+000
 0.000000E+000
 0.000000E+000
 0.000000E+000
 0.000000E+000
 0.000000E+000
 0.000000E+000
 0.000000E+000
 0.000000E+000
 0.000000E+000
 0.000000E+000
 0.000000E+000
 0.000000E+000
 0.000000E+000
 0.000000E+000
 0.000000E+000
 0.000000E+000
 0.000000E+000
 0.000000E+000
 0.000000E+000
 0.000000E+000
 0.000000E+000
 0.000000E+000
 0.000000E+000
 0.000000E+000
 0.000000E+000
 0.000000E+000
 0.000000E+000
 0.000000E+000
 0.000000E+000
 0.000000E+000
 0.000000E+000
 0.000000E+000
 0.000000E+000
 0.000000E+000
 0.000000E+000
 0.000000E+000
 0.000000E+000
 0.000000E+000
 0.000000E+000
 0.000000E+000
 0.000000E+000
 0.000000E+000
 0.000000E+000
 0.000000E+000
 0.000000E+000
 0.000000E+000
 0.000000E+000
 0.000000E+000
 0.000000E+000
 0.000000E+000
 0.000000E+000
 0.000000E+000
 0.000000E+000
 0.000000E+000
 0.000000E+000
 0.000000E+000
 0.000000E+000
 0.000000E+000
 0.000000E+000
 0.000000E+000
 0.000000E+000
 0.000000E+000
 0.000000E+000
 0.000000E+000
 0.000000E+000
 0.000000E+000
 0.000000E+000
 0.000000E+000
 0.000000E+000
 0.000000E+000
 0.000000E+000
 0.000000E+000
 0.000000E+000
 0.000000E+000
 0.000000E+000
 0.000000E+000
 0.000000E+000
 0.000000E+000
 0.000000E+000
 0.000000E+000
 0.000000E+000
 0.000000E+000
 0.000000E+000
 0.000000E+000
 0.000000E+000
 0.000000E+000
 0.000000E+000
 0.000000E+000
 0.000000E+000
 0.000000E+000
 0.000000E+000
 0.000000E+000
 0.000000E+000
 0.000000E+000
 0.000000E+000
 0.000000E+000
 0.000000E+000
 0.000000E+000
 0.000000E+000
 0.000000E+000
 0.000000E+000
 0.000000E+000
 0.000000E+000
 0.000000E+000
 0.000000E+000
 0.000000E+000
 0.000000E+000
 0.000000E+000
 0.000000E+000
 0.000000E+000
 0.000000E+000
 0.000000E+000
 0.000000E+000
 0.000000E+000
 0.000000E+000
 0.000000E+000
 0.000000E+000
 0.000000E+000
 0.000000E+000
 0.000000E+000
 0.000000E+000
 0.000000E+000
 0.000000E+000
 0.000000E+000
 0.000000E+000
 0.000000E+000
 0.000000E+000
 0.000000E+000
 0.000000E+000
 0.000000E+000
 0.000000E+000
 0.000000E+000
 0.000000E+000
 0.000000E+000
 0.000000E+000
 0.000000E+000
 0.000000E+000
 0.000000E+000
 0.000000E+000
 0.000000E+000
 0.000000E+000
 0.000000E+000
 0.000000E+000
 0.000000E+000
 0.000000E+000
 0.000000E+000
 0.000000E+000
 0.000000E+000
 0.000000E+000
 0.000000E+000
 0.000000E+000
 0.000000E+000
 0.000000E+000
 0.000000E+000
 0.000000E+000
 0.000000E+000
 0.000000E+000
 0.000000E+000
 0.000000E+000
 0.000000E+000
 0.000000E+000
 0.000000E+000
 0.000000E+000
 0.000000E+000
 0.000000E+000
 0.000000E+000
 0.000000E+000
 0.000000E+000
 0.000000E+000
 0.000000E+000
 0.000000E+000
 0.000000E+000
 0.000000E+000
 0.000000E+000
 0.000000E+000
 0.000000E+000
 0.000000E+000
 0.000000E+000
 0.000000E+000
 0.000000E+000
 0.000000E+000
 0.000000E+000
 0.000000E+000
 0.000000E+000
 0.000000E+000
 0.000000E+000
 0.000000E+000
 0.000000E+000
 0.000000E+000
 0.000000E+000
 0.000000E+000
 0.000000E+000
 0.000000E+000
 0.000000E+000
 0.000000E+000
 0.000000E+000
 0.000000E+000
 0.000000E+000
 0.000000E+000
 0.000000E+000
 0.000000E+000
 0.000000E+000
 0.000000E+000
 0.000000E+000
 0.000000E+000
 0.000000E+000
 0.000000E+000
 0.000000E+000
 0.000000E+000
 0.000000E+000
 0.000000E+000
 0.000000E+000
 0.000000E+000
 0.000000E+000
 0.000000E+000
 0.000000E+000
 0.000000E+000
 0.000000E+000
 0.000000E+000
 0.000000E+000
 0.000000E+000
 0.000000E+000
 0.000000E+000
 0.000000E+000
 0.000000E+000
 0.000000E+000
 0.000000E+000
 0.000000E+000
 0.000000E+000
 0.000000E+000
 0.000000E+000
 0.000000E+000
 0.000000E+000
 0.000000E+000
 0.000000E+000
 0.000000E+000
 0.000000E+000
 0.000000E+000
 0.000000E+000
 0.000000E+000
 0.000000E+000
 0.000000E+000
 0.000000E+000
 0.000000E+000
 0.000000E+000
 0.000000E+000
 0.000000E+000
 0.000000E+000
 0.000000E+000
 0.000000E+000
 0.000000E+000
 0.000000E+000
 0.000000E+000
 0.000000E+000
 0.000000E+000
 0.000000E+000
 0.000000E+000
 0.000000E+000
 0.000000E+000
 0.000000E+000
 0.000000E+000
 0.000000E+000
 0.000000E+000
 0.000000E+000
 0.000000E+000
 0.000000E+000
 0.000000E+000
 0.000000E+000
 0.000000E+000
 0.000000E+000
 0.000000E+000
 0.000000E+000
 0.000000E+000
 0.000000E+000
 0.000000E+000
 0.000000E+000
 0.000000E+000
 0.000000E+000
 0.000000E+000
 0.000000E+000
 0.000000E+000
 0.000000E+000
 0.000000E+000
 0.000000E+000
 0.000000E+000
 0.000000E+000
 0.000000E+000
 0.000000E+000
 0.000000E+000
 0.000000E+000
 0.000000E+000
 0.000000E+000
 0.000000E+000
 0.000000E+000
 0.000000E+000
 0.000000E+000
 0.000000E+000
 0.000000E+000
 0.000000E+000
 0.000000E+000
 0.000000E+000
 0.000000E+000
 0.000000E+000
 0.000000E+000
 0.000000E+000
 0.000000E+000
 0.000000E+000
 0.000000E+000
 0.000000E+000
 0.000000E+000
 0.000000E+000
 0.000000E+000
 0.000000E+000
 0.000000E+000
 0.000000E+000
 0.000000E+000
 0.000000E+000
 0.000000E+000
 0.000000E+000
 0.000000E+000
 0.000000E+000
 0.000000E+000
 0.000000E+000
 0.000000E+000
 0.000000E+000
 0.000000E+000
 0.000000E+000
 0.000000E+000
 0.000000E+000
 0.000000E+000
 0.000000E+000
 0.000000E+000
 0.000000E+000
 0.000000E+000
 0.000000E+000
 0.000000E+000
 0.000000E+000
 0.000000E+000
 0.000000E+000
 0.000000E+000
 0.000000E+000
 0.000000E+000
 0.000000E+000
 0.000000E+000
 0.000000E+000
 0.000000E+000
 0.000000E+000
 0.000000E+000
 0.000000E+000
 0.000000E+000
 0.000000E+000
 0.000000E+000
 0.000000E+000
 0.000000E+000
 0.000000E+000
 0.000000E+000
 0.000000E+000
 0.000000E+000
 0.000000E+000
 0.000000E+000
 0.000000E+000
 0.000000E+000
 0.000000E+000
 0.000000E+000
 0.000000E+000
 0.000000E+000
 0.000000E+000
 0.000000E+000
 0.000000E+000
 0.000000E+000
 0.000000E+000
 0.000000E+000
 0.000000E+000
 0.000000E+000
 0.000000E+000
 0.000000E+000
 0.000000E+000
 0.000000E+000
 0.000000E+000
 0.000000E+000
 0.000000E+000
 0.000000E+000
 0.000000E+000
 0.000000E+000
 0.000000E+000
 0.000000E+000
 0.000000E+000
 0.000000E+000
 0.000000E+000
 0.000000E+000
 0.000000E+000
 0.000000E+000
 0.000000E+000
 0.000000E+000
 0.000000E+000
 0.000000E+000
 0.000000E+000
 0.000000E+000
 0.000000E+000
 0.000000E+000
 0.000000E+000
 0.000000E+000
 0.000000E+000
 0.000000E+000
 0.000000E+000
 0.000000E+000
 0.000000E+000
 0.000000E+000
 0.000000E+000
 0.000000E+000
 0.000000E+000
 0.000000E+000
 0.000000E+000
 0.000000E+000
 0.000000E+000
 0.000000E+000
 0.000000E+000
 0.000000E+000
 0.000000E+000
 0.000000E+000
 0.000000E+000
 0.000000E+000
 0.000000E+000
 0.000000E+000
 0.000000E+000
 0.000000E+000
 0.000000E+000
 0.000000E+000
 0.000000E+000
 0.000000E+000
 0.000000E+000
 0.000000E+000
 0.000000E+000
 0.000000E+000
 0.000000E+000
 0.000000E+000
 0.000000E+000
 0.000000E+000
 0.000000E+000
 0.000000E+000
 0.000000E+000
 0.000000E+000
 0.000000E+000
 0.000000E+000
 0.000000E+000
 0.000000E+000
 0.000000E+000
 0.000000E+000
 0.000000E+000
 0.000000E+000
 0.000000E+000
 0.000000E+000
 0.000000E+000
 0.000000E+000
 0.000000E+000
 0.000000E+000
 0.000000E+000
 0.000000E+000
 0.000000E+000
 0.000000E+000
 0.000000E+000
 0.000000E+000
 0.000000E+000
 0.000000E+000
 0.000000E+000
 0.000000E+000
 0.000000E+000
 0.000000E+000
 0.000000E+000
 0.000000E+000
 0.000000E+000
 0.000000E+000
 0.000000E+000
 0.000000E+000
 0.000000E+000
 0.000000E+000
 0.000000E+000
 0.000000E+000
 0.000000E+000
 0.000000E+000
 0.000000E+000
 0.000000E+000
 0.000000E+000
 0.000000E+000
 0.000000E+000
 0.000000E+000
 0.000000E+000
 0.000000E+000
 0.000000E+000
 0.000000E+000
 0.000000E+000
 0.000000E+000
 0.000000E+000
 0.000000E+000
 0.000000E+000
 0.000000E+000
 0.000000E+000
 0.000000E+000
 0.000000E+000
 0.000000E+000
 0.000000E+000
 0.000000E+000
 0.000000E+000
 0.000000E+000
 0.000000E+000
 0.000000E+000
 0.000000E+000
 0.000000E+000
 0.000000E+000
 0.000000E+000
 0.000000E+000
 0.000000E+000
 0.000000E+000
 0.000000E+000
 0.000000E+000
 0.000000E+000
 0.000000E+000
 0.000000E+000
 0.000000E+000
 0.000000E+000
 0.000000E+000
 0.000000E+000
 0.000000E+000
 0.000000E+000
 0.000000E+000
 0.000000E+000
 0.000000E+000
 0.000000E+000
 0.000000E+000
 0.000000E+000
 0.000000E+000
 0.000000E+000
 0.000000E+000
 0.000000E+000
 0.000000E+000
 0.000000E+000
 0.000000E+000
 0.000000E+000
 0.000000E+000
 0.000000E+000
 0.000000E+000
 0.000000E+000
 0.000000E+000
 0.000000E+000
 0.000000E+000
 0.000000E+000
 0.000000E+000
 0.000000E+000
 0.000000E+000
 0.000000E+000
 0.000000E+000
 0.000000E+000
 0.000000E+000
 0.000000E+000
 0.000000E+000
 0.000000E+000
 0.000000E+000
 0.000000E+000
 0.000000E+000
 0.000000E+000
 0.000000E+000
 0.000000E+000
 0.000000E+000
 0.000000E+000
 0.000000E+000
 0.000000E+000
 0.000000E+000
 0.000000E+000
 0.000000E+000
 0.000000E+000
 0.000000E+000
 0.000000E+000
 0.000000E+000
 0.000000E+000
 0.000000E+000
 0.000000E+000
 0.000000E+000
 0.000000E+000
 0.000000E+000
 0.000000E+000
 0.000000E+000
 0.000000E+000
 0.000000E+000
 0.000000E+000
 0.000000E+000
 0.000000E+000
 0.000000E+000
 0.000000E+000
 0.000000E+000
 0.000000E+000
 0.000000E+000
 0.000000E+000
 0.000000E+000
 0.000000E+000
 0.000000E+000
 0.000000E+000
 0.000000E+000
 0.000000E+000
 0.000000E+000
 0.000000E+000
 0.000000E+000
 0.000000E+000
 0.000000E+000
 0.000000E+000
 0.000000E+000
 0.000000E+000
 0.000000E+000
 0.000000E+000
 0.000000E+000
 0.000000E+000
 0.000000E+000
 0.000000E+000
 0.000000E+000
 0.000000E+000
 0.000000E+000
 0.000000E+000
 0.000000E+000
 0.000000E+000
 0.000000E+000
 0.000000E+000
 0.000000E+000
 0.000000E+000
 0.000000E+000
 0.000000E+000
 0.000000E+000
 0.000000E+000
 0.000000E+000
 0.000000E+000
 0.000000E+000
 0.000000E+000
 0.000000E+000
 0.000000E+000
 0.000000E+000
 0.000000E+000
 0.000000E+000
 0.000000E+000
 0.000000E+000
 0.000000E+000
 0.000000E+000
 0.000000E+000
 0.000000E+000
 0.000000E+000
 0.000000E+000
 0.000000E+000
 0.000000E+000
 0.000000E+000
 0.000000E+000
 0.000000E+000
 0.000000E+000
 0.000000E+000
 0.000000E+000
 0.000000E+000
 0.000000E+000
 0.000000E+000
 0.000000E+000
 0.000000E+000
 0.000000E+000
 0.000000E+000
 0.000000E+000
 0.000000E+000
 0.000000E+000
 0.000000E+000
 0.000000E+000
 0.000000E+000
 0.000000E+000
 0.000000E+000
 0.000000E+000
 0.000000E+000
 0.000000E+000
 0.000000E+000
 0.000000E+000
 0.000000E+000
 0.000000E+000
 0.000000E+000
 0.000000E+000
 0.000000E+000
 0.000000E+000
 0.000000E+000
 0.000000E+000
 0.000000E+000
 0.000000E+000
 0.000000E+000
 0.000000E+000
 0.000000E+000
 0.000000E+000
 0.000000E+000
 0.000000E+000
 0.000000E+000
 0.000000E+000
 0.000000E+000
 0.000000E+000
 0.000000E+000
 0.000000E+000
 0.000000E+000
 0.000000E+000
 0.000000E+000
 0.000000E+000
 0.000000E+000
 0.000000E+000
 0.000000E+000
 0.000000E+000
 0.000000E+000
 0.000000E+000
 0.000000E+000
 0.000000E+000
 0.000000E+000
 0.000000E+000
 0.000000E+000
 0.000000E+000
 0.000000E+000
 0.000000E+000
 0.000000E+000
 0.000000E+000
 0.000000E+000
 0.000000E+000
 0.000000E+000
 0.000000E+000
 0.000000E+000
 0.000000E+000
 0.000000E+000
 0.000000E+000
 0.000000E+000
 0.000000E+000
 0.000000E+000
 0.000000E+000
 0.000000E+000
 0.000000E+000
 0.000000E+000
 0.000000E+000
 0.000000E+000
 0.000000E+000
 0.000000E+000
 0.000000E+000
 0.000000E+000
 0.000000E+000
 0.000000E+000
 0.000000E+000
 0.000000E+000
 0.000000E+000
 0.000000E+000
 0.000000E+000
 0.000000E+000
 0.000000E+000
 0.000000E+000
 0.000000E+000
 0.000000E+000
 0.000000E+000
 0.000000E+000
 0.000000E+000
 0.000000E+000
 0.000000E+000
 0.000000E+000
 0.000000E+000
 0.000000E+000
 0.000000E+000
 0.000000E+000
 0.000000E+000
 0.000000E+000
 0.000000E+000
 0.000000E+000
 0.000000E+000
 0.000000E+000
 0.000000E+000
 0.000000E+000
 0.000000E+000
 0.000000E+000
 0.000000E+000
 0.000000E+000
 0.000000E+000
 0.000000E+000
 0.000000E+000
 0.000000E+000
 0.000000E+000
 0.000000E+000
 0.000000E+000
 0.000000E+000
 0.000000E+000
 0.000000E+000
 0.000000E+000
 0.000000E+000
 0.000000E+000
 0.000000E+000
 0.000000E+000
 0.000000E+000
 0.000000E+000
 0.000000E+000
 0.000000E+000
 0.000000E+000
 0.000000E+000
 0.000000E+000
 0.000000E+000
 0.000000E+000
 0.000000E+000
 0.000000E+000
 0.000000E+000
 0.000000E+000
 0.000000E+000
 0.000000E+000
 0.000000E+000
 0.000000E+000
 0.000000E+000
 0.000000E+000
 0.000000E+000
 0.000000E+000
 0.000000E+000
 0.000000E+000
 0.000000E+000
 0.000000E+000
 0.000000E+000
 0.000000E+000
 0.000000E+000
 0.000000E+000
 0.000000E+000
 0.000000E+000
 0.000000E+000
 0.000000E+000
 0.000000E+000
 0.000000E+000
 0.000000E+000
 0.000000E+000
 0.000000E+000
 0.000000E+000
 0.000000E+000
 0.000000E+000
 0.000000E+000
 0.000000E+000
 0.000000E+000
 0.000000E+000
 0.000000E+000
 0.000000E+000
 0.000000E+000
 0.000000E+000
 0.000000E+000
 0.000000E+000
 0.000000E+000
 0.000000E+000
 0.000000E+000
 0.000000E+000
 0.000000E+000
 0.000000E+000
 0.000000E+000
 0.000000E+000
 0.000000E+000
 0.000000E+000
 0.000000E+000
 0.000000E+000
 0.000000E+000
 0.000000E+000
 0.000000E+000
 0.000000E+000
 0.000000E+000
 0.000000E+000
 0.000000E+000
 0.000000E+000
 0.000000E+000
 0.000000E+000
 0.000000E+000
 0.000000E+000
 0.000000E+000
 0.000000E+000
 0.000000E+000
 0.000000E+000
 0.000000E+000
 0.000000E+000
 0.000000E+000
 0.000000E+000
 0.000000E+000
 0.000000E+000
 0.000000E+000
 0.000000E+000
 0.000000E+000
 0.000000E+000
 0.000000E+000
 0.000000E+000
 0.000000E+000
 0.000000E+000
 0.000000E+000
 0.000000E+000
 0.000000E+000
 0.000000E+000
 0.000000E+000
 0.000000E+000
 0.000000E+000
 0.000000E+000
 0.000000E+000
 0.000000E+000
 0.000000E+000
 0.000000E+000
 0.000000E+000
 0.000000E+000
 0.000000E+000
 0.000000E+000
 0.000000E+000
 0.000000E+000
 0.000000E+000
 0.000000E+000
 0.000000E+000
 0.000000E+000
 0.000000E+000
 0.000000E+000
 0.000000E+000
 0.000000E+000
 0.000000E+000
 0.000000E+000
 0.000000E+000
 0.000000E+000
 0.000000E+000
 0.000000E+000
 0.000000E+000
 0.000000E+000
 0.000000E+000
 0.000000E+000
 0.000000E+000
 0.000000E+000
 0.000000E+000
 0.000000E+000
 0.000000E+000
 0.000000E+000
 0.000000E+000
 0.000000E+000
 0.000000E+000
 0.000000E+000
 0.000000E+000
 0.000000E+000
 0.000000E+000
 0.000000E+000
 0.000000E+000
 0.000000E+000
 0.000000E+000
 0.000000E+000
 0.000000E+000
 0.000000E+000
 0.000000E+000
 0.000000E+000
 0.000000E+000
 0.000000E+000
 0.000000E+000
 0.000000E+000
 0.000000E+000
 0.000000E+000
 0.000000E+000
 0.000000E+000
 0.000000E+000
 0.000000E+000
 0.000000E+000
 0.000000E+000
 0.000000E+000
 0.000000E+000
 0.000000E+000
 0.000000E+000
 0.000000E+000
 0.000000E+000
 0.000000E+000
 0.000000E+000
 0.000000E+000
 0.000000E+000
 0.000000E+000
 0.000000E+000
 0.000000E+000
 0.000000E+000
 0.000000E+000
 0.000000E+000
 0.000000E+000
 0.000000E+000
 0.000000E+000
 0.000000E+000
 0.000000E+000
 0.000000E+000
 0.000000E+000
 0.000000E+000
 0.000000E+000
 0.000000E+000
 0.000000E+000
 0.000000E+000
 0.000000E+000
 0.000000E+000
 0.000000E+000
 0.000000E+000
 0.000000E+000
 0.000000E+000
 0.000000E+000
 0.000000E+000
 0.000000E+000
 0.000000E+000
 0.000000E+000
 0.000000E+000
 0.000000E+000
 0.000000E+000
 0.000000E+000
 0.000000E+000
 0.000000E+000
 0.000000E+000
 0.000000E+000
 0.000000E+000
 0.000000E+000
 0.000000E+000
 0.000000E+000
 0.000000E+000
 0.000000E+000
 0.000000E+000
 0.000000E+000
 0.000000E+000
 0.000000E+000
 0.000000E+000
 0.000000E+000
 0.000000E+000
 0.000000E+000
 0.000000E+000
 0.000000E+000
 0.000000E+000
 0.000000E+000
 0.000000E+000
 0.000000E+000
 0.000000E+000
 0.000000E+000
 0.000000E+000
 0.000000E+000
 0.000000E+000
 0.000000E+000
 0.000000E+000
 0.000000E+000
 0.000000E+000
 0.000000E+000
 0.000000E+000
 0.000000E+000
 0.000000E+000
 0.000000E+000
 0.000000E+000
 0.000000E+000
 0.000000E+000
 0.000000E+000
 0.000000E+000
 0.000000E+000
 0.000000E+000
 0.000000E+000
 0.000000E+000
 0.000000E+000
 0.000000E+000
 0.000000E+000
 0.000000E+000
 0.000000E+000
 0.000000E+000
 0.000000E+000
 0.000000E+000
 0.000000E+000
 0.000000E+000
 0.000000E+000
 0.000000E+000
 0.000000E+000
 0.000000E+000
 0.000000E+000
 0.000000E+000
 0.000000E+000
 0.000000E+000
 0.000000E+000
 0.000000E+000
 0.000000E+000
 0.000000E+000
 0.000000E+000
 0.000000E+000
 0.000000E+000
 0.000000E+000
 0.000000E+000
 0.000000E+000
 0.000000E+000
 0.000000E+000
 0.000000E+000
 0.000000E+000
 0.000000E+000
 0.000000E+000
 0.000000E+000
 0.000000E+000
 0.000000E+000
 0.000000E+000
 0.000000E+000
 0.000000E+000
 0.000000E+000
 0.000000E+000
 0.000000E+000
 0.000000E+000
 0.000000E+000
 0.000000E+000
 0.000000E+000
 0.000000E+000
 0.000000E+000
 0.000000E+000
 0.000000E+000
 0.000000E+000
 0.000000E+000
 0.000000E+000
 0.000000E+000
 0.000000E+000
 0.000000E+000
 0.000000E+000
 0.000000E+000
 0.000000E+000
 0.000000E+000
 0.000000E+000
 0.000000E+000
 0.000000E+000
 0.000000E+000
 0.000000E+000
 0.000000E+000
 0.000000E+000
 0.000000E+000
 0.000000E+000
 0.000000E+000
 0.000000E+000
 0.000000E+000
 0.000000E+000
 0.000000E+000
 0.000000E+000
 0.000000E+000
 0.000000E+000
 0.000000E+000
 0.000000E+000
 0.000000E+000
 0.000000E+000
 0.000000E+000
 0.000000E+000
 0.000000E+000
 0.000000E+000
 0.000000E+000
 0.000000E+000
 0.000000E+000
 0.000000E+000
 0.000000E+000
 0.000000E+000
 0.000000E+000
 0.000000E+000
 0.000000E+000
 0.000000E+000
 0.000000E+000
 0.000000E+000
 0.000000E+000
 0.000000E+000
 0.000000E+000
 0.000000E+000
 0.000000E+000
 0.000000E+000
 0.000000E+000
 0.000000E+000
 0.000000E+000
 0.000000E+000
 0.000000E+000
 0.000000E+000
 0.000000E+000
 0.000000E+000
 0.000000E+000
 0.000000E+000
 0.000000E+000
 0.000000E+000
 0.000000E+000
 0.000000E+000
 0.000000E+000
 0.000000E+000
 0.000000E+000
 0.000000E+000
 0.000000E+000
 0.000000E+000
 0.000000E+000
 0.000000E+000
 0.000000E+000
 0.000000E+000
 0.000000E+000
 0.000000E+000
 0.000000E+000
 0.000000E+000
 0.000000E+000
 0.000000E+000
 0.000000E+000
 0.000000E+000
 0.000000E+000
 0.000000E+000
 0.000000E+000
 0.000000E+000
 0.000000E+000
 0.000000E+000
 0.000000E+000
 0.000000E+000
 0.000000E+000
 0.000000E+000
 0.000000E+000
 0.000000E+000
 0.000000E+000
 0.000000E+000
 0.000000E+000
 0.000000E+000
 0.000000E+000
 0.000000E+000
 0.000000E+000
 0.000000E+000
 0.000000E+000
 0.000000E+000
 0.000000E+000
 0.000000E+000
 0.000000E+000
 0.000000E+000
 0.000000E+000
 0.000000E+000
 0.000000E+000
 0.000000E+000
 0.000000E+000
 0.000000E+000
 0.000000E+000
 0.000000E+000
 0.000000E+000
 0.000000E+000
 0.000000E+000
 0.000000E+000
 0.000000E+000
 0.000000E+000
 0.000000E+000
 0.000000E+000
 0.000000E+000
 0.000000E+000
 0.000000E+000
 0.000000E+000
 0.000000E+000
 0.000000E+000
 0.000000E+000
 0.000000E+000
 0.000000E+000
 0.000000E+000
 0.000000E+000
 0.000000E+000
 0.000000E+000
 0.000000E+000
 0.000000E+000
 0.000000E+000
 0.000000E+000
 0.000000E+000
 0.000000E+000
 0.000000E+000
 0.000000E+000
 0.000000E+000
 0.000000E+000
 0.000000E+000
 0.000000E+000
 0.000000E+000
 0.000000E+000
 0.000000E+000
 0.000000E+000
 0.000000E+000
 0.000000E+000
 0.000000E+000
 0.000000E+000
 0.000000E+000
 0.000000E+000
 0.000000E+000
 0.000000E+000
 0.000000E+000
 0.000000E+000
 0.000000E+000
 0.000000E+000
 0.000000E+000
 0.000000E+000
 0.000000E+000
 0.000000E+000
 0.000000E+000
 0.000000E+000
 0.000000E+000
 0.000000E+000
 0.000000E+000
 0.000000E+000
 0.000000E+000
 0.000000E+000
 0.000000E+000
 0.000000E+000
 0.000000E+000
 0.000000E+000
 0.000000E+000
 0.000000E+000
 0.000000E+000
 0.000000E+000
 0.000000E+000
 0.000000E+000
 0.000000E+000
 0.000000E+000
 0.000000E+000
 0.000000E+000
SCALARS stress_12 FLOAT     1
LOOKUP_TABLE default
-0.153119E-001
-0.161436E-001
-0.170438E-001
-0.180206E-001
-0.190834E-001
-0.202426E-001
-0.215107E-001
-0.229017E-001
-0.244324E-001
-0.261221E-001
-0.279939E-001
-0.300750E-001
-0.323981E-001
-0.350022E-001
-0.379347E-001
-0.412535E-001
-0.450301E-001
-0.493522E-001
-0.543328E-001
-0.601090E-001
-0.668703E-001
-0.748385E-001
-0.843536E-001
-0.957936E-001
-0.109811E+000
-0.127124E+000
-0.149050E+000
-0.177249E+000
-0.214493E+000
-0.265841E+000
-0.337497E+000
-0.453190E+000
-0.137305E-001
-0.144696E-001
-0.152713E-001
-0.161420E-001
-0.170898E-001
-0.181239E-001
-0.192556E-001
-0.204974E-001
-0.218645E-001
-0.233743E-001
-0.250477E-001
-0.269095E-001
-0.289895E-001
-0.313236E-001
-0.339552E-001
-0.369387E-001
-0.403391E-001
-0.442425E-001
-0.487495E-001
-0.540032E-001
-0.601689E-001
-0.674935E-001
-0.762790E-001
-0.869594E-001
-0.100179E+000
-0.116713E+000
-0.138156E+000
-0.166075E+000
-0.204759E+000
-0.259100E+000
-0.341078E+000
-0.483597E+000
-0.119648E-001
-0.126046E-001
-0.132992E-001
-0.140544E-001
-0.148770E-001
-0.157753E-001
-0.167589E-001
-0.178392E-001
-0.190293E-001
-0.203451E-001
-0.218050E-001
-0.234314E-001
-0.252513E-001
-0.272969E-001
-0.296090E-001
-0.322361E-001
-0.352416E-001
-0.387019E-001
-0.427189E-001
-0.474238E-001
-0.529814E-001
-0.596451E-001
-0.676839E-001
-0.776396E-001
-0.899950E-001
-0.105957E+000
-0.126699E+000
-0.154906E+000
-0.194630E+000
-0.252711E+000
-0.345343E+000
-0.511290E+000
-0.100122E-001
-0.105450E-001
-0.111241E-001
-0.117545E-001
-0.124422E-001
-0.131941E-001
-0.140186E-001
-0.149254E-001
-0.159260E-001
-0.170342E-001
-0.182663E-001
-0.196422E-001
-0.211858E-001
-0.229268E-001
-0.249014E-001
-0.271553E-001
-0.297466E-001
-0.327466E-001
-0.362576E-001
-0.403918E-001
-0.453450E-001
-0.513051E-001
-0.586608E-001
-0.677961E-001
-0.794739E-001
-0.947064E-001
-0.115060E+000
-0.143521E+000
-0.184422E+000
-0.246846E+000
-0.349409E+000
-0.537562E+000
-0.787221E-002
-0.829028E-002
-0.874576E-002
-0.924272E-002
-0.978608E-002
-0.103817E-001
-0.110364E-001
-0.117585E-001
-0.125577E-001
-0.134458E-001
-0.144371E-001
-0.155487E-001
-0.168020E-001
-0.182234E-001
-0.198455E-001
-0.217114E-001
-0.238717E-001
-0.264022E-001
-0.293840E-001
-0.329568E-001
-0.372665E-001
-0.425714E-001
-0.491873E-001
-0.575967E-001
-0.685713E-001
-0.831604E-001
-0.103281E+000
-0.131963E+000
-0.174447E+000
-0.241203E+000
-0.353448E+000
-0.562183E+000
-0.554754E-002
-0.584360E-002
-0.616769E-002
-0.652300E-002
-0.691338E-002
-0.734346E-002
-0.781877E-002
-0.834598E-002
-0.893314E-002
-0.959006E-002
-0.103288E-001
-0.111642E-001
-0.121150E-001
-0.132040E-001
-0.144624E-001
-0.159261E-001
-0.176492E-001
-0.196918E-001
-0.221504E-001
-0.251383E-001
-0.288284E-001
-0.334619E-001
-0.393701E-001
-0.470883E-001
-0.573761E-001
-0.714564E-001
-0.913763E-001
-0.120449E+000
-0.164710E+000
-0.235797E+000
-0.357399E+000
-0.584933E+000
-0.304481E-002
-0.321217E-002
-0.339785E-002
-0.360412E-002
-0.383377E-002
-0.409020E-002
-0.437758E-002
-0.470106E-002
-0.506697E-002
-0.548326E-002
-0.595981E-002
-0.650936E-002
-0.714752E-002
-0.789579E-002
-0.877954E-002
-0.983621E-002
-0.111100E-001
-0.126670E-001
-0.145921E-001
-0.170048E-001
-0.200791E-001
-0.240535E-001
-0.292926E-001
-0.363400E-001
-0.460173E-001
-0.596673E-001
-0.794722E-001
-0.109099E+000
-0.155258E+000
-0.230642E+000
-0.361169E+000
-0.605546E+000
-0.375227E-003
-0.408074E-003
-0.449294E-003
-0.500226E-003
-0.562582E-003
-0.638567E-003
-0.731010E-003
-0.843552E-003
-0.980923E-003
-0.114917E-002
-0.135637E-002
-0.161264E-002
-0.193214E-002
-0.233222E-002
-0.283805E-002
-0.348120E-002
-0.430678E-002
-0.537602E-002
-0.677309E-002
-0.862061E-002
-0.110904E-001
-0.144352E-001
-0.190354E-001
-0.254603E-001
-0.346014E-001
-0.478983E-001
-0.676950E-001
-0.980146E-001
-0.146140E+000
-0.225749E+000
-0.364627E+000
-0.623755E+000
 0.244464E-002
 0.255099E-002
 0.265904E-002
 0.276839E-002
 0.287838E-002
 0.298799E-002
 0.309569E-002
 0.319924E-002
 0.329553E-002
 0.338010E-002
 0.344701E-002
 0.348764E-002
 0.349081E-002
 0.344028E-002
 0.331447E-002
 0.308291E-002
 0.270290E-002
 0.211524E-002
 0.123432E-002
-0.621474E-004
-0.195168E-002
-0.469905E-002
-0.870100E-002
-0.145630E-001
-0.232412E-001
-0.362691E-001
-0.561683E-001
-0.872862E-001
-0.137410E+000
-0.221103E+000
-0.367617E+000
-0.639298E+000
 0.539223E-002
 0.564105E-002
 0.590166E-002
 0.617457E-002
 0.646016E-002
 0.675854E-002
 0.706939E-002
 0.739186E-002
 0.772422E-002
 0.806374E-002
 0.840592E-002
 0.874433E-002
 0.906922E-002
 0.936675E-002
 0.961694E-002
 0.979099E-002
 0.984800E-002
 0.972869E-002
 0.934719E-002
 0.857861E-002
 0.723819E-002
 0.504955E-002
 0.159545E-002
-0.376852E-002
-0.120589E-001
-0.249065E-001
-0.450087E-001
-0.770004E-001
-0.129115E+000
-0.216669E+000
-0.369972E+000
-0.651924E+000
 0.843835E-002
 0.883124E-002
 0.924587E-002
 0.968368E-002
 0.101460E-001
 0.106340E-001
 0.111486E-001
 0.116900E-001
 0.122580E-001
 0.128511E-001
 0.134665E-001
 0.140992E-001
 0.147412E-001
 0.153802E-001
 0.159976E-001
 0.165660E-001
 0.170450E-001
 0.173752E-001
 0.174692E-001
 0.171981E-001
 0.163692E-001
 0.146931E-001
 0.117295E-001
 0.679559E-002
-0.118434E-002
-0.139386E-001
-0.343280E-001
-0.672378E-001
-0.121287E+000
-0.212389E+000
-0.371513E+000
-0.661397E+000
 0.115467E-001
 0.120833E-001
 0.126513E-001
 0.132531E-001
 0.138909E-001
 0.145668E-001
 0.152827E-001
 0.160401E-001
 0.168398E-001
 0.176818E-001
 0.185643E-001
 0.194838E-001
 0.204336E-001
 0.214026E-001
 0.223732E-001
 0.233188E-001
 0.241989E-001
 0.249534E-001
 0.254923E-001
 0.256816E-001
 0.253202E-001
 0.241042E-001
 0.215692E-001
 0.169951E-001
 0.924860E-002
-0.349189E-002
-0.242321E-001
-0.580709E-001
-0.113943E+000
-0.208188E+000
-0.372058E+000
-0.667501E+000
 0.146735E-001
 0.153512E-001
 0.160697E-001
 0.168320E-001
 0.176412E-001
 0.185004E-001
 0.194123E-001
 0.203793E-001
 0.214034E-001
 0.224854E-001
 0.236249E-001
 0.248192E-001
 0.260627E-001
 0.273450E-001
 0.286495E-001
 0.299493E-001
 0.312038E-001
 0.323510E-001
 0.332979E-001
 0.339046E-001
 0.339608E-001
 0.331473E-001
 0.309763E-001
 0.266916E-001
 0.191052E-001
 0.631122E-002
-0.148198E-001
-0.495604E-001
-0.107083E+000
-0.203975E+000
-0.371423E+000
-0.670043E+000
 0.177675E-001
 0.185813E-001
 0.194447E-001
 0.203614E-001
 0.213351E-001
 0.223697E-001
 0.234688E-001
 0.246355E-001
 0.258727E-001
 0.271819E-001
 0.285637E-001
 0.300162E-001
 0.315343E-001
 0.331084E-001
 0.347217E-001
 0.363473E-001
 0.379435E-001
 0.394461E-001
 0.407583E-001
 0.417342E-001
 0.421534E-001
 0.416819E-001
 0.398090E-001
 0.357454E-001
 0.282533E-001
 0.153546E-001
-0.617987E-002
-0.417535E-001
-0.100689E+000
-0.199645E+000
-0.369432E+000
-0.668853E+000
 0.207702E-001
 0.217125E-001
 0.227125E-001
 0.237743E-001
 0.249025E-001
 0.261015E-001
 0.273754E-001
 0.287281E-001
 0.301630E-001
 0.316825E-001
 0.332876E-001
 0.349769E-001
 0.367457E-001
 0.385846E-001
 0.404766E-001
 0.423941E-001
 0.442939E-001
 0.461092E-001
 0.477393E-001
 0.490315E-001
 0.497559E-001
 0.495642E-001
 0.479249E-001
 0.440189E-001
 0.365661E-001
 0.235307E-001
 0.161040E-002
-0.346817E-001
-0.947276E-001
-0.195087E+000
-0.365912E+000
-0.663794E+000
 0.236165E-001
 0.246770E-001
 0.258022E-001
 0.269970E-001
 0.282664E-001
 0.296151E-001
 0.310478E-001
 0.325690E-001
 0.341824E-001
 0.358909E-001
 0.376957E-001
 0.395958E-001
 0.415867E-001
 0.436585E-001
 0.457941E-001
 0.479646E-001
 0.501251E-001
 0.522060E-001
 0.541023E-001
 0.556550E-001
 0.566252E-001
 0.566515E-001
 0.551844E-001
 0.513800E-001
 0.439253E-001
 0.307436E-001
 0.848806E-002
-0.283608E-001
-0.891519E-001
-0.190184E+000
-0.360705E+000
-0.654757E+000
 0.262359E-001
 0.274012E-001
 0.286375E-001
 0.299499E-001
 0.313438E-001
 0.328242E-001
 0.343963E-001
 0.360646E-001
 0.378332E-001
 0.397052E-001
 0.416819E-001
 0.437625E-001
 0.459421E-001
 0.482107E-001
 0.505501E-001
 0.529303E-001
 0.553045E-001
 0.576003E-001
 0.597083E-001
 0.614641E-001
 0.626204E-001
 0.628050E-001
 0.614543E-001
 0.577057E-001
 0.502244E-001
 0.369112E-001
 0.144058E-001
-0.227906E-001
-0.839026E-001
-0.184821E+000
-0.353669E+000
-0.641669E+000
 0.285539E-001
 0.298080E-001
 0.311382E-001
 0.325498E-001
 0.340483E-001
 0.356391E-001
 0.373273E-001
 0.391177E-001
 0.410144E-001
 0.430206E-001
 0.451375E-001
 0.473641E-001
 0.496952E-001
 0.521201E-001
 0.546198E-001
 0.571630E-001
 0.597007E-001
 0.621580E-001
 0.644218E-001
 0.663227E-001
 0.676071E-001
 0.678947E-001
 0.666119E-001
 0.628856E-001
 0.553713E-001
 0.419676E-001
 0.193332E-001
-0.179560E-001
-0.789119E-001
-0.178881E+000
-0.344680E+000
-0.624495E+000
 0.304944E-001
 0.318185E-001
 0.332225E-001
 0.347120E-001
 0.362923E-001
 0.379688E-001
 0.397467E-001
 0.416308E-001
 0.436251E-001
 0.457326E-001
 0.479545E-001
 0.502891E-001
 0.527309E-001
 0.552686E-001
 0.578819E-001
 0.605384E-001
 0.631874E-001
 0.657515E-001
 0.681148E-001
 0.701041E-001
 0.714618E-001
 0.718028E-001
 0.705491E-001
 0.668255E-001
 0.592914E-001
 0.458647E-001
 0.232569E-001
-0.138279E-001
-0.741060E-001
-0.172260E+000
-0.333641E+000
-0.603236E+000
 0.319819E-001
 0.333549E-001
 0.348103E-001
 0.363535E-001
 0.379900E-001
 0.397248E-001
 0.415631E-001
 0.435096E-001
 0.455679E-001
 0.477409E-001
 0.500292E-001
 0.524311E-001
 0.549402E-001
 0.575443E-001
 0.602226E-001
 0.629413E-001
 0.656481E-001
 0.682642E-001
 0.706717E-001
 0.726956E-001
 0.740764E-001
 0.744285E-001
 0.731758E-001
 0.694504E-001
 0.619301E-001
 0.485740E-001
 0.261807E-001
-0.103657E-001
-0.694089E-001
-0.164861E+000
-0.320479E+000
-0.577934E+000
 0.329455E-001
 0.343439E-001
 0.358259E-001
 0.373966E-001
 0.390611E-001
 0.408245E-001
 0.426915E-001
 0.446664E-001
 0.467528E-001
 0.489531E-001
 0.512674E-001
 0.536935E-001
 0.562245E-001
 0.588475E-001
 0.615408E-001
 0.642697E-001
 0.669813E-001
 0.695957E-001
 0.719945E-001
 0.740028E-001
 0.753626E-001
 0.756921E-001
 0.744239E-001
 0.707074E-001
 0.632541E-001
 0.500869E-001
 0.281247E-001
-0.751904E-002
-0.647455E-001
-0.156605E+000
-0.305154E+000
-0.548673E+000
 0.333214E-001
 0.347203E-001
 0.362023E-001
 0.377723E-001
 0.394351E-001
 0.411953E-001
 0.430574E-001
 0.450253E-001
 0.471021E-001
 0.492898E-001
 0.515882E-001
 0.539943E-001
 0.565009E-001
 0.590944E-001
 0.617527E-001
 0.644406E-001
 0.671049E-001
 0.696661E-001
 0.720069E-001
 0.739546E-001
 0.752560E-001
 0.755384E-001
 0.742501E-001
 0.705684E-001
 0.632538E-001
 0.504151E-001
 0.291240E-001
-0.523059E-002
-0.600449E-001
-0.147428E+000
-0.287657E+000
-0.515575E+000
 0.330573E-001
 0.344304E-001
 0.358848E-001
 0.374248E-001
 0.390548E-001
 0.407790E-001
 0.426015E-001
 0.445257E-001
 0.465545E-001
 0.486890E-001
 0.509289E-001
 0.532707E-001
 0.557065E-001
 0.582227E-001
 0.607968E-001
 0.633940E-001
 0.659615E-001
 0.684214E-001
 0.706590E-001
 0.725069E-001
 0.737202E-001
 0.739401E-001
 0.726386E-001
 0.690313E-001
 0.619430E-001
 0.495901E-001
 0.292274E-001
-0.343837E-002
-0.552437E-001
-0.137291E+000
-0.268015E+000
-0.478808E+000
 0.321157E-001
 0.334363E-001
 0.348348E-001
 0.363149E-001
 0.378806E-001
 0.395357E-001
 0.412836E-001
 0.431275E-001
 0.450695E-001
 0.471106E-001
 0.492499E-001
 0.514834E-001
 0.538033E-001
 0.561958E-001
 0.586387E-001
 0.610978E-001
 0.635222E-001
 0.658367E-001
 0.679313E-001
 0.696463E-001
 0.707491E-001
 0.709004E-001
 0.696029E-001
 0.661215E-001
 0.593598E-001
 0.476624E-001
 0.284957E-001
-0.207839E-002
-0.502883E-001
-0.126177E+000
-0.246289E+000
-0.438575E+000
 0.304776E-001
 0.317191E-001
 0.330336E-001
 0.344243E-001
 0.358945E-001
 0.374475E-001
 0.390865E-001
 0.408139E-001
 0.426315E-001
 0.445399E-001
 0.465378E-001
 0.486211E-001
 0.507818E-001
 0.530066E-001
 0.552739E-001
 0.575513E-001
 0.597903E-001
 0.619200E-001
 0.638373E-001
 0.653927E-001
 0.663699E-001
 0.664544E-001
 0.651869E-001
 0.618919E-001
 0.555657E-001
 0.447002E-001
 0.269991E-001
-0.108701E-002
-0.451381E-001
-0.114093E+000
-0.222578E+000
-0.395123E+000
 0.281451E-001
 0.292818E-001
 0.304851E-001
 0.317576E-001
 0.331023E-001
 0.345219E-001
 0.360188E-001
 0.375954E-001
 0.392528E-001
 0.409913E-001
 0.428093E-001
 0.447028E-001
 0.466641E-001
 0.486805E-001
 0.507318E-001
 0.527877E-001
 0.548037E-001
 0.567144E-001
 0.584255E-001
 0.598007E-001
 0.606437E-001
 0.606697E-001
 0.594650E-001
 0.564226E-001
 0.506447E-001
 0.407878E-001
 0.248159E-001
-0.402960E-003
-0.397661E-001
-0.101074E+000
-0.197016E+000
-0.348732E+000
 0.251435E-001
 0.261513E-001
 0.272179E-001
 0.283456E-001
 0.295366E-001
 0.307932E-001
 0.321175E-001
 0.335112E-001
 0.349752E-001
 0.365096E-001
 0.381125E-001
 0.397802E-001
 0.415056E-001
 0.432769E-001
 0.450759E-001
 0.468755E-001
 0.486357E-001
 0.502984E-001
 0.517800E-001
 0.529600E-001
 0.536655E-001
 0.536465E-001
 0.525409E-001
 0.498194E-001
 0.447015E-001
 0.360239E-001
 0.220303E-001
 0.310010E-004
-0.341607E-001
-0.871811E-001
-0.169769E+000
-0.299719E+000
 0.215224E-001
 0.223793E-001
 0.232862E-001
 0.242448E-001
 0.252568E-001
 0.263240E-001
 0.274481E-001
 0.286304E-001
 0.298714E-001
 0.311711E-001
 0.325277E-001
 0.339379E-001
 0.353952E-001
 0.368895E-001
 0.384050E-001
 0.399184E-001
 0.413953E-001
 0.427863E-001
 0.440200E-001
 0.449945E-001
 0.455632E-001
 0.455155E-001
 0.445465E-001
 0.422122E-001
 0.378598E-001
 0.305192E-001
 0.187307E-001
 0.266996E-003
-0.283255E-001
-0.724988E-001
-0.141037E+000
-0.248430E+000
 0.173549E-001
 0.180422E-001
 0.187695E-001
 0.195380E-001
 0.203491E-001
 0.212042E-001
 0.221044E-001
 0.230506E-001
 0.240434E-001
 0.250824E-001
 0.261662E-001
 0.272919E-001
 0.284542E-001
 0.296448E-001
 0.308508E-001
 0.320534E-001
 0.332248E-001
 0.343251E-001
 0.352974E-001
 0.360596E-001
 0.364950E-001
 0.364356E-001
 0.356388E-001
 0.337525E-001
 0.302598E-001
 0.243949E-001
 0.150083E-001
 0.351467E-003
-0.222788E-001
-0.571358E-001
-0.111049E+000
-0.195241E+000
 0.127363E-001
 0.132386E-001
 0.137701E-001
 0.143317E-001
 0.149242E-001
 0.155486E-001
 0.162057E-001
 0.168962E-001
 0.176204E-001
 0.183778E-001
 0.191676E-001
 0.199873E-001
 0.208331E-001
 0.216988E-001
 0.225750E-001
 0.234476E-001
 0.242964E-001
 0.250921E-001
 0.257929E-001
 0.263392E-001
 0.266457E-001
 0.265902E-001
 0.259967E-001
 0.246098E-001
 0.220554E-001
 0.177803E-001
 0.109562E-001
 0.325203E-003
-0.160523E-001
-0.412207E-001
-0.800557E-001
-0.140548E+000
 0.778082E-002
 0.808683E-002
 0.841062E-002
 0.875266E-002
 0.911351E-002
 0.949371E-002
 0.989374E-002
 0.103140E-001
 0.107545E-001
 0.112152E-001
 0.116953E-001
 0.121935E-001
 0.127073E-001
 0.132329E-001
 0.137644E-001
 0.142935E-001
 0.148075E-001
 0.152887E-001
 0.157117E-001
 0.160400E-001
 0.162219E-001
 0.161831E-001
 0.158169E-001
 0.149684E-001
 0.134113E-001
 0.108112E-001
 0.666815E-002
 0.223926E-003
-0.968867E-002
-0.248988E-001
-0.483305E-001
-0.847674E-001
 0.261709E-002
 0.271987E-002
 0.282862E-002
 0.294350E-002
 0.306468E-002
 0.319235E-002
 0.332665E-002
 0.346772E-002
 0.361559E-002
 0.377019E-002
 0.393129E-002
 0.409841E-002
 0.427072E-002
 0.444695E-002
 0.462512E-002
 0.480237E-002
 0.497451E-002
 0.513555E-002
 0.527693E-002
 0.538646E-002
 0.544673E-002
 0.543286E-002
 0.530905E-002
 0.502344E-002
 0.450028E-002
 0.362768E-002
 0.223846E-002
 0.793547E-004
-0.323929E-002
-0.832756E-002
-0.161600E-001
-0.283292E-001
-0.261709E-002
-0.271987E-002
-0.282862E-002
-0.294350E-002
-0.306468E-002
-0.319235E-002
-0.332665E-002
-0.346772E-002
-0.361559E-002
-0.377019E-002
-0.393129E-002
-0.409841E-002
-0.427072E-002
-0.444695E-002
-0.462512E-002
-0.480237E-002
-0.497451E-002
-0.513555E-002
-0.527693E-002
-0.538646E-002
-0.544673E-002
-0.543286E-002
-0.530905E-002
-0.502344E-002
-0.450028E-002
-0.362768E-002
-0.223846E-002
-0.793547E-004
 0.323929E-002
 0.832756E-002
 0.161600E-001
 0.283292E-001
-0.778082E-002
-0.808683E-002
-0.841062E-002
-0.875266E-002
-0.911351E-002
-0.949371E-002
-0.989374E-002
-0.103140E-001
-0.107545E-001
-0.112152E-001
-0.116953E-001
-0.121935E-001
-0.127073E-001
-0.132329E-001
-0.137644E-001
-0.142935E-001
-0.148075E-001
-0.152887E-001
-0.157117E-001
-0.160400E-001
-0.162219E-001
-0.161831E-001
-0.158169E-001
-0.149684E-001
-0.134113E-001
-0.108112E-001
-0.666815E-002
-0.223926E-003
 0.968867E-002
 0.248988E-001
 0.483305E-001
 0.847674E-001
-0.127363E-001
-0.132386E-001
-0.137701E-001
-0.143317E-001
-0.149242E-001
-0.155486E-001
-0.162057E-001
-0.168962E-001
-0.176204E-001
-0.183778E-001
-0.191676E-001
-0.199873E-001
-0.208331E-001
-0.216988E-001
-0.225750E-001
-0.234476E-001
-0.242964E-001
-0.250921E-001
-0.257929E-001
-0.263392E-001
-0.266457E-001
-0.265902E-001
-0.259967E-001
-0.246098E-001
-0.220554E-001
-0.177803E-001
-0.109562E-001
-0.325203E-003
 0.160523E-001
 0.412207E-001
 0.800557E-001
 0.140548E+000
-0.173549E-001
-0.180422E-001
-0.187695E-001
-0.195380E-001
-0.203491E-001
-0.212042E-001
-0.221044E-001
-0.230506E-001
-0.240434E-001
-0.250824E-001
-0.261662E-001
-0.272919E-001
-0.284542E-001
-0.296448E-001
-0.308508E-001
-0.320534E-001
-0.332248E-001
-0.343251E-001
-0.352974E-001
-0.360596E-001
-0.364950E-001
-0.364356E-001
-0.356388E-001
-0.337525E-001
-0.302598E-001
-0.243949E-001
-0.150083E-001
-0.351467E-003
 0.222788E-001
 0.571358E-001
 0.111049E+000
 0.195241E+000
-0.215224E-001
-0.223793E-001
-0.232862E-001
-0.242448E-001
-0.252568E-001
-0.263240E-001
-0.274481E-001
-0.286304E-001
-0.298714E-001
-0.311711E-001
-0.325277E-001
-0.339379E-001
-0.353952E-001
-0.368895E-001
-0.384050E-001
-0.399184E-001
-0.413953E-001
-0.427863E-001
-0.440200E-001
-0.449945E-001
-0.455632E-001
-0.455155E-001
-0.445465E-001
-0.422122E-001
-0.378598E-001
-0.305192E-001
-0.187307E-001
-0.266996E-003
 0.283255E-001
 0.724988E-001
 0.141037E+000
 0.248430E+000
-0.251435E-001
-0.261513E-001
-0.272179E-001
-0.283456E-001
-0.295366E-001
-0.307932E-001
-0.321175E-001
-0.335112E-001
-0.349752E-001
-0.365096E-001
-0.381125E-001
-0.397802E-001
-0.415056E-001
-0.432769E-001
-0.450759E-001
-0.468755E-001
-0.486357E-001
-0.502984E-001
-0.517800E-001
-0.529600E-001
-0.536655E-001
-0.536465E-001
-0.525409E-001
-0.498194E-001
-0.447015E-001
-0.360239E-001
-0.220303E-001
-0.310010E-004
 0.341607E-001
 0.871811E-001
 0.169769E+000
 0.299719E+000
-0.281451E-001
-0.292818E-001
-0.304851E-001
-0.317576E-001
-0.331023E-001
-0.345219E-001
-0.360188E-001
-0.375954E-001
-0.392528E-001
-0.409913E-001
-0.428093E-001
-0.447028E-001
-0.466641E-001
-0.486805E-001
-0.507318E-001
-0.527877E-001
-0.548037E-001
-0.567144E-001
-0.584255E-001
-0.598007E-001
-0.606437E-001
-0.606697E-001
-0.594650E-001
-0.564226E-001
-0.506447E-001
-0.407878E-001
-0.248159E-001
 0.402960E-003
 0.397661E-001
 0.101074E+000
 0.197016E+000
 0.348732E+000
-0.304776E-001
-0.317191E-001
-0.330336E-001
-0.344243E-001
-0.358945E-001
-0.374475E-001
-0.390865E-001
-0.408139E-001
-0.426315E-001
-0.445399E-001
-0.465378E-001
-0.486211E-001
-0.507818E-001
-0.530066E-001
-0.552739E-001
-0.575513E-001
-0.597903E-001
-0.619200E-001
-0.638373E-001
-0.653927E-001
-0.663699E-001
-0.664544E-001
-0.651869E-001
-0.618919E-001
-0.555657E-001
-0.447002E-001
-0.269991E-001
 0.108701E-002
 0.451381E-001
 0.114093E+000
 0.222578E+000
 0.395123E+000
-0.321157E-001
-0.334363E-001
-0.348348E-001
-0.363149E-001
-0.378806E-001
-0.395357E-001
-0.412836E-001
-0.431275E-001
-0.450695E-001
-0.471106E-001
-0.492499E-001
-0.514834E-001
-0.538033E-001
-0.561958E-001
-0.586387E-001
-0.610978E-001
-0.635222E-001
-0.658367E-001
-0.679313E-001
-0.696463E-001
-0.707491E-001
-0.709004E-001
-0.696029E-001
-0.661215E-001
-0.593598E-001
-0.476624E-001
-0.284957E-001
 0.207839E-002
 0.502883E-001
 0.126177E+000
 0.246289E+000
 0.438575E+000
-0.330573E-001
-0.344304E-001
-0.358848E-001
-0.374248E-001
-0.390548E-001
-0.407790E-001
-0.426015E-001
-0.445257E-001
-0.465545E-001
-0.486890E-001
-0.509289E-001
-0.532707E-001
-0.557065E-001
-0.582227E-001
-0.607968E-001
-0.633940E-001
-0.659615E-001
-0.684214E-001
-0.706590E-001
-0.725069E-001
-0.737202E-001
-0.739401E-001
-0.726386E-001
-0.690313E-001
-0.619430E-001
-0.495901E-001
-0.292274E-001
 0.343837E-002
 0.552437E-001
 0.137291E+000
 0.268015E+000
 0.478808E+000
-0.333214E-001
-0.347203E-001
-0.362023E-001
-0.377723E-001
-0.394351E-001
-0.411953E-001
-0.430574E-001
-0.450253E-001
-0.471021E-001
-0.492898E-001
-0.515882E-001
-0.539943E-001
-0.565009E-001
-0.590944E-001
-0.617527E-001
-0.644406E-001
-0.671049E-001
-0.696661E-001
-0.720069E-001
-0.739546E-001
-0.752560E-001
-0.755384E-001
-0.742501E-001
-0.705684E-001
-0.632538E-001
-0.504151E-001
-0.291240E-001
 0.523059E-002
 0.600449E-001
 0.147428E+000
 0.287657E+000
 0.515575E+000
-0.329455E-001
-0.343439E-001
-0.358259E-001
-0.373966E-001
-0.390611E-001
-0.408245E-001
-0.426915E-001
-0.446664E-001
-0.467528E-001
-0.489531E-001
-0.512674E-001
-0.536935E-001
-0.562245E-001
-0.588475E-001
-0.615408E-001
-0.642697E-001
-0.669813E-001
-0.695957E-001
-0.719945E-001
-0.740028E-001
-0.753626E-001
-0.756921E-001
-0.744239E-001
-0.707074E-001
-0.632541E-001
-0.500869E-001
-0.281247E-001
 0.751904E-002
 0.647455E-001
 0.156605E+000
 0.305154E+000
 0.548673E+000
-0.319819E-001
-0.333549E-001
-0.348103E-001
-0.363535E-001
-0.379900E-001
-0.397248E-001
-0.415631E-001
-0.435096E-001
-0.455679E-001
-0.477409E-001
-0.500292E-001
-0.524311E-001
-0.549402E-001
-0.575443E-001
-0.602226E-001
-0.629413E-001
-0.656481E-001
-0.682642E-001
-0.706717E-001
-0.726956E-001
-0.740764E-001
-0.744285E-001
-0.731758E-001
-0.694504E-001
-0.619301E-001
-0.485740E-001
-0.261807E-001
 0.103657E-001
 0.694089E-001
 0.164861E+000
 0.320479E+000
 0.577934E+000
-0.304944E-001
-0.318185E-001
-0.332225E-001
-0.347120E-001
-0.362923E-001
-0.379688E-001
-0.397467E-001
-0.416308E-001
-0.436251E-001
-0.457326E-001
-0.479545E-001
-0.502891E-001
-0.527309E-001
-0.552686E-001
-0.578819E-001
-0.605384E-001
-0.631874E-001
-0.657515E-001
-0.681148E-001
-0.701041E-001
-0.714618E-001
-0.718028E-001
-0.705491E-001
-0.668255E-001
-0.592914E-001
-0.458647E-001
-0.232569E-001
 0.138279E-001
 0.741060E-001
 0.172260E+000
 0.333641E+000
 0.603236E+000
-0.285539E-001
-0.298080E-001
-0.311382E-001
-0.325498E-001
-0.340483E-001
-0.356391E-001
-0.373273E-001
-0.391177E-001
-0.410144E-001
-0.430206E-001
-0.451375E-001
-0.473641E-001
-0.496952E-001
-0.521201E-001
-0.546198E-001
-0.571630E-001
-0.597007E-001
-0.621580E-001
-0.644218E-001
-0.663227E-001
-0.676071E-001
-0.678947E-001
-0.666119E-001
-0.628856E-001
-0.553713E-001
-0.419676E-001
-0.193332E-001
 0.179560E-001
 0.789119E-001
 0.178881E+000
 0.344680E+000
 0.624495E+000
-0.262359E-001
-0.274012E-001
-0.286375E-001
-0.299499E-001
-0.313438E-001
-0.328242E-001
-0.343963E-001
-0.360646E-001
-0.378332E-001
-0.397052E-001
-0.416819E-001
-0.437625E-001
-0.459421E-001
-0.482107E-001
-0.505501E-001
-0.529303E-001
-0.553045E-001
-0.576003E-001
-0.597083E-001
-0.614641E-001
-0.626204E-001
-0.628050E-001
-0.614543E-001
-0.577057E-001
-0.502244E-001
-0.369112E-001
-0.144058E-001
 0.227906E-001
 0.839026E-001
 0.184821E+000
 0.353669E+000
 0.641669E+000
-0.236165E-001
-0.246770E-001
-0.258022E-001
-0.269970E-001
-0.282664E-001
-0.296151E-001
-0.310478E-001
-0.325690E-001
-0.341824E-001
-0.358909E-001
-0.376957E-001
-0.395958E-001
-0.415867E-001
-0.436585E-001
-0.457941E-001
-0.479646E-001
-0.501251E-001
-0.522060E-001
-0.541023E-001
-0.556550E-001
-0.566252E-001
-0.566515E-001
-0.551844E-001
-0.513800E-001
-0.439253E-001
-0.307436E-001
-0.848806E-002
 0.283608E-001
 0.891519E-001
 0.190184E+000
 0.360705E+000
 0.654757E+000
-0.207702E-001
-0.217125E-001
-0.227125E-001
-0.237743E-001
-0.249025E-001
-0.261015E-001
-0.273754E-001
-0.287281E-001
-0.301630E-001
-0.316825E-001
-0.332876E-001
-0.349769E-001
-0.367457E-001
-0.385846E-001
-0.404766E-001
-0.423941E-001
-0.442939E-001
-0.461092E-001
-0.477393E-001
-0.490315E-001
-0.497559E-001
-0.495642E-001
-0.479249E-001
-0.440189E-001
-0.365661E-001
-0.235307E-001
-0.161040E-002
 0.346817E-001
 0.947276E-001
 0.195087E+000
 0.365912E+000
 0.663794E+000
-0.177675E-001
-0.185813E-001
-0.194447E-001
-0.203614E-001
-0.213351E-001
-0.223697E-001
-0.234688E-001
-0.246355E-001
-0.258727E-001
-0.271819E-001
-0.285637E-001
-0.300162E-001
-0.315343E-001
-0.331084E-001
-0.347217E-001
-0.363473E-001
-0.379435E-001
-0.394461E-001
-0.407583E-001
-0.417342E-001
-0.421534E-001
-0.416819E-001
-0.398090E-001
-0.357454E-001
-0.282533E-001
-0.153546E-001
 0.617987E-002
 0.417535E-001
 0.100689E+000
 0.199645E+000
 0.369432E+000
 0.668853E+000
-0.146735E-001
-0.153512E-001
-0.160697E-001
-0.168320E-001
-0.176412E-001
-0.185004E-001
-0.194123E-001
-0.203793E-001
-0.214034E-001
-0.224854E-001
-0.236249E-001
-0.248192E-001
-0.260627E-001
-0.273450E-001
-0.286495E-001
-0.299493E-001
-0.312038E-001
-0.323510E-001
-0.332979E-001
-0.339046E-001
-0.339608E-001
-0.331473E-001
-0.309763E-001
-0.266916E-001
-0.191052E-001
-0.631122E-002
 0.148198E-001
 0.495604E-001
 0.107083E+000
 0.203975E+000
 0.371423E+000
 0.670043E+000
-0.115467E-001
-0.120833E-001
-0.126513E-001
-0.132531E-001
-0.138909E-001
-0.145668E-001
-0.152827E-001
-0.160401E-001
-0.168398E-001
-0.176818E-001
-0.185643E-001
-0.194838E-001
-0.204336E-001
-0.214026E-001
-0.223732E-001
-0.233188E-001
-0.241989E-001
-0.249534E-001
-0.254923E-001
-0.256816E-001
-0.253202E-001
-0.241042E-001
-0.215692E-001
-0.169951E-001
-0.924860E-002
 0.349189E-002
 0.242321E-001
 0.580709E-001
 0.113943E+000
 0.208188E+000
 0.372058E+000
 0.667501E+000
-0.843835E-002
-0.883124E-002
-0.924587E-002
-0.968368E-002
-0.101460E-001
-0.106340E-001
-0.111486E-001
-0.116900E-001
-0.122580E-001
-0.128511E-001
-0.134665E-001
-0.140992E-001
-0.147412E-001
-0.153802E-001
-0.159976E-001
-0.165660E-001
-0.170450E-001
-0.173752E-001
-0.174692E-001
-0.171981E-001
-0.163692E-001
-0.146931E-001
-0.117295E-001
-0.679559E-002
 0.118434E-002
 0.139386E-001
 0.343280E-001
 0.672378E-001
 0.121287E+000
 0.212389E+000
 0.371513E+000
 0.661397E+000
-0.539223E-002
-0.564105E-002
-0.590166E-002
-0.617457E-002
-0.646016E-002
-0.675854E-002
-0.706939E-002
-0.739186E-002
-0.772422E-002
-0.806374E-002
-0.840592E-002
-0.874433E-002
-0.906922E-002
-0.936675E-002
-0.961694E-002
-0.979099E-002
-0.984800E-002
-0.972869E-002
-0.934719E-002
-0.857861E-002
-0.723819E-002
-0.504955E-002
-0.159545E-002
 0.376852E-002
 0.120589E-001
 0.249065E-001
 0.450087E-001
 0.770004E-001
 0.129115E+000
 0.216669E+000
 0.369972E+000
 0.651924E+000
-0.244464E-002
-0.255099E-002
-0.265904E-002
-0.276839E-002
-0.287838E-002
-0.298799E-002
-0.309569E-002
-0.319924E-002
-0.329553E-002
-0.338010E-002
-0.344701E-002
-0.348764E-002
-0.349081E-002
-0.344028E-002
-0.331447E-002
-0.308291E-002
-0.270290E-002
-0.211524E-002
-0.123432E-002
 0.621474E-004
 0.195168E-002
 0.469905E-002
 0.870100E-002
 0.145630E-001
 0.232412E-001
 0.362691E-001
 0.561683E-001
 0.872862E-001
 0.137410E+000
 0.221103E+000
 0.367617E+000
 0.639298E+000
 0.375227E-003
 0.408074E-003
 0.449294E-003
 0.500226E-003
 0.562582E-003
 0.638567E-003
 0.731010E-003
 0.843552E-003
 0.980923E-003
 0.114917E-002
 0.135637E-002
 0.161264E-002
 0.193214E-002
 0.233222E-002
 0.283805E-002
 0.348120E-002
 0.430678E-002
 0.537602E-002
 0.677309E-002
 0.862061E-002
 0.110904E-001
 0.144352E-001
 0.190354E-001
 0.254603E-001
 0.346014E-001
 0.478983E-001
 0.676950E-001
 0.980146E-001
 0.146140E+000
 0.225749E+000
 0.364627E+000
 0.623755E+000
 0.304481E-002
 0.321217E-002
 0.339785E-002
 0.360412E-002
 0.383377E-002
 0.409020E-002
 0.437758E-002
 0.470106E-002
 0.506697E-002
 0.548326E-002
 0.595981E-002
 0.650936E-002
 0.714752E-002
 0.789579E-002
 0.877954E-002
 0.983621E-002
 0.111100E-001
 0.126670E-001
 0.145921E-001
 0.170048E-001
 0.200791E-001
 0.240535E-001
 0.292926E-001
 0.363400E-001
 0.460173E-001
 0.596673E-001
 0.794722E-001
 0.109099E+000
 0.155258E+000
 0.230642E+000
 0.361169E+000
 0.605546E+000
 0.554754E-002
 0.584360E-002
 0.616769E-002
 0.652300E-002
 0.691338E-002
 0.734346E-002
 0.781877E-002
 0.834598E-002
 0.893314E-002
 0.959006E-002
 0.103288E-001
 0.111642E-001
 0.121150E-001
 0.132040E-001
 0.144624E-001
 0.159261E-001
 0.176492E-001
 0.196918E-001
 0.221504E-001
 0.251383E-001
 0.288284E-001
 0.334619E-001
 0.393701E-001
 0.470883E-001
 0.573761E-001
 0.714564E-001
 0.913763E-001
 0.120449E+000
 0.164710E+000
 0.235797E+000
 0.357399E+000
 0.584933E+000
 0.787221E-002
 0.829028E-002
 0.874576E-002
 0.924272E-002
 0.978608E-002
 0.103817E-001
 0.110364E-001
 0.117585E-001
 0.125577E-001
 0.134458E-001
 0.144371E-001
 0.155487E-001
 0.168020E-001
 0.182234E-001
 0.198455E-001
 0.217114E-001
 0.238717E-001
 0.264022E-001
 0.293840E-001
 0.329568E-001
 0.372665E-001
 0.425714E-001
 0.491873E-001
 0.575967E-001
 0.685713E-001
 0.831604E-001
 0.103281E+000
 0.131963E+000
 0.174447E+000
 0.241203E+000
 0.353448E+000
 0.562183E+000
 0.100122E-001
 0.105450E-001
 0.111241E-001
 0.117545E-001
 0.124422E-001
 0.131941E-001
 0.140186E-001
 0.149254E-001
 0.159260E-001
 0.170342E-001
 0.182663E-001
 0.196422E-001
 0.211858E-001
 0.229268E-001
 0.249014E-001
 0.271553E-001
 0.297466E-001
 0.327466E-001
 0.362576E-001
 0.403918E-001
 0.453450E-001
 0.513051E-001
 0.586608E-001
 0.677961E-001
 0.794739E-001
 0.947064E-001
 0.115060E+000
 0.143521E+000
 0.184422E+000
 0.246846E+000
 0.349409E+000
 0.537562E+000
 0.119648E-001
 0.126046E-001
 0.132992E-001
 0.140544E-001
 0.148770E-001
 0.157753E-001
 0.167589E-001
 0.178392E-001
 0.190293E-001
 0.203451E-001
 0.218050E-001
 0.234314E-001
 0.252513E-001
 0.272969E-001
 0.296090E-001
 0.322361E-001
 0.352416E-001
 0.387019E-001
 0.427189E-001
 0.474238E-001
 0.529814E-001
 0.596451E-001
 0.676839E-001
 0.776396E-001
 0.899950E-001
 0.105957E+000
 0.126699E+000
 0.154906E+000
 0.194630E+000
 0.252711E+000
 0.345343E+000
 0.511290E+000
 0.137305E-001
 0.144696E-001
 0.152713E-001
 0.161420E-001
 0.170898E-001
 0.181239E-001
 0.192556E-001
 0.204974E-001
 0.218645E-001
 0.233743E-001
 0.250477E-001
 0.269095E-001
 0.289895E-001
 0.313236E-001
 0.339552E-001
 0.369387E-001
 0.403391E-001
 0.442425E-001
 0.487495E-001
 0.540032E-001
 0.601689E-001
 0.674935E-001
 0.762790E-001
 0.869594E-001
 0.100179E+000
 0.116713E+000
 0.138156E+000
 0.166075E+000
 0.204759E+000
 0.259100E+000
 0.341078E+000
 0.483597E+000
 0.153119E-001
 0.161436E-001
 0.170438E-001
 0.180206E-001
 0.190834E-001
 0.202426E-001
 0.215107E-001
 0.229017E-001
 0.244324E-001
 0.261221E-001
 0.279939E-001
 0.300750E-001
 0.323981E-001
 0.350022E-001
 0.379347E-001
 0.412535E-001
 0.450301E-001
 0.493522E-001
 0.543328E-001
 0.601090E-001
 0.668703E-001
 0.748385E-001
 0.843536E-001
 0.957936E-001
 0.109811E+000
 0.127124E+000
 0.149050E+000
 0.177249E+000
 0.214493E+000
 0.265841E+000
 0.337497E+000
 0.453190E+000
 0.172784E-001
 0.182177E-001
 0.192343E-001
 0.203369E-001
 0.215360E-001
 0.228435E-001
 0.242729E-001
 0.258402E-001
 0.275637E-001
 0.294651E-001
 0.315698E-001
 0.339078E-001
 0.365149E-001
 0.394340E-001
 0.427165E-001
 0.464252E-001
 0.506364E-001
 0.554454E-001
 0.609681E-001
 0.673558E-001
 0.747891E-001
 0.835237E-001
 0.938452E-001
 0.106220E+000
 0.121107E+000
 0.139421E+000
 0.161935E+000
 0.190546E+000
 0.226717E+000
 0.274418E+000
 0.337164E+000
 0.421599E+000
 0.198674E-001
 0.209413E-001
 0.221046E-001
 0.233663E-001
 0.247378E-001
 0.262324E-001
 0.278653E-001
 0.296544E-001
 0.316202E-001
 0.337868E-001
 0.361825E-001
 0.388405E-001
 0.418003E-001
 0.451088E-001
 0.488228E-001
 0.530091E-001
 0.577528E-001
 0.631502E-001
 0.693346E-001
 0.764452E-001
 0.847031E-001
 0.943079E-001
 0.105644E+000
 0.119002E+000
 0.135057E+000
 0.154274E+000
 0.177771E+000
 0.206408E+000
 0.241766E+000
 0.285130E+000
 0.337751E+000
 0.391049E+000
 0.226268E-001
 0.238443E-001
 0.251620E-001
 0.265906E-001
 0.281428E-001
 0.298332E-001
 0.316789E-001
 0.336995E-001
 0.359177E-001
 0.383601E-001
 0.410577E-001
 0.440471E-001
 0.473710E-001
 0.510811E-001
 0.552369E-001
 0.599140E-001
 0.651958E-001
 0.711973E-001
 0.780357E-001
 0.858921E-001
 0.949350E-001
 0.105448E+000
 0.117696E+000
 0.132093E+000
 0.149111E+000
 0.169263E+000
 0.193416E+000
 0.221964E+000
 0.256014E+000
 0.294777E+000
 0.336005E+000
 0.360965E+000
 0.255533E-001
 0.269212E-001
 0.284005E-001
 0.300033E-001
 0.317437E-001
 0.336379E-001
 0.357044E-001
 0.379650E-001
 0.404444E-001
 0.431716E-001
 0.461806E-001
 0.495104E-001
 0.532081E-001
 0.573274E-001
 0.619354E-001
 0.671063E-001
 0.729384E-001
 0.795358E-001
 0.870442E-001
 0.956165E-001
 0.105461E+000
 0.116823E+000
 0.129977E+000
 0.145330E+000
 0.163213E+000
 0.184222E+000
 0.208722E+000
 0.237074E+000
 0.269299E+000
 0.303029E+000
 0.332619E+000
 0.330132E+000
 0.286391E-001
 0.301632E-001
 0.318102E-001
 0.335935E-001
 0.355286E-001
 0.376331E-001
 0.399275E-001
 0.424350E-001
 0.451827E-001
 0.482019E-001
 0.515289E-001
 0.552063E-001
 0.592831E-001
 0.638188E-001
 0.688804E-001
 0.745523E-001
 0.809282E-001
 0.881274E-001
 0.962872E-001
 0.105571E+000
 0.116189E+000
 0.128359E+000
 0.142390E+000
 0.158576E+000
 0.177289E+000
 0.198919E+000
 0.223627E+000
 0.251500E+000
 0.281439E+000
 0.309908E+000
 0.327421E+000
 0.298874E+000
 0.318714E-001
 0.335565E-001
 0.353762E-001
 0.373451E-001
 0.394800E-001
 0.418001E-001
 0.443273E-001
 0.470869E-001
 0.501080E-001
 0.534238E-001
 0.570734E-001
 0.611015E-001
 0.655612E-001
 0.705132E-001
 0.760307E-001
 0.821978E-001
 0.891154E-001
 0.969037E-001
 0.105700E+000
 0.115677E+000
 0.127023E+000
 0.139974E+000
 0.154790E+000
 0.171745E+000
 0.191156E+000
 0.213222E+000
 0.237975E+000
 0.265003E+000
 0.292368E+000
 0.315234E+000
 0.320491E+000
 0.267423E+000
 0.352326E-001
 0.370822E-001
 0.390780E-001
 0.412359E-001
 0.435740E-001
 0.461130E-001
 0.488763E-001
 0.518909E-001
 0.551876E-001
 0.588021E-001
 0.627752E-001
 0.671547E-001
 0.719953E-001
 0.773617E-001
 0.833286E-001
 0.899836E-001
 0.974310E-001
 0.105789E+000
 0.115202E+000
 0.125833E+000
 0.137872E+000
 0.151539E+000
 0.167063E+000
 0.184693E+000
 0.204644E+000
 0.226991E+000
 0.251556E+000
 0.277428E+000
 0.301947E+000
 0.318887E+000
 0.311926E+000
 0.236052E+000
 0.386988E-001
 0.407147E-001
 0.428884E-001
 0.452370E-001
 0.477798E-001
 0.505388E-001
 0.535389E-001
 0.568086E-001
 0.603806E-001
 0.642923E-001
 0.685867E-001
 0.733132E-001
 0.785294E-001
 0.843018E-001
 0.907073E-001
 0.978364E-001
 0.105793E+000
 0.114698E+000
 0.124693E+000
 0.135937E+000
 0.148614E+000
 0.162923E+000
 0.179070E+000
 0.197254E+000
 0.217597E+000
 0.240046E+000
 0.264176E+000
 0.288616E+000
 0.310028E+000
 0.320784E+000
 0.301856E+000
 0.205037E+000
 0.422395E-001
 0.444217E-001
 0.467732E-001
 0.493119E-001
 0.520585E-001
 0.550360E-001
 0.582707E-001
 0.617927E-001
 0.656361E-001
 0.698399E-001
 0.744488E-001
 0.795141E-001
 0.850951E-001
 0.912599E-001
 0.980874E-001
 0.105668E+000
 0.114108E+000
 0.123526E+000
 0.134061E+000
 0.145867E+000
 0.159115E+000
 0.173985E+000
 0.190654E+000
 0.209260E+000
 0.229838E+000
 0.252198E+000
 0.275650E+000
 0.298409E+000
 0.316470E+000
 0.320883E+000
 0.290428E+000
 0.174649E+000
 0.458169E-001
 0.481634E-001
 0.506900E-001
 0.534159E-001
 0.563625E-001
 0.595541E-001
 0.630182E-001
 0.667861E-001
 0.708931E-001
 0.753797E-001
 0.802919E-001
 0.856826E-001
 0.916121E-001
 0.981498E-001
 0.105375E+000
 0.113380E+000
 0.122267E+000
 0.132157E+000
 0.143180E+000
 0.155486E+000
 0.169229E+000
 0.184568E+000
 0.201643E+000
 0.220534E+000
 0.241184E+000
 0.263253E+000
 0.285799E+000
 0.306649E+000
 0.321151E+000
 0.319175E+000
 0.277801E+000
 0.145155E+000
 0.493852E-001
 0.518915E-001
 0.545881E-001
 0.574952E-001
 0.606351E-001
 0.640331E-001
 0.677177E-001
 0.717212E-001
 0.760799E-001
 0.808355E-001
 0.860349E-001
 0.917319E-001
 0.979877E-001
 0.104872E+000
 0.112465E+000
 0.120857E+000
 0.130150E+000
 0.140459E+000
 0.151911E+000
 0.164643E+000
 0.178796E+000
 0.194501E+000
 0.211859E+000
 0.230889E+000
 0.251440E+000
 0.273019E+000
 0.294446E+000
 0.313183E+000
 0.323972E+000
 0.315682E+000
 0.264149E+000
 0.116811E+000
 0.528907E-001
 0.555493E-001
 0.584079E-001
 0.614872E-001
 0.648103E-001
 0.684033E-001
 0.722956E-001
 0.765201E-001
 0.811140E-001
 0.861197E-001
 0.915847E-001
 0.975634E-001
 0.104117E+000
 0.111316E+000
 0.119238E+000
 0.127973E+000
 0.137621E+000
 0.148290E+000
 0.160101E+000
 0.173178E+000
 0.187643E+000
 0.203603E+000
 0.221113E+000
 0.240131E+000
 0.260410E+000
 0.281309E+000
 0.301422E+000
 0.317873E+000
 0.324862E+000
 0.310451E+000
 0.249651E+000
 0.898591E-001
 0.562709E-001
 0.590716E-001
 0.620808E-001
 0.653197E-001
 0.688123E-001
 0.725850E-001
 0.766679E-001
 0.810943E-001
 0.859021E-001
 0.911338E-001
 0.968373E-001
 0.103067E+000
 0.109884E+000
 0.117357E+000
 0.125564E+000
 0.134590E+000
 0.144532E+000
 0.155494E+000
 0.167585E+000
 0.180917E+000
 0.195592E+000
 0.211686E+000
 0.229212E+000
 0.248064E+000
 0.267901E+000
 0.287940E+000
 0.306568E+000
 0.320602E+000
 0.323776E+000
 0.303551E+000
 0.234491E+000
 0.645272E-001
 0.594554E-001
 0.623846E-001
 0.655295E-001
 0.689120E-001
 0.725562E-001
 0.764892E-001
 0.807411E-001
 0.853457E-001
 0.903408E-001
 0.957690E-001
 0.101678E+000
 0.108122E+000
 0.115160E+000
 0.122861E+000
 0.131300E+000
 0.140559E+000
 0.150729E+000
 0.161907E+000
 0.174192E+000
 0.187681E+000
 0.202454E+000
 0.218557E+000
 0.235961E+000
 0.254494E+000
 0.273726E+000
 0.292740E+000
 0.309739E+000
 0.321270E+000
 0.320695E+000
 0.295072E+000
 0.218857E+000
 0.410223E-001
 0.623660E-001
 0.654066E-001
 0.686689E-001
 0.721750E-001
 0.759491E-001
 0.800185E-001
 0.844133E-001
 0.891672E-001
 0.943180E-001
 0.999078E-001
 0.105984E+000
 0.112598E+000
 0.119811E+000
 0.127687E+000
 0.136297E+000
 0.145722E+000
 0.156046E+000
 0.167357E+000
 0.179743E+000
 0.193284E+000
 0.208041E+000
 0.224026E+000
 0.241166E+000
 0.259232E+000
 0.277705E+000
 0.295552E+000
 0.310810E+000
 0.319806E+000
 0.315627E+000
 0.285120E+000
 0.202938E+000
 0.195293E-001
 0.649180E-001
 0.680495E-001
 0.714070E-001
 0.750126E-001
 0.788907E-001
 0.830682E-001
 0.875752E-001
 0.924448E-001
 0.977144E-001
 0.103425E+000
 0.109624E+000
 0.116360E+000
 0.123693E+000
 0.131684E+000
 0.140401E+000
 0.149919E+000
 0.160315E+000
 0.171670E+000
 0.184058E+000
 0.197544E+000
 0.212164E+000
 0.227902E+000
 0.244643E+000
 0.262099E+000
 0.279675E+000
 0.296234E+000
 0.309679E+000
 0.316163E+000
 0.308605E+000
 0.273815E+000
 0.186915E+000
 0.208470E-003
 0.670216E-001
 0.702198E-001
 0.736467E-001
 0.773241E-001
 0.812760E-001
 0.855291E-001
 0.901128E-001
 0.950598E-001
 0.100406E+000
 0.106193E+000
 0.112463E+000
 0.119268E+000
 0.126661E+000
 0.134701E+000
 0.143453E+000
 0.152986E+000
 0.163369E+000
 0.174672E+000
 0.186960E+000
 0.200279E+000
 0.214643E+000
 0.230007E+000
 0.246216E+000
 0.262932E+000
 0.279491E+000
 0.294671E+000
 0.306267E+000
 0.310321E+000
 0.299680E+000
 0.261284E+000
 0.170966E+000
-0.168081E-001
 0.685841E-001
 0.718216E-001
 0.752884E-001
 0.790059E-001
 0.829976E-001
 0.872895E-001
 0.919103E-001
 0.968916E-001
 0.102269E+000
 0.108080E+000
 0.114368E+000
 0.121181E+000
 0.128569E+000
 0.136589E+000
 0.145300E+000
 0.154763E+000
 0.165043E+000
 0.176199E+000
 0.188281E+000
 0.201320E+000
 0.215310E+000
 0.230176E+000
 0.245730E+000
 0.261588E+000
 0.277030E+000
 0.290768E+000
 0.300525E+000
 0.302287E+000
 0.288928E+000
 0.247667E+000
 0.155254E+000
-0.314183E-001
 0.695129E-001
 0.727589E-001
 0.762327E-001
 0.799551E-001
 0.839489E-001
 0.882391E-001
 0.928533E-001
 0.978220E-001
 0.103179E+000
 0.108960E+000
 0.115207E+000
 0.121965E+000
 0.129280E+000
 0.137204E+000
 0.145793E+000
 0.155101E+000
 0.165185E+000
 0.176093E+000
 0.187864E+000
 0.200513E+000
 0.214013E+000
 0.228265E+000
 0.243052E+000
 0.257950E+000
 0.272199E+000
 0.284465E+000
 0.292434E+000
 0.292093E+000
 0.276438E+000
 0.233101E+000
 0.139930E+000
-0.435517E-001
 0.697184E-001
 0.729393E-001
 0.763844E-001
 0.800735E-001
 0.840284E-001
 0.882730E-001
 0.928336E-001
 0.977392E-001
 0.103021E+000
 0.108715E+000
 0.114859E+000
 0.121493E+000
 0.128663E+000
 0.136415E+000
 0.144799E+000
 0.153864E+000
 0.163657E+000
 0.174218E+000
 0.185574E+000
 0.197724E+000
 0.210625E+000
 0.224156E+000
 0.238075E+000
 0.251931E+000
 0.264935E+000
 0.275730E+000
 0.282001E+000
 0.279798E+000
 0.262318E+000
 0.217729E+000
 0.125126E+000
-0.531718E-001
 0.691184E-001
 0.722782E-001
 0.756562E-001
 0.792711E-001
 0.831436E-001
 0.872961E-001
 0.917534E-001
 0.965427E-001
 0.101694E+000
 0.107239E+000
 0.113213E+000
 0.119656E+000
 0.126606E+000
 0.134107E+000
 0.142202E+000
 0.150935E+000
 0.160344E+000
 0.170461E+000
 0.181300E+000
 0.192849E+000
 0.205049E+000
 0.217762E+000
 0.230727E+000
 0.243477E+000
 0.255207E+000
 0.264564E+000
 0.269268E+000
 0.265481E+000
 0.246684E+000
 0.201685E+000
 0.110956E+000
-0.602765E-001
 0.676418E-001
 0.707027E-001
 0.739734E-001
 0.774715E-001
 0.812160E-001
 0.852280E-001
 0.895304E-001
 0.941484E-001
 0.991096E-001
 0.104444E+000
 0.110184E+000
 0.116363E+000
 0.123019E+000
 0.130190E+000
 0.137914E+000
 0.146227E+000
 0.155160E+000
 0.164738E+000
 0.174964E+000
 0.185816E+000
 0.197221E+000
 0.209031E+000
 0.220973E+000
 0.232571E+000
 0.243025E+000
 0.251005E+000
 0.254302E+000
 0.249243E+000
 0.229663E+000
 0.185100E+000
 0.975061E-001
-0.648993E-001
 0.652333E-001
 0.681564E-001
 0.712787E-001
 0.746161E-001
 0.781862E-001
 0.820082E-001
 0.861033E-001
 0.904944E-001
 0.952067E-001
 0.100267E+000
 0.105706E+000
 0.111553E+000
 0.117841E+000
 0.124604E+000
 0.131874E+000
 0.139682E+000
 0.148053E+000
 0.157001E+000
 0.166525E+000
 0.176591E+000
 0.187119E+000
 0.197954E+000
 0.208817E+000
 0.219237E+000
 0.228433E+000
 0.235122E+000
 0.237200E+000
 0.231203E+000
 0.211387E+000
 0.168094E+000
 0.848411E-001
-0.671088E-001
 0.618576E-001
 0.646039E-001
 0.675363E-001
 0.706691E-001
 0.740181E-001
 0.776009E-001
 0.814363E-001
 0.855452E-001
 0.899502E-001
 0.946757E-001
 0.997476E-001
 0.105193E+000
 0.111042E+000
 0.117321E+000
 0.124060E+000
 0.131282E+000
 0.139007E+000
 0.147244E+000
 0.155982E+000
 0.165183E+000
 0.174763E+000
 0.184562E+000
 0.194307E+000
 0.203541E+000
 0.211517E+000
 0.217021E+000
 0.218084E+000
 0.211499E+000
 0.191989E+000
 0.150774E+000
 0.729971E-001
-0.670088E-001
 0.575034E-001
 0.600345E-001
 0.627363E-001
 0.656213E-001
 0.687037E-001
 0.719989E-001
 0.755238E-001
 0.792968E-001
 0.833378E-001
 0.876684E-001
 0.923114E-001
 0.972905E-001
 0.102630E+000
 0.108355E+000
 0.114489E+000
 0.121050E+000
 0.128053E+000
 0.135502E+000
 0.143381E+000
 0.151649E+000
 0.160219E+000
 0.168936E+000
 0.177537E+000
 0.185591E+000
 0.192398E+000
 0.196837E+000
 0.197103E+000
 0.190278E+000
 0.171607E+000
 0.133235E+000
 0.619833E-001
-0.647368E-001
 0.521864E-001
 0.544656E-001
 0.568977E-001
 0.594938E-001
 0.622660E-001
 0.652276E-001
 0.683935E-001
 0.717797E-001
 0.754033E-001
 0.792829E-001
 0.834382E-001
 0.878894E-001
 0.926572E-001
 0.977621E-001
 0.103223E+000
 0.109055E+000
 0.115267E+000
 0.121859E+000
 0.128815E+000
 0.136089E+000
 0.143599E+000
 0.151199E+000
 0.158642E+000
 0.165534E+000
 0.171237E+000
 0.174739E+000
 0.174425E+000
 0.167701E+000
 0.150371E+000
 0.115554E+000
 0.517812E-001
-0.604629E-001
 0.459518E-001
 0.479448E-001
 0.500710E-001
 0.523398E-001
 0.547613E-001
 0.573469E-001
 0.601091E-001
 0.630613E-001
 0.662183E-001
 0.695956E-001
 0.732095E-001
 0.770770E-001
 0.812152E-001
 0.856406E-001
 0.903681E-001
 0.954093E-001
 0.100770E+000
 0.106448E+000
 0.112423E+000
 0.118655E+000
 0.125066E+000
 0.131522E+000
 0.137804E+000
 0.143559E+000
 0.148227E+000
 0.150922E+000
 0.150238E+000
 0.143936E+000
 0.128412E+000
 0.977922E-001
 0.423460E-001
-0.543870E-001
 0.388749E-001
 0.405509E-001
 0.423387E-001
 0.442456E-001
 0.462802E-001
 0.484516E-001
 0.507700E-001
 0.532466E-001
 0.558932E-001
 0.587224E-001
 0.617476E-001
 0.649824E-001
 0.684403E-001
 0.721345E-001
 0.760762E-001
 0.802741E-001
 0.847317E-001
 0.894442E-001
 0.943940E-001
 0.995436E-001
 0.104824E+000
 0.110120E+000
 0.115243E+000
 0.119893E+000
 0.123595E+000
 0.125605E+000
 0.124747E+000
 0.119158E+000
 0.105854E+000
 0.799958E-001
 0.336074E-001
-0.467366E-001
 0.310605E-001
 0.323930E-001
 0.338142E-001
 0.353298E-001
 0.369463E-001
 0.386708E-001
 0.405113E-001
 0.424764E-001
 0.445753E-001
 0.468177E-001
 0.492140E-001
 0.517745E-001
 0.545096E-001
 0.574290E-001
 0.605412E-001
 0.638521E-001
 0.673636E-001
 0.710706E-001
 0.749577E-001
 0.789933E-001
 0.831210E-001
 0.872466E-001
 0.912177E-001
 0.947935E-001
 0.975956E-001
 0.990316E-001
 0.981715E-001
 0.935467E-001
 0.828155E-001
 0.621948E-001
 0.254728E-001
-0.377632E-001
 0.226404E-001
 0.236080E-001
 0.246400E-001
 0.257402E-001
 0.269135E-001
 0.281647E-001
 0.294997E-001
 0.309246E-001
 0.324458E-001
 0.340704E-001
 0.358055E-001
 0.376586E-001
 0.396370E-001
 0.417473E-001
 0.439953E-001
 0.463849E-001
 0.489169E-001
 0.515870E-001
 0.543832E-001
 0.572817E-001
 0.602404E-001
 0.631896E-001
 0.660177E-001
 0.685484E-001
 0.705063E-001
 0.714612E-001
 0.707405E-001
 0.672851E-001
 0.594109E-001
 0.444058E-001
 0.178295E-001
-0.277388E-001
 0.137697E-001
 0.143567E-001
 0.149827E-001
 0.156500E-001
 0.163615E-001
 0.171202E-001
 0.179294E-001
 0.187929E-001
 0.197145E-001
 0.206985E-001
 0.217491E-001
 0.228708E-001
 0.240677E-001
 0.253440E-001
 0.267029E-001
 0.281465E-001
 0.296752E-001
 0.312862E-001
 0.329717E-001
 0.347170E-001
 0.364961E-001
 0.382664E-001
 0.399595E-001
 0.414680E-001
 0.426246E-001
 0.431685E-001
 0.426927E-001
 0.405576E-001
 0.357485E-001
 0.266341E-001
 0.105492E-001
-0.169517E-001
 0.462118E-002
 0.481794E-002
 0.502775E-002
 0.525141E-002
 0.548983E-002
 0.574405E-002
 0.601518E-002
 0.630445E-002
 0.661316E-002
 0.694270E-002
 0.729450E-002
 0.767001E-002
 0.807066E-002
 0.849776E-002
 0.895241E-002
 0.943529E-002
 0.994644E-002
 0.104849E-001
 0.110480E-001
 0.116308E-001
 0.122245E-001
 0.128147E-001
 0.133784E-001
 0.138795E-001
 0.142620E-001
 0.144384E-001
 0.142724E-001
 0.135503E-001
 0.119331E-001
 0.887630E-002
 0.349138E-002
-0.570222E-002
-0.462118E-002
-0.481794E-002
-0.502775E-002
-0.525141E-002
-0.548983E-002
-0.574405E-002
-0.601518E-002
-0.630445E-002
-0.661316E-002
-0.694270E-002
-0.729450E-002
-0.767001E-002
-0.807066E-002
-0.849776E-002
-0.895241E-002
-0.943529E-002
-0.994644E-002
-0.104849E-001
-0.110480E-001
-0.116308E-001
-0.122245E-001
-0.128147E-001
-0.133784E-001
-0.138795E-001
-0.142620E-001
-0.144384E-001
-0.142724E-001
-0.135503E-001
-0.119331E-001
-0.887630E-002
-0.349138E-002
 0.570222E-002
-0.137697E-001
-0.143567E-001
-0.149827E-001
-0.156500E-001
-0.163615E-001
-0.171202E-001
-0.179294E-001
-0.187929E-001
-0.197145E-001
-0.206985E-001
-0.217491E-001
-0.228708E-001
-0.240677E-001
-0.253440E-001
-0.267029E-001
-0.281465E-001
-0.296752E-001
-0.312862E-001
-0.329717E-001
-0.347170E-001
-0.364961E-001
-0.382664E-001
-0.399595E-001
-0.414680E-001
-0.426246E-001
-0.431685E-001
-0.426927E-001
-0.405576E-001
-0.357485E-001
-0.266341E-001
-0.105492E-001
 0.169517E-001
-0.226404E-001
-0.236080E-001
-0.246400E-001
-0.257402E-001
-0.269135E-001
-0.281647E-001
-0.294997E-001
-0.309246E-001
-0.324458E-001
-0.340704E-001
-0.358055E-001
-0.376586E-001
-0.396370E-001
-0.417473E-001
-0.439953E-001
-0.463849E-001
-0.489169E-001
-0.515870E-001
-0.543832E-001
-0.572817E-001
-0.602404E-001
-0.631896E-001
-0.660177E-001
-0.685484E-001
-0.705063E-001
-0.714612E-001
-0.707405E-001
-0.672851E-001
-0.594109E-001
-0.444058E-001
-0.178295E-001
 0.277388E-001
-0.310605E-001
-0.323930E-001
-0.338142E-001
-0.353298E-001
-0.369463E-001
-0.386708E-001
-0.405113E-001
-0.424764E-001
-0.445753E-001
-0.468177E-001
-0.492140E-001
-0.517745E-001
-0.545096E-001
-0.574290E-001
-0.605412E-001
-0.638521E-001
-0.673636E-001
-0.710706E-001
-0.749577E-001
-0.789933E-001
-0.831210E-001
-0.872466E-001
-0.912177E-001
-0.947935E-001
-0.975956E-001
-0.990316E-001
-0.981715E-001
-0.935467E-001
-0.828155E-001
-0.621948E-001
-0.254728E-001
 0.377632E-001
-0.388749E-001
-0.405509E-001
-0.423387E-001
-0.442456E-001
-0.462802E-001
-0.484516E-001
-0.507700E-001
-0.532466E-001
-0.558932E-001
-0.587224E-001
-0.617476E-001
-0.649824E-001
-0.684403E-001
-0.721345E-001
-0.760762E-001
-0.802741E-001
-0.847317E-001
-0.894442E-001
-0.943940E-001
-0.995436E-001
-0.104824E+000
-0.110120E+000
-0.115243E+000
-0.119893E+000
-0.123595E+000
-0.125605E+000
-0.124747E+000
-0.119158E+000
-0.105854E+000
-0.799958E-001
-0.336074E-001
 0.467366E-001
-0.459518E-001
-0.479448E-001
-0.500710E-001
-0.523398E-001
-0.547613E-001
-0.573469E-001
-0.601091E-001
-0.630613E-001
-0.662183E-001
-0.695956E-001
-0.732095E-001
-0.770770E-001
-0.812152E-001
-0.856406E-001
-0.903681E-001
-0.954093E-001
-0.100770E+000
-0.106448E+000
-0.112423E+000
-0.118655E+000
-0.125066E+000
-0.131522E+000
-0.137804E+000
-0.143559E+000
-0.148227E+000
-0.150922E+000
-0.150238E+000
-0.143936E+000
-0.128412E+000
-0.977922E-001
-0.423460E-001
 0.543870E-001
-0.521864E-001
-0.544656E-001
-0.568977E-001
-0.594938E-001
-0.622660E-001
-0.652276E-001
-0.683935E-001
-0.717797E-001
-0.754033E-001
-0.792829E-001
-0.834382E-001
-0.878894E-001
-0.926572E-001
-0.977621E-001
-0.103223E+000
-0.109055E+000
-0.115267E+000
-0.121859E+000
-0.128815E+000
-0.136089E+000
-0.143599E+000
-0.151199E+000
-0.158642E+000
-0.165534E+000
-0.171237E+000
-0.174739E+000
-0.174425E+000
-0.167701E+000
-0.150371E+000
-0.115554E+000
-0.517812E-001
 0.604629E-001
-0.575034E-001
-0.600345E-001
-0.627363E-001
-0.656213E-001
-0.687037E-001
-0.719989E-001
-0.755238E-001
-0.792968E-001
-0.833378E-001
-0.876684E-001
-0.923114E-001
-0.972905E-001
-0.102630E+000
-0.108355E+000
-0.114489E+000
-0.121050E+000
-0.128053E+000
-0.135502E+000
-0.143381E+000
-0.151649E+000
-0.160219E+000
-0.168936E+000
-0.177537E+000
-0.185591E+000
-0.192398E+000
-0.196837E+000
-0.197103E+000
-0.190278E+000
-0.171607E+000
-0.133235E+000
-0.619833E-001
 0.647368E-001
-0.618576E-001
-0.646039E-001
-0.675363E-001
-0.706691E-001
-0.740181E-001
-0.776009E-001
-0.814363E-001
-0.855452E-001
-0.899502E-001
-0.946757E-001
-0.997476E-001
-0.105193E+000
-0.111042E+000
-0.117321E+000
-0.124060E+000
-0.131282E+000
-0.139007E+000
-0.147244E+000
-0.155982E+000
-0.165183E+000
-0.174763E+000
-0.184562E+000
-0.194307E+000
-0.203541E+000
-0.211517E+000
-0.217021E+000
-0.218084E+000
-0.211499E+000
-0.191989E+000
-0.150774E+000
-0.729971E-001
 0.670088E-001
-0.652333E-001
-0.681564E-001
-0.712787E-001
-0.746161E-001
-0.781862E-001
-0.820082E-001
-0.861033E-001
-0.904944E-001
-0.952067E-001
-0.100267E+000
-0.105706E+000
-0.111553E+000
-0.117841E+000
-0.124604E+000
-0.131874E+000
-0.139682E+000
-0.148053E+000
-0.157001E+000
-0.166525E+000
-0.176591E+000
-0.187119E+000
-0.197954E+000
-0.208817E+000
-0.219237E+000
-0.228433E+000
-0.235122E+000
-0.237200E+000
-0.231203E+000
-0.211387E+000
-0.168094E+000
-0.848411E-001
 0.671088E-001
-0.676418E-001
-0.707027E-001
-0.739734E-001
-0.774715E-001
-0.812160E-001
-0.852280E-001
-0.895304E-001
-0.941484E-001
-0.991096E-001
-0.104444E+000
-0.110184E+000
-0.116363E+000
-0.123019E+000
-0.130190E+000
-0.137914E+000
-0.146227E+000
-0.155160E+000
-0.164738E+000
-0.174964E+000
-0.185816E+000
-0.197221E+000
-0.209031E+000
-0.220973E+000
-0.232571E+000
-0.243025E+000
-0.251005E+000
-0.254302E+000
-0.249243E+000
-0.229663E+000
-0.185100E+000
-0.975061E-001
 0.648993E-001
-0.691184E-001
-0.722782E-001
-0.756562E-001
-0.792711E-001
-0.831436E-001
-0.872961E-001
-0.917534E-001
-0.965427E-001
-0.101694E+000
-0.107239E+000
-0.113213E+000
-0.119656E+000
-0.126606E+000
-0.134107E+000
-0.142202E+000
-0.150935E+000
-0.160344E+000
-0.170461E+000
-0.181300E+000
-0.192849E+000
-0.205049E+000
-0.217762E+000
-0.230727E+000
-0.243477E+000
-0.255207E+000
-0.264564E+000
-0.269268E+000
-0.265481E+000
-0.246684E+000
-0.201685E+000
-0.110956E+000
 0.602765E-001
-0.697184E-001
-0.729393E-001
-0.763844E-001
-0.800735E-001
-0.840284E-001
-0.882730E-001
-0.928336E-001
-0.977392E-001
-0.103021E+000
-0.108715E+000
-0.114859E+000
-0.121493E+000
-0.128663E+000
-0.136415E+000
-0.144799E+000
-0.153864E+000
-0.163657E+000
-0.174218E+000
-0.185574E+000
-0.197724E+000
-0.210625E+000
-0.224156E+000
-0.238075E+000
-0.251931E+000
-0.264935E+000
-0.275730E+000
-0.282001E+000
-0.279798E+000
-0.262318E+000
-0.217729E+000
-0.125126E+000
 0.531718E-001
-0.695129E-001
-0.727589E-001
-0.762327E-001
-0.799551E-001
-0.839489E-001
-0.882391E-001
-0.928533E-001
-0.978220E-001
-0.103179E+000
-0.108960E+000
-0.115207E+000
-0.121965E+000
-0.129280E+000
-0.137204E+000
-0.145793E+000
-0.155101E+000
-0.165185E+000
-0.176093E+000
-0.187864E+000
-0.200513E+000
-0.214013E+000
-0.228265E+000
-0.243052E+000
-0.257950E+000
-0.272199E+000
-0.284465E+000
-0.292434E+000
-0.292093E+000
-0.276438E+000
-0.233101E+000
-0.139930E+000
 0.435517E-001
-0.685841E-001
-0.718216E-001
-0.752884E-001
-0.790059E-001
-0.829976E-001
-0.872895E-001
-0.919103E-001
-0.968916E-001
-0.102269E+000
-0.108080E+000
-0.114368E+000
-0.121181E+000
-0.128569E+000
-0.136589E+000
-0.145300E+000
-0.154763E+000
-0.165043E+000
-0.176199E+000
-0.188281E+000
-0.201320E+000
-0.215310E+000
-0.230176E+000
-0.245730E+000
-0.261588E+000
-0.277030E+000
-0.290768E+000
-0.300525E+000
-0.302287E+000
-0.288928E+000
-0.247667E+000
-0.155254E+000
 0.314183E-001
-0.670216E-001
-0.702198E-001
-0.736467E-001
-0.773241E-001
-0.812760E-001
-0.855291E-001
-0.901128E-001
-0.950598E-001
-0.100406E+000
-0.106193E+000
-0.112463E+000
-0.119268E+000
-0.126661E+000
-0.134701E+000
-0.143453E+000
-0.152986E+000
-0.163369E+000
-0.174672E+000
-0.186960E+000
-0.200279E+000
-0.214643E+000
-0.230007E+000
-0.246216E+000
-0.262932E+000
-0.279491E+000
-0.294671E+000
-0.306267E+000
-0.310321E+000
-0.299680E+000
-0.261284E+000
-0.170966E+000
 0.168081E-001
-0.649180E-001
-0.680495E-001
-0.714070E-001
-0.750126E-001
-0.788907E-001
-0.830682E-001
-0.875752E-001
-0.924448E-001
-0.977144E-001
-0.103425E+000
-0.109624E+000
-0.116360E+000
-0.123693E+000
-0.131684E+000
-0.140401E+000
-0.149919E+000
-0.160315E+000
-0.171670E+000
-0.184058E+000
-0.197544E+000
-0.212164E+000
-0.227902E+000
-0.244643E+000
-0.262099E+000
-0.279675E+000
-0.296234E+000
-0.309679E+000
-0.316163E+000
-0.308605E+000
-0.273815E+000
-0.186915E+000
-0.208470E-003
-0.623660E-001
-0.654066E-001
-0.686689E-001
-0.721750E-001
-0.759491E-001
-0.800185E-001
-0.844133E-001
-0.891672E-001
-0.943180E-001
-0.999078E-001
-0.105984E+000
-0.112598E+000
-0.119811E+000
-0.127687E+000
-0.136297E+000
-0.145722E+000
-0.156046E+000
-0.167357E+000
-0.179743E+000
-0.193284E+000
-0.208041E+000
-0.224026E+000
-0.241166E+000
-0.259232E+000
-0.277705E+000
-0.295552E+000
-0.310810E+000
-0.319806E+000
-0.315627E+000
-0.285120E+000
-0.202938E+000
-0.195293E-001
-0.594554E-001
-0.623846E-001
-0.655295E-001
-0.689120E-001
-0.725562E-001
-0.764892E-001
-0.807411E-001
-0.853457E-001
-0.903408E-001
-0.957690E-001
-0.101678E+000
-0.108122E+000
-0.115160E+000
-0.122861E+000
-0.131300E+000
-0.140559E+000
-0.150729E+000
-0.161907E+000
-0.174192E+000
-0.187681E+000
-0.202454E+000
-0.218557E+000
-0.235961E+000
-0.254494E+000
-0.273726E+000
-0.292740E+000
-0.309739E+000
-0.321270E+000
-0.320695E+000
-0.295072E+000
-0.218857E+000
-0.410223E-001
-0.562709E-001
-0.590716E-001
-0.620808E-001
-0.653197E-001
-0.688123E-001
-0.725850E-001
-0.766679E-001
-0.810943E-001
-0.859021E-001
-0.911338E-001
-0.968373E-001
-0.103067E+000
-0.109884E+000
-0.117357E+000
-0.125564E+000
-0.134590E+000
-0.144532E+000
-0.155494E+000
-0.167585E+000
-0.180917E+000
-0.195592E+000
-0.211686E+000
-0.229212E+000
-0.248064E+000
-0.267901E+000
-0.287940E+000
-0.306568E+000
-0.320602E+000
-0.323776E+000
-0.303551E+000
-0.234491E+000
-0.645272E-001
-0.528907E-001
-0.555493E-001
-0.584079E-001
-0.614872E-001
-0.648103E-001
-0.684033E-001
-0.722956E-001
-0.765201E-001
-0.811140E-001
-0.861197E-001
-0.915847E-001
-0.975634E-001
-0.104117E+000
-0.111316E+000
-0.119238E+000
-0.127973E+000
-0.137621E+000
-0.148290E+000
-0.160101E+000
-0.173178E+000
-0.187643E+000
-0.203603E+000
-0.221113E+000
-0.240131E+000
-0.260410E+000
-0.281309E+000
-0.301422E+000
-0.317873E+000
-0.324862E+000
-0.310451E+000
-0.249651E+000
-0.898591E-001
-0.493852E-001
-0.518915E-001
-0.545881E-001
-0.574952E-001
-0.606351E-001
-0.640331E-001
-0.677177E-001
-0.717212E-001
-0.760799E-001
-0.808355E-001
-0.860349E-001
-0.917319E-001
-0.979877E-001
-0.104872E+000
-0.112465E+000
-0.120857E+000
-0.130150E+000
-0.140459E+000
-0.151911E+000
-0.164643E+000
-0.178796E+000
-0.194501E+000
-0.211859E+000
-0.230889E+000
-0.251440E+000
-0.273019E+000
-0.294446E+000
-0.313183E+000
-0.323972E+000
-0.315682E+000
-0.264149E+000
-0.116811E+000
-0.458169E-001
-0.481634E-001
-0.506900E-001
-0.534159E-001
-0.563625E-001
-0.595541E-001
-0.630182E-001
-0.667861E-001
-0.708931E-001
-0.753797E-001
-0.802919E-001
-0.856826E-001
-0.916121E-001
-0.981498E-001
-0.105375E+000
-0.113380E+000
-0.122267E+000
-0.132157E+000
-0.143180E+000
-0.155486E+000
-0.169229E+000
-0.184568E+000
-0.201643E+000
-0.220534E+000
-0.241184E+000
-0.263253E+000
-0.285799E+000
-0.306649E+000
-0.321151E+000
-0.319175E+000
-0.277801E+000
-0.145155E+000
-0.422395E-001
-0.444217E-001
-0.467732E-001
-0.493119E-001
-0.520585E-001
-0.550360E-001
-0.582707E-001
-0.617927E-001
-0.656361E-001
-0.698399E-001
-0.744488E-001
-0.795141E-001
-0.850951E-001
-0.912599E-001
-0.980874E-001
-0.105668E+000
-0.114108E+000
-0.123526E+000
-0.134061E+000
-0.145867E+000
-0.159115E+000
-0.173985E+000
-0.190654E+000
-0.209260E+000
-0.229838E+000
-0.252198E+000
-0.275650E+000
-0.298409E+000
-0.316470E+000
-0.320883E+000
-0.290428E+000
-0.174649E+000
-0.386988E-001
-0.407147E-001
-0.428884E-001
-0.452370E-001
-0.477798E-001
-0.505388E-001
-0.535389E-001
-0.568086E-001
-0.603806E-001
-0.642923E-001
-0.685867E-001
-0.733132E-001
-0.785294E-001
-0.843018E-001
-0.907073E-001
-0.978364E-001
-0.105793E+000
-0.114698E+000
-0.124693E+000
-0.135937E+000
-0.148614E+000
-0.162923E+000
-0.179070E+000
-0.197254E+000
-0.217597E+000
-0.240046E+000
-0.264176E+000
-0.288616E+000
-0.310028E+000
-0.320784E+000
-0.301856E+000
-0.205037E+000
-0.352326E-001
-0.370822E-001
-0.390780E-001
-0.412359E-001
-0.435740E-001
-0.461130E-001
-0.488763E-001
-0.518909E-001
-0.551876E-001
-0.588021E-001
-0.627752E-001
-0.671547E-001
-0.719953E-001
-0.773617E-001
-0.833286E-001
-0.899836E-001
-0.974310E-001
-0.105789E+000
-0.115202E+000
-0.125833E+000
-0.137872E+000
-0.151539E+000
-0.167063E+000
-0.184693E+000
-0.204644E+000
-0.226991E+000
-0.251556E+000
-0.277428E+000
-0.301947E+000
-0.318887E+000
-0.311926E+000
-0.236052E+000
-0.318714E-001
-0.335565E-001
-0.353762E-001
-0.373451E-001
-0.394800E-001
-0.418001E-001
-0.443273E-001
-0.470869E-001
-0.501080E-001
-0.534238E-001
-0.570734E-001
-0.611015E-001
-0.655612E-001
-0.705132E-001
-0.760307E-001
-0.821978E-001
-0.891154E-001
-0.969037E-001
-0.105700E+000
-0.115677E+000
-0.127023E+000
-0.139974E+000
-0.154790E+000
-0.171745E+000
-0.191156E+000
-0.213222E+000
-0.237975E+000
-0.265003E+000
-0.292368E+000
-0.315234E+000
-0.320491E+000
-0.267423E+000
-0.286391E-001
-0.301632E-001
-0.318102E-001
-0.335935E-001
-0.355286E-001
-0.376331E-001
-0.399275E-001
-0.424350E-001
-0.451827E-001
-0.482019E-001
-0.515289E-001
-0.552063E-001
-0.592831E-001
-0.638188E-001
-0.688804E-001
-0.745523E-001
-0.809282E-001
-0.881274E-001
-0.962872E-001
-0.105571E+000
-0.116189E+000
-0.128359E+000
-0.142390E+000
-0.158576E+000
-0.177289E+000
-0.198919E+000
-0.223627E+000
-0.251500E+000
-0.281439E+000
-0.309908E+000
-0.327421E+000
-0.298874E+000
-0.255533E-001
-0.269212E-001
-0.284005E-001
-0.300033E-001
-0.317437E-001
-0.336379E-001
-0.357044E-001
-0.379650E-001
-0.404444E-001
-0.431716E-001
-0.461806E-001
-0.495104E-001
-0.532081E-001
-0.573274E-001
-0.619354E-001
-0.671063E-001
-0.729384E-001
-0.795358E-001
-0.870442E-001
-0.956165E-001
-0.105461E+000
-0.116823E+000
-0.129977E+000
-0.145330E+000
-0.163213E+000
-0.184222E+000
-0.208722E+000
-0.237074E+000
-0.269299E+000
-0.303029E+000
-0.332619E+000
-0.330132E+000
-0.226268E-001
-0.238443E-001
-0.251620E-001
-0.265906E-001
-0.281428E-001
-0.298332E-001
-0.316789E-001
-0.336995E-001
-0.359177E-001
-0.383601E-001
-0.410577E-001
-0.440471E-001
-0.473710E-001
-0.510811E-001
-0.552369E-001
-0.599140E-001
-0.651958E-001
-0.711973E-001
-0.780357E-001
-0.858921E-001
-0.949350E-001
-0.105448E+000
-0.117696E+000
-0.132093E+000
-0.149111E+000
-0.169263E+000
-0.193416E+000
-0.221964E+000
-0.256014E+000
-0.294777E+000
-0.336005E+000
-0.360965E+000
-0.198674E-001
-0.209413E-001
-0.221046E-001
-0.233663E-001
-0.247378E-001
-0.262324E-001
-0.278653E-001
-0.296544E-001
-0.316202E-001
-0.337868E-001
-0.361825E-001
-0.388405E-001
-0.418003E-001
-0.451088E-001
-0.488228E-001
-0.530091E-001
-0.577528E-001
-0.631502E-001
-0.693346E-001
-0.764452E-001
-0.847031E-001
-0.943079E-001
-0.105644E+000
-0.119002E+000
-0.135057E+000
-0.154274E+000
-0.177771E+000
-0.206408E+000
-0.241766E+000
-0.285130E+000
-0.337751E+000
-0.391049E+000
-0.172784E-001
-0.182177E-001
-0.192343E-001
-0.203369E-001
-0.215360E-001
-0.228435E-001
-0.242729E-001
-0.258402E-001
-0.275637E-001
-0.294651E-001
-0.315698E-001
-0.339078E-001
-0.365149E-001
-0.394340E-001
-0.427165E-001
-0.464252E-001
-0.506364E-001
-0.554454E-001
-0.609681E-001
-0.673558E-001
-0.747891E-001
-0.835237E-001
-0.938452E-001
-0.106220E+000
-0.121107E+000
-0.139421E+000
-0.161935E+000
-0.190546E+000
-0.226717E+000
-0.274418E+000
-0.337164E+000
-0.421599E+000
-0.153119E-001
-0.161436E-001
-0.170438E-001
-0.180206E-001
-0.190834E-001
-0.202426E-001
-0.215107E-001
-0.229017E-001
-0.244324E-001
-0.261221E-001
-0.279939E-001
-0.300750E-001
-0.323981E-001
-0.350022E-001
-0.379347E-001
-0.412535E-001
-0.450301E-001
-0.493522E-001
-0.543328E-001
-0.601090E-001
-0.668703E-001
-0.748385E-001
-0.843536E-001
-0.957936E-001
-0.109811E+000
-0.127124E+000
-0.149050E+000
-0.177249E+000
-0.214493E+000
-0.265841E+000
-0.337497E+000
-0.453190E+000
-0.137305E-001
-0.144696E-001
-0.152713E-001
-0.161420E-001
-0.170898E-001
-0.181239E-001
-0.192556E-001
-0.204974E-001
-0.218645E-001
-0.233743E-001
-0.250477E-001
-0.269095E-001
-0.289895E-001
-0.313236E-001
-0.339552E-001
-0.369387E-001
-0.403391E-001
-0.442425E-001
-0.487495E-001
-0.540032E-001
-0.601689E-001
-0.674935E-001
-0.762790E-001
-0.869594E-001
-0.100179E+000
-0.116713E+000
-0.138156E+000
-0.166075E+000
-0.204759E+000
-0.259100E+000
-0.341078E+000
-0.483597E+000
-0.119648E-001
-0.126046E-001
-0.132992E-001
-0.140544E-001
-0.148770E-001
-0.157753E-001
-0.167589E-001
-0.178392E-001
-0.190293E-001
-0.203451E-001
-0.218050E-001
-0.234314E-001
-0.252513E-001
-0.272969E-001
-0.296090E-001
-0.322361E-001
-0.352416E-001
-0.387019E-001
-0.427189E-001
-0.474238E-001
-0.529814E-001
-0.596451E-001
-0.676839E-001
-0.776396E-001
-0.899950E-001
-0.105957E+000
-0.126699E+000
-0.154906E+000
-0.194630E+000
-0.252711E+000
-0.345343E+000
-0.511290E+000
-0.100122E-001
-0.105450E-001
-0.111241E-001
-0.117545E-001
-0.124422E-001
-0.131941E-001
-0.140186E-001
-0.149254E-001
-0.159260E-001
-0.170342E-001
-0.182663E-001
-0.196422E-001
-0.211858E-001
-0.229268E-001
-0.249014E-001
-0.271553E-001
-0.297466E-001
-0.327466E-001
-0.362576E-001
-0.403918E-001
-0.453450E-001
-0.513051E-001
-0.586608E-001
-0.677961E-001
-0.794739E-001
-0.947064E-001
-0.115060E+000
-0.143521E+000
-0.184422E+000
-0.246846E+000
-0.349409E+000
-0.537562E+000
-0.787221E-002
-0.829028E-002
-0.874576E-002
-0.924272E-002
-0.978608E-002
-0.103817E-001
-0.110364E-001
-0.117585E-001
-0.125577E-001
-0.134458E-001
-0.144371E-001
-0.155487E-001
-0.168020E-001
-0.182234E-001
-0.198455E-001
-0.217114E-001
-0.238717E-001
-0.264022E-001
-0.293840E-001
-0.329568E-001
-0.372665E-001
-0.425714E-001
-0.491873E-001
-0.575967E-001
-0.685713E-001
-0.831604E-001
-0.103281E+000
-0.131963E+000
-0.174447E+000
-0.241203E+000
-0.353448E+000
-0.562183E+000
-0.554754E-002
-0.584360E-002
-0.616769E-002
-0.652300E-002
-0.691338E-002
-0.734346E-002
-0.781877E-002
-0.834598E-002
-0.893314E-002
-0.959006E-002
-0.103288E-001
-0.111642E-001
-0.121150E-001
-0.132040E-001
-0.144624E-001
-0.159261E-001
-0.176492E-001
-0.196918E-001
-0.221504E-001
-0.251383E-001
-0.288284E-001
-0.334619E-001
-0.393701E-001
-0.470883E-001
-0.573761E-001
-0.714564E-001
-0.913763E-001
-0.120449E+000
-0.164710E+000
-0.235797E+000
-0.357399E+000
-0.584933E+000
-0.304481E-002
-0.321217E-002
-0.339785E-002
-0.360412E-002
-0.383377E-002
-0.409020E-002
-0.437758E-002
-0.470106E-002
-0.506697E-002
-0.548326E-002
-0.595981E-002
-0.650936E-002
-0.714752E-002
-0.789579E-002
-0.877954E-002
-0.983621E-002
-0.111100E-001
-0.126670E-001
-0.145921E-001
-0.170048E-001
-0.200791E-001
-0.240535E-001
-0.292926E-001
-0.363400E-001
-0.460173E-001
-0.596673E-001
-0.794722E-001
-0.109099E+000
-0.155258E+000
-0.230642E+000
-0.361169E+000
-0.605546E+000
-0.375227E-003
-0.408074E-003
-0.449294E-003
-0.500226E-003
-0.562582E-003
-0.638567E-003
-0.731010E-003
-0.843552E-003
-0.980923E-003
-0.114917E-002
-0.135637E-002
-0.161264E-002
-0.193214E-002
-0.233222E-002
-0.283805E-002
-0.348120E-002
-0.430678E-002
-0.537602E-002
-0.677309E-002
-0.862061E-002
-0.110904E-001
-0.144352E-001
-0.190354E-001
-0.254603E-001
-0.346014E-001
-0.478983E-001
-0.676950E-001
-0.980146E-001
-0.146140E+000
-0.225749E+000
-0.364627E+000
-0.623755E+000
 0.244464E-002
 0.255099E-002
 0.265904E-002
 0.276839E-002
 0.287838E-002
 0.298799E-002
 0.309569E-002
 0.319924E-002
 0.329553E-002
 0.338010E-002
 0.344701E-002
 0.348764E-002
 0.349081E-002
 0.344028E-002
 0.331447E-002
 0.308291E-002
 0.270290E-002
 0.211524E-002
 0.123432E-002
-0.621474E-004
-0.195168E-002
-0.469905E-002
-0.870100E-002
-0.145630E-001
-0.232412E-001
-0.362691E-001
-0.561683E-001
-0.872862E-001
-0.137410E+000
-0.221103E+000
-0.367617E+000
-0.639298E+000
 0.539223E-002
 0.564105E-002
 0.590166E-002
 0.617457E-002
 0.646016E-002
 0.675854E-002
 0.706939E-002
 0.739186E-002
 0.772422E-002
 0.806374E-002
 0.840592E-002
 0.874433E-002
 0.906922E-002
 0.936675E-002
 0.961694E-002
 0.979099E-002
 0.984800E-002
 0.972869E-002
 0.934719E-002
 0.857861E-002
 0.723819E-002
 0.504955E-002
 0.159545E-002
-0.376852E-002
-0.120589E-001
-0.249065E-001
-0.450087E-001
-0.770004E-001
-0.129115E+000
-0.216669E+000
-0.369972E+000
-0.651924E+000
 0.843835E-002
 0.883124E-002
 0.924587E-002
 0.968368E-002
 0.101460E-001
 0.106340E-001
 0.111486E-001
 0.116900E-001
 0.122580E-001
 0.128511E-001
 0.134665E-001
 0.140992E-001
 0.147412E-001
 0.153802E-001
 0.159976E-001
 0.165660E-001
 0.170450E-001
 0.173752E-001
 0.174692E-001
 0.171981E-001
 0.163692E-001
 0.146931E-001
 0.117295E-001
 0.679559E-002
-0.118434E-002
-0.139386E-001
-0.343280E-001
-0.672378E-001
-0.121287E+000
-0.212389E+000
-0.371513E+000
-0.661397E+000
 0.115467E-001
 0.120833E-001
 0.126513E-001
 0.132531E-001
 0.138909E-001
 0.145668E-001
 0.152827E-001
 0.160401E-001
 0.168398E-001
 0.176818E-001
 0.185643E-001
 0.194838E-001
 0.204336E-001
 0.214026E-001
 0.223732E-001
 0.233188E-001
 0.241989E-001
 0.249534E-001
 0.254923E-001
 0.256816E-001
 0.253202E-001
 0.241042E-001
 0.215692E-001
 0.169951E-001
 0.924860E-002
-0.349189E-002
-0.242321E-001
-0.580709E-001
-0.113943E+000
-0.208188E+000
-0.372058E+000
-0.667501E+000
 0.146735E-001
 0.153512E-001
 0.160697E-001
 0.168320E-001
 0.176412E-001
 0.185004E-001
 0.194123E-001
 0.203793E-001
 0.214034E-001
 0.224854E-001
 0.236249E-001
 0.248192E-001
 0.260627E-001
 0.273450E-001
 0.286495E-001
 0.299493E-001
 0.312038E-001
 0.323510E-001
 0.332979E-001
 0.339046E-001
 0.339608E-001
 0.331473E-001
 0.309763E-001
 0.266916E-001
 0.191052E-001
 0.631122E-002
-0.148198E-001
-0.495604E-001
-0.107083E+000
-0.203975E+000
-0.371423E+000
-0.670043E+000
 0.177675E-001
 0.185813E-001
 0.194447E-001
 0.203614E-001
 0.213351E-001
 0.223697E-001
 0.234688E-001
 0.246355E-001
 0.258727E-001
 0.271819E-001
 0.285637E-001
 0.300162E-001
 0.315343E-001
 0.331084E-001
 0.347217E-001
 0.363473E-001
 0.379435E-001
 0.394461E-001
 0.407583E-001
 0.417342E-001
 0.421534E-001
 0.416819E-001
 0.398090E-001
 0.357454E-001
 0.282533E-001
 0.153546E-001
-0.617987E-002
-0.417535E-001
-0.100689E+000
-0.199645E+000
-0.369432E+000
-0.668853E+000
 0.207702E-001
 0.217125E-001
 0.227125E-001
 0.237743E-001
 0.249025E-001
 0.261015E-001
 0.273754E-001
 0.287281E-001
 0.301630E-001
 0.316825E-001
 0.332876E-001
 0.349769E-001
 0.367457E-001
 0.385846E-001
 0.404766E-001
 0.423941E-001
 0.442939E-001
 0.461092E-001
 0.477393E-001
 0.490315E-001
 0.497559E-001
 0.495642E-001
 0.479249E-001
 0.440189E-001
 0.365661E-001
 0.235307E-001
 0.161040E-002
-0.346817E-001
-0.947276E-001
-0.195087E+000
-0.365912E+000
-0.663794E+000
 0.236165E-001
 0.246770E-001
 0.258022E-001
 0.269970E-001
 0.282664E-001
 0.296151E-001
 0.310478E-001
 0.325690E-001
 0.341824E-001
 0.358909E-001
 0.376957E-001
 0.395958E-001
 0.415867E-001
 0.436585E-001
 0.457941E-001
 0.479646E-001
 0.501251E-001
 0.522060E-001
 0.541023E-001
 0.556550E-001
 0.566252E-001
 0.566515E-001
 0.551844E-001
 0.513800E-001
 0.439253E-001
 0.307436E-001
 0.848806E-002
-0.283608E-001
-0.891519E-001
-0.190184E+000
-0.360705E+000
-0.654757E+000
 0.262359E-001
 0.274012E-001
 0.286375E-001
 0.299499E-001
 0.313438E-001
 0.328242E-001
 0.343963E-001
 0.360646E-001
 0.378332E-001
 0.397052E-001
 0.416819E-001
 0.437625E-001
 0.459421E-001
 0.482107E-001
 0.505501E-001
 0.529303E-001
 0.553045E-001
 0.576003E-001
 0.597083E-001
 0.614641E-001
 0.626204E-001
 0.628050E-001
 0.614543E-001
 0.577057E-001
 0.502244E-001
 0.369112E-001
 0.144058E-001
-0.227906E-001
-0.839026E-001
-0.184821E+000
-0.353669E+000
-0.641669E+000
 0.285539E-001
 0.298080E-001
 0.311382E-001
 0.325498E-001
 0.340483E-001
 0.356391E-001
 0.373273E-001
 0.391177E-001
 0.410144E-001
 0.430206E-001
 0.451375E-001
 0.473641E-001
 0.496952E-001
 0.521201E-001
 0.546198E-001
 0.571630E-001
 0.597007E-001
 0.621580E-001
 0.644218E-001
 0.663227E-001
 0.676071E-001
 0.678947E-001
 0.666119E-001
 0.628856E-001
 0.553713E-001
 0.419676E-001
 0.193332E-001
-0.179560E-001
-0.789119E-001
-0.178881E+000
-0.344680E+000
-0.624495E+000
 0.304944E-001
 0.318185E-001
 0.332225E-001
 0.347120E-001
 0.362923E-001
 0.379688E-001
 0.397467E-001
 0.416308E-001
 0.436251E-001
 0.457326E-001
 0.479545E-001
 0.502891E-001
 0.527309E-001
 0.552686E-001
 0.578819E-001
 0.605384E-001
 0.631874E-001
 0.657515E-001
 0.681148E-001
 0.701041E-001
 0.714618E-001
 0.718028E-001
 0.705491E-001
 0.668255E-001
 0.592914E-001
 0.458647E-001
 0.232569E-001
-0.138279E-001
-0.741060E-001
-0.172260E+000
-0.333641E+000
-0.603236E+000
 0.319819E-001
 0.333549E-001
 0.348103E-001
 0.363535E-001
 0.379900E-001
 0.397248E-001
 0.415631E-001
 0.435096E-001
 0.455679E-001
 0.477409E-001
 0.500292E-001
 0.524311E-001
 0.549402E-001
 0.575443E-001
 0.602226E-001
 0.629413E-001
 0.656481E-001
 0.682642E-001
 0.706717E-001
 0.726956E-001
 0.740764E-001
 0.744285E-001
 0.731758E-001
 0.694504E-001
 0.619301E-001
 0.485740E-001
 0.261807E-001
-0.103657E-001
-0.694089E-001
-0.164861E+000
-0.320479E+000
-0.577934E+000
 0.329455E-001
 0.343439E-001
 0.358259E-001
 0.373966E-001
 0.390611E-001
 0.408245E-001
 0.426915E-001
 0.446664E-001
 0.467528E-001
 0.489531E-001
 0.512674E-001
 0.536935E-001
 0.562245E-001
 0.588475E-001
 0.615408E-001
 0.642697E-001
 0.669813E-001
 0.695957E-001
 0.719945E-001
 0.740028E-001
 0.753626E-001
 0.756921E-001
 0.744239E-001
 0.707074E-001
 0.632541E-001
 0.500869E-001
 0.281247E-001
-0.751904E-002
-0.647455E-001
-0.156605E+000
-0.305154E+000
-0.548673E+000
 0.333214E-001
 0.347203E-001
 0.362023E-001
 0.377723E-001
 0.394351E-001
 0.411953E-001
 0.430574E-001
 0.450253E-001
 0.471021E-001
 0.492898E-001
 0.515882E-001
 0.539943E-001
 0.565009E-001
 0.590944E-001
 0.617527E-001
 0.644406E-001
 0.671049E-001
 0.696661E-001
 0.720069E-001
 0.739546E-001
 0.752560E-001
 0.755384E-001
 0.742501E-001
 0.705684E-001
 0.632538E-001
 0.504151E-001
 0.291240E-001
-0.523059E-002
-0.600449E-001
-0.147428E+000
-0.287657E+000
-0.515575E+000
 0.330573E-001
 0.344304E-001
 0.358848E-001
 0.374248E-001
 0.390548E-001
 0.407790E-001
 0.426015E-001
 0.445257E-001
 0.465545E-001
 0.486890E-001
 0.509289E-001
 0.532707E-001
 0.557065E-001
 0.582227E-001
 0.607968E-001
 0.633940E-001
 0.659615E-001
 0.684214E-001
 0.706590E-001
 0.725069E-001
 0.737202E-001
 0.739401E-001
 0.726386E-001
 0.690313E-001
 0.619430E-001
 0.495901E-001
 0.292274E-001
-0.343837E-002
-0.552437E-001
-0.137291E+000
-0.268015E+000
-0.478808E+000
 0.321157E-001
 0.334363E-001
 0.348348E-001
 0.363149E-001
 0.378806E-001
 0.395357E-001
 0.412836E-001
 0.431275E-001
 0.450695E-001
 0.471106E-001
 0.492499E-001
 0.514834E-001
 0.538033E-001
 0.561958E-001
 0.586387E-001
 0.610978E-001
 0.635222E-001
 0.658367E-001
 0.679313E-001
 0.696463E-001
 0.707491E-001
 0.709004E-001
 0.696029E-001
 0.661215E-001
 0.593598E-001
 0.476624E-001
 0.284957E-001
-0.207839E-002
-0.502883E-001
-0.126177E+000
-0.246289E+000
-0.438575E+000
 0.304776E-001
 0.317191E-001
 0.330336E-001
 0.344243E-001
 0.358945E-001
 0.374475E-001
 0.390865E-001
 0.408139E-001
 0.426315E-001
 0.445399E-001
 0.465378E-001
 0.486211E-001
 0.507818E-001
 0.530066E-001
 0.552739E-001
 0.575513E-001
 0.597903E-001
 0.619200E-001
 0.638373E-001
 0.653927E-001
 0.663699E-001
 0.664544E-001
 0.651869E-001
 0.618919E-001
 0.555657E-001
 0.447002E-001
 0.269991E-001
-0.108701E-002
-0.451381E-001
-0.114093E+000
-0.222578E+000
-0.395123E+000
 0.281451E-001
 0.292818E-001
 0.304851E-001
 0.317576E-001
 0.331023E-001
 0.345219E-001
 0.360188E-001
 0.375954E-001
 0.392528E-001
 0.409913E-001
 0.428093E-001
 0.447028E-001
 0.466641E-001
 0.486805E-001
 0.507318E-001
 0.527877E-001
 0.548037E-001
 0.567144E-001
 0.584255E-001
 0.598007E-001
 0.606437E-001
 0.606697E-001
 0.594650E-001
 0.564226E-001
 0.506447E-001
 0.407878E-001
 0.248159E-001
-0.402960E-003
-0.397661E-001
-0.101074E+000
-0.197016E+000
-0.348732E+000
 0.251435E-001
 0.261513E-001
 0.272179E-001
 0.283456E-001
 0.295366E-001
 0.307932E-001
 0.321175E-001
 0.335112E-001
 0.349752E-001
 0.365096E-001
 0.381125E-001
 0.397802E-001
 0.415056E-001
 0.432769E-001
 0.450759E-001
 0.468755E-001
 0.486357E-001
 0.502984E-001
 0.517800E-001
 0.529600E-001
 0.536655E-001
 0.536465E-001
 0.525409E-001
 0.498194E-001
 0.447015E-001
 0.360239E-001
 0.220303E-001
 0.310010E-004
-0.341607E-001
-0.871811E-001
-0.169769E+000
-0.299719E+000
 0.215224E-001
 0.223793E-001
 0.232862E-001
 0.242448E-001
 0.252568E-001
 0.263240E-001
 0.274481E-001
 0.286304E-001
 0.298714E-001
 0.311711E-001
 0.325277E-001
 0.339379E-001
 0.353952E-001
 0.368895E-001
 0.384050E-001
 0.399184E-001
 0.413953E-001
 0.427863E-001
 0.440200E-001
 0.449945E-001
 0.455632E-001
 0.455155E-001
 0.445465E-001
 0.422122E-001
 0.378598E-001
 0.305192E-001
 0.187307E-001
 0.266996E-003
-0.283255E-001
-0.724988E-001
-0.141037E+000
-0.248430E+000
 0.173549E-001
 0.180422E-001
 0.187695E-001
 0.195380E-001
 0.203491E-001
 0.212042E-001
 0.221044E-001
 0.230506E-001
 0.240434E-001
 0.250824E-001
 0.261662E-001
 0.272919E-001
 0.284542E-001
 0.296448E-001
 0.308508E-001
 0.320534E-001
 0.332248E-001
 0.343251E-001
 0.352974E-001
 0.360596E-001
 0.364950E-001
 0.364356E-001
 0.356388E-001
 0.337525E-001
 0.302598E-001
 0.243949E-001
 0.150083E-001
 0.351467E-003
-0.222788E-001
-0.571358E-001
-0.111049E+000
-0.195241E+000
 0.127363E-001
 0.132386E-001
 0.137701E-001
 0.143317E-001
 0.149242E-001
 0.155486E-001
 0.162057E-001
 0.168962E-001
 0.176204E-001
 0.183778E-001
 0.191676E-001
 0.199873E-001
 0.208331E-001
 0.216988E-001
 0.225750E-001
 0.234476E-001
 0.242964E-001
 0.250921E-001
 0.257929E-001
 0.263392E-001
 0.266457E-001
 0.265902E-001
 0.259967E-001
 0.246098E-001
 0.220554E-001
 0.177803E-001
 0.109562E-001
 0.325203E-003
-0.160523E-001
-0.412207E-001
-0.800557E-001
-0.140548E+000
 0.778082E-002
 0.808683E-002
 0.841062E-002
 0.875266E-002
 0.911351E-002
 0.949371E-002
 0.989374E-002
 0.103140E-001
 0.107545E-001
 0.112152E-001
 0.116953E-001
 0.121935E-001
 0.127073E-001
 0.132329E-001
 0.137644E-001
 0.142935E-001
 0.148075E-001
 0.152887E-001
 0.157117E-001
 0.160400E-001
 0.162219E-001
 0.161831E-001
 0.158169E-001
 0.149684E-001
 0.134113E-001
 0.108112E-001
 0.666815E-002
 0.223926E-003
-0.968867E-002
-0.248988E-001
-0.483305E-001
-0.847674E-001
 0.261709E-002
 0.271987E-002
 0.282862E-002
 0.294350E-002
 0.306468E-002
 0.319235E-002
 0.332665E-002
 0.346772E-002
 0.361559E-002
 0.377019E-002
 0.393129E-002
 0.409841E-002
 0.427072E-002
 0.444695E-002
 0.462512E-002
 0.480237E-002
 0.497451E-002
 0.513555E-002
 0.527693E-002
 0.538646E-002
 0.544673E-002
 0.543286E-002
 0.530905E-002
 0.502344E-002
 0.450028E-002
 0.362768E-002
 0.223846E-002
 0.793547E-004
-0.323929E-002
-0.832756E-002
-0.161600E-001
-0.283292E-001
-0.261709E-002
-0.271987E-002
-0.282862E-002
-0.294350E-002
-0.306468E-002
-0.319235E-002
-0.332665E-002
-0.346772E-002
-0.361559E-002
-0.377019E-002
-0.393129E-002
-0.409841E-002
-0.427072E-002
-0.444695E-002
-0.462512E-002
-0.480237E-002
-0.497451E-002
-0.513555E-002
-0.527693E-002
-0.538646E-002
-0.544673E-002
-0.543286E-002
-0.530905E-002
-0.502344E-002
-0.450028E-002
-0.362768E-002
-0.223846E-002
-0.793547E-004
 0.323929E-002
 0.832756E-002
 0.161600E-001
 0.283292E-001
-0.778082E-002
-0.808683E-002
-0.841062E-002
-0.875266E-002
-0.911351E-002
-0.949371E-002
-0.989374E-002
-0.103140E-001
-0.107545E-001
-0.112152E-001
-0.116953E-001
-0.121935E-001
-0.127073E-001
-0.132329E-001
-0.137644E-001
-0.142935E-001
-0.148075E-001
-0.152887E-001
-0.157117E-001
-0.160400E-001
-0.162219E-001
-0.161831E-001
-0.158169E-001
-0.149684E-001
-0.134113E-001
-0.108112E-001
-0.666815E-002
-0.223926E-003
 0.968867E-002
 0.248988E-001
 0.483305E-001
 0.847674E-001
-0.127363E-001
-0.132386E-001
-0.137701E-001
-0.143317E-001
-0.149242E-001
-0.155486E-001
-0.162057E-001
-0.168962E-001
-0.176204E-001
-0.183778E-001
-0.191676E-001
-0.199873E-001
-0.208331E-001
-0.216988E-001
-0.225750E-001
-0.234476E-001
-0.242964E-001
-0.250921E-001
-0.257929E-001
-0.263392E-001
-0.266457E-001
-0.265902E-001
-0.259967E-001
-0.246098E-001
-0.220554E-001
-0.177803E-001
-0.109562E-001
-0.325203E-003
 0.160523E-001
 0.412207E-001
 0.800557E-001
 0.140548E+000
-0.173549E-001
-0.180422E-001
-0.187695E-001
-0.195380E-001
-0.203491E-001
-0.212042E-001
-0.221044E-001
-0.230506E-001
-0.240434E-001
-0.250824E-001
-0.261662E-001
-0.272919E-001
-0.284542E-001
-0.296448E-001
-0.308508E-001
-0.320534E-001
-0.332248E-001
-0.343251E-001
-0.352974E-001
-0.360596E-001
-0.364950E-001
-0.364356E-001
-0.356388E-001
-0.337525E-001
-0.302598E-001
-0.243949E-001
-0.150083E-001
-0.351467E-003
 0.222788E-001
 0.571358E-001
 0.111049E+000
 0.195241E+000
-0.215224E-001
-0.223793E-001
-0.232862E-001
-0.242448E-001
-0.252568E-001
-0.263240E-001
-0.274481E-001
-0.286304E-001
-0.298714E-001
-0.311711E-001
-0.325277E-001
-0.339379E-001
-0.353952E-001
-0.368895E-001
-0.384050E-001
-0.399184E-001
-0.413953E-001
-0.427863E-001
-0.440200E-001
-0.449945E-001
-0.455632E-001
-0.455155E-001
-0.445465E-001
-0.422122E-001
-0.378598E-001
-0.305192E-001
-0.187307E-001
-0.266996E-003
 0.283255E-001
 0.724988E-001
 0.141037E+000
 0.248430E+000
-0.251435E-001
-0.261513E-001
-0.272179E-001
-0.283456E-001
-0.295366E-001
-0.307932E-001
-0.321175E-001
-0.335112E-001
-0.349752E-001
-0.365096E-001
-0.381125E-001
-0.397802E-001
-0.415056E-001
-0.432769E-001
-0.450759E-001
-0.468755E-001
-0.486357E-001
-0.502984E-001
-0.517800E-001
-0.529600E-001
-0.536655E-001
-0.536465E-001
-0.525409E-001
-0.498194E-001
-0.447015E-001
-0.360239E-001
-0.220303E-001
-0.310010E-004
 0.341607E-001
 0.871811E-001
 0.169769E+000
 0.299719E+000
-0.281451E-001
-0.292818E-001
-0.304851E-001
-0.317576E-001
-0.331023E-001
-0.345219E-001
-0.360188E-001
-0.375954E-001
-0.392528E-001
-0.409913E-001
-0.428093E-001
-0.447028E-001
-0.466641E-001
-0.486805E-001
-0.507318E-001
-0.527877E-001
-0.548037E-001
-0.567144E-001
-0.584255E-001
-0.598007E-001
-0.606437E-001
-0.606697E-001
-0.594650E-001
-0.564226E-001
-0.506447E-001
-0.407878E-001
-0.248159E-001
 0.402960E-003
 0.397661E-001
 0.101074E+000
 0.197016E+000
 0.348732E+000
-0.304776E-001
-0.317191E-001
-0.330336E-001
-0.344243E-001
-0.358945E-001
-0.374475E-001
-0.390865E-001
-0.408139E-001
-0.426315E-001
-0.445399E-001
-0.465378E-001
-0.486211E-001
-0.507818E-001
-0.530066E-001
-0.552739E-001
-0.575513E-001
-0.597903E-001
-0.619200E-001
-0.638373E-001
-0.653927E-001
-0.663699E-001
-0.664544E-001
-0.651869E-001
-0.618919E-001
-0.555657E-001
-0.447002E-001
-0.269991E-001
 0.108701E-002
 0.451381E-001
 0.114093E+000
 0.222578E+000
 0.395123E+000
-0.321157E-001
-0.334363E-001
-0.348348E-001
-0.363149E-001
-0.378806E-001
-0.395357E-001
-0.412836E-001
-0.431275E-001
-0.450695E-001
-0.471106E-001
-0.492499E-001
-0.514834E-001
-0.538033E-001
-0.561958E-001
-0.586387E-001
-0.610978E-001
-0.635222E-001
-0.658367E-001
-0.679313E-001
-0.696463E-001
-0.707491E-001
-0.709004E-001
-0.696029E-001
-0.661215E-001
-0.593598E-001
-0.476624E-001
-0.284957E-001
 0.207839E-002
 0.502883E-001
 0.126177E+000
 0.246289E+000
 0.438575E+000
-0.330573E-001
-0.344304E-001
-0.358848E-001
-0.374248E-001
-0.390548E-001
-0.407790E-001
-0.426015E-001
-0.445257E-001
-0.465545E-001
-0.486890E-001
-0.509289E-001
-0.532707E-001
-0.557065E-001
-0.582227E-001
-0.607968E-001
-0.633940E-001
-0.659615E-001
-0.684214E-001
-0.706590E-001
-0.725069E-001
-0.737202E-001
-0.739401E-001
-0.726386E-001
-0.690313E-001
-0.619430E-001
-0.495901E-001
-0.292274E-001
 0.343837E-002
 0.552437E-001
 0.137291E+000
 0.268015E+000
 0.478808E+000
-0.333214E-001
-0.347203E-001
-0.362023E-001
-0.377723E-001
-0.394351E-001
-0.411953E-001
-0.430574E-001
-0.450253E-001
-0.471021E-001
-0.492898E-001
-0.515882E-001
-0.539943E-001
-0.565009E-001
-0.590944E-001
-0.617527E-001
-0.644406E-001
-0.671049E-001
-0.696661E-001
-0.720069E-001
-0.739546E-001
-0.752560E-001
-0.755384E-001
-0.742501E-001
-0.705684E-001
-0.632538E-001
-0.504151E-001
-0.291240E-001
 0.523059E-002
 0.600449E-001
 0.147428E+000
 0.287657E+000
 0.515575E+000
-0.329455E-001
-0.343439E-001
-0.358259E-001
-0.373966E-001
-0.390611E-001
-0.408245E-001
-0.426915E-001
-0.446664E-001
-0.467528E-001
-0.489531E-001
-0.512674E-001
-0.536935E-001
-0.562245E-001
-0.588475E-001
-0.615408E-001
-0.642697E-001
-0.669813E-001
-0.695957E-001
-0.719945E-001
-0.740028E-001
-0.753626E-001
-0.756921E-001
-0.744239E-001
-0.707074E-001
-0.632541E-001
-0.500869E-001
-0.281247E-001
 0.751904E-002
 0.647455E-001
 0.156605E+000
 0.305154E+000
 0.548673E+000
-0.319819E-001
-0.333549E-001
-0.348103E-001
-0.363535E-001
-0.379900E-001
-0.397248E-001
-0.415631E-001
-0.435096E-001
-0.455679E-001
-0.477409E-001
-0.500292E-001
-0.524311E-001
-0.549402E-001
-0.575443E-001
-0.602226E-001
-0.629413E-001
-0.656481E-001
-0.682642E-001
-0.706717E-001
-0.726956E-001
-0.740764E-001
-0.744285E-001
-0.731758E-001
-0.694504E-001
-0.619301E-001
-0.485740E-001
-0.261807E-001
 0.103657E-001
 0.694089E-001
 0.164861E+000
 0.320479E+000
 0.577934E+000
-0.304944E-001
-0.318185E-001
-0.332225E-001
-0.347120E-001
-0.362923E-001
-0.379688E-001
-0.397467E-001
-0.416308E-001
-0.436251E-001
-0.457326E-001
-0.479545E-001
-0.502891E-001
-0.527309E-001
-0.552686E-001
-0.578819E-001
-0.605384E-001
-0.631874E-001
-0.657515E-001
-0.681148E-001
-0.701041E-001
-0.714618E-001
-0.718028E-001
-0.705491E-001
-0.668255E-001
-0.592914E-001
-0.458647E-001
-0.232569E-001
 0.138279E-001
 0.741060E-001
 0.172260E+000
 0.333641E+000
 0.603236E+000
-0.285539E-001
-0.298080E-001
-0.311382E-001
-0.325498E-001
-0.340483E-001
-0.356391E-001
-0.373273E-001
-0.391177E-001
-0.410144E-001
-0.430206E-001
-0.451375E-001
-0.473641E-001
-0.496952E-001
-0.521201E-001
-0.546198E-001
-0.571630E-001
-0.597007E-001
-0.621580E-001
-0.644218E-001
-0.663227E-001
-0.676071E-001
-0.678947E-001
-0.666119E-001
-0.628856E-001
-0.553713E-001
-0.419676E-001
-0.193332E-001
 0.179560E-001
 0.789119E-001
 0.178881E+000
 0.344680E+000
 0.624495E+000
-0.262359E-001
-0.274012E-001
-0.286375E-001
-0.299499E-001
-0.313438E-001
-0.328242E-001
-0.343963E-001
-0.360646E-001
-0.378332E-001
-0.397052E-001
-0.416819E-001
-0.437625E-001
-0.459421E-001
-0.482107E-001
-0.505501E-001
-0.529303E-001
-0.553045E-001
-0.576003E-001
-0.597083E-001
-0.614641E-001
-0.626204E-001
-0.628050E-001
-0.614543E-001
-0.577057E-001
-0.502244E-001
-0.369112E-001
-0.144058E-001
 0.227906E-001
 0.839026E-001
 0.184821E+000
 0.353669E+000
 0.641669E+000
-0.236165E-001
-0.246770E-001
-0.258022E-001
-0.269970E-001
-0.282664E-001
-0.296151E-001
-0.310478E-001
-0.325690E-001
-0.341824E-001
-0.358909E-001
-0.376957E-001
-0.395958E-001
-0.415867E-001
-0.436585E-001
-0.457941E-001
-0.479646E-001
-0.501251E-001
-0.522060E-001
-0.541023E-001
-0.556550E-001
-0.566252E-001
-0.566515E-001
-0.551844E-001
-0.513800E-001
-0.439253E-001
-0.307436E-001
-0.848806E-002
 0.283608E-001
 0.891519E-001
 0.190184E+000
 0.360705E+000
 0.654757E+000
-0.207702E-001
-0.217125E-001
-0.227125E-001
-0.237743E-001
-0.249025E-001
-0.261015E-001
-0.273754E-001
-0.287281E-001
-0.301630E-001
-0.316825E-001
-0.332876E-001
-0.349769E-001
-0.367457E-001
-0.385846E-001
-0.404766E-001
-0.423941E-001
-0.442939E-001
-0.461092E-001
-0.477393E-001
-0.490315E-001
-0.497559E-001
-0.495642E-001
-0.479249E-001
-0.440189E-001
-0.365661E-001
-0.235307E-001
-0.161040E-002
 0.346817E-001
 0.947276E-001
 0.195087E+000
 0.365912E+000
 0.663794E+000
-0.177675E-001
-0.185813E-001
-0.194447E-001
-0.203614E-001
-0.213351E-001
-0.223697E-001
-0.234688E-001
-0.246355E-001
-0.258727E-001
-0.271819E-001
-0.285637E-001
-0.300162E-001
-0.315343E-001
-0.331084E-001
-0.347217E-001
-0.363473E-001
-0.379435E-001
-0.394461E-001
-0.407583E-001
-0.417342E-001
-0.421534E-001
-0.416819E-001
-0.398090E-001
-0.357454E-001
-0.282533E-001
-0.153546E-001
 0.617987E-002
 0.417535E-001
 0.100689E+000
 0.199645E+000
 0.369432E+000
 0.668853E+000
-0.146735E-001
-0.153512E-001
-0.160697E-001
-0.168320E-001
-0.176412E-001
-0.185004E-001
-0.194123E-001
-0.203793E-001
-0.214034E-001
-0.224854E-001
-0.236249E-001
-0.248192E-001
-0.260627E-001
-0.273450E-001
-0.286495E-001
-0.299493E-001
-0.312038E-001
-0.323510E-001
-0.332979E-001
-0.339046E-001
-0.339608E-001
-0.331473E-001
-0.309763E-001
-0.266916E-001
-0.191052E-001
-0.631122E-002
 0.148198E-001
 0.495604E-001
 0.107083E+000
 0.203975E+000
 0.371423E+000
 0.670043E+000
-0.115467E-001
-0.120833E-001
-0.126513E-001
-0.132531E-001
-0.138909E-001
-0.145668E-001
-0.152827E-001
-0.160401E-001
-0.168398E-001
-0.176818E-001
-0.185643E-001
-0.194838E-001
-0.204336E-001
-0.214026E-001
-0.223732E-001
-0.233188E-001
-0.241989E-001
-0.249534E-001
-0.254923E-001
-0.256816E-001
-0.253202E-001
-0.241042E-001
-0.215692E-001
-0.169951E-001
-0.924860E-002
 0.349189E-002
 0.242321E-001
 0.580709E-001
 0.113943E+000
 0.208188E+000
 0.372058E+000
 0.667501E+000
-0.843835E-002
-0.883124E-002
-0.924587E-002
-0.968368E-002
-0.101460E-001
-0.106340E-001
-0.111486E-001
-0.116900E-001
-0.122580E-001
-0.128511E-001
-0.134665E-001
-0.140992E-001
-0.147412E-001
-0.153802E-001
-0.159976E-001
-0.165660E-001
-0.170450E-001
-0.173752E-001
-0.174692E-001
-0.171981E-001
-0.163692E-001
-0.146931E-001
-0.117295E-001
-0.679559E-002
 0.118434E-002
 0.139386E-001
 0.343280E-001
 0.672378E-001
 0.121287E+000
 0.212389E+000
 0.371513E+000
 0.661397E+000
-0.539223E-002
-0.564105E-002
-0.590166E-002
-0.617457E-002
-0.646016E-002
-0.675854E-002
-0.706939E-002
-0.739186E-002
-0.772422E-002
-0.806374E-002
-0.840592E-002
-0.874433E-002
-0.906922E-002
-0.936675E-002
-0.961694E-002
-0.979099E-002
-0.984800E-002
-0.972869E-002
-0.934719E-002
-0.857861E-002
-0.723819E-002
-0.504955E-002
-0.159545E-002
 0.376852E-002
 0.120589E-001
 0.249065E-001
 0.450087E-001
 0.770004E-001
 0.129115E+000
 0.216669E+000
 0.369972E+000
 0.651924E+000
-0.244464E-002
-0.255099E-002
-0.265904E-002
-0.276839E-002
-0.287838E-002
-0.298799E-002
-0.309569E-002
-0.319924E-002
-0.329553E-002
-0.338010E-002
-0.344701E-002
-0.348764E-002
-0.349081E-002
-0.344028E-002
-0.331447E-002
-0.308291E-002
-0.270290E-002
-0.211524E-002
-0.123432E-002
 0.621474E-004
 0.195168E-002
 0.469905E-002
 0.870100E-002
 0.145630E-001
 0.232412E-001
 0.362691E-001
 0.561683E-001
 0.872862E-001
 0.137410E+000
 0.221103E+000
 0.367617E+000
 0.639298E+000
 0.375227E-003
 0.408074E-003
 0.449294E-003
 0.500226E-003
 0.562582E-003
 0.638567E-003
 0.731010E-003
 0.843552E-003
 0.980923E-003
 0.114917E-002
 0.135637E-002
 0.161264E-002
 0.193214E-002
 0.233222E-002
 0.283805E-002
 0.348120E-002
 0.430678E-002
 0.537602E-002
 0.677309E-002
 0.862061E-002
 0.110904E-001
 0.144352E-001
 0.190354E-001
 0.254603E-001
 0.346014E-001
 0.478983E-001
 0.676950E-001
 0.980146E-001
 0.146140E+000
 0.225749E+000
 0.364627E+000
 0.623755E+000
 0.304481E-002
 0.321217E-002
 0.339785E-002
 0.360412E-002
 0.383377E-002
 0.409020E-002
 0.437758E-002
 0.470106E-002
 0.506697E-002
 0.548326E-002
 0.595981E-002
 0.650936E-002
 0.714752E-002
 0.789579E-002
 0.877954E-002
 0.983621E-002
 0.111100E-001
 0.126670E-001
 0.145921E-001
 0.170048E-001
 0.200791E-001
 0.240535E-001
 0.292926E-001
 0.363400E-001
 0.460173E-001
 0.596673E-001
 0.794722E-001
 0.109099E+000
 0.155258E+000
 0.230642E+000
 0.361169E+000
 0.605546E+000
 0.554754E-002
 0.584360E-002
 0.616769E-002
 0.652300E-002
 0.691338E-002
 0.734346E-002
 0.781877E-002
 0.834598E-002
 0.893314E-002
 0.959006E-002
 0.103288E-001
 0.111642E-001
 0.121150E-001
 0.132040E-001
 0.144624E-001
 0.159261E-001
 0.176492E-001
 0.196918E-001
 0.221504E-001
 0.251383E-001
 0.288284E-001
 0.334619E-001
 0.393701E-001
 0.470883E-001
 0.573761E-001
 0.714564E-001
 0.913763E-001
 0.120449E+000
 0.164710E+000
 0.235797E+000
 0.357399E+000
 0.584933E+000
 0.787221E-002
 0.829028E-002
 0.874576E-002
 0.924272E-002
 0.978608E-002
 0.103817E-001
 0.110364E-001
 0.117585E-001
 0.125577E-001
 0.134458E-001
 0.144371E-001
 0.155487E-001
 0.168020E-001
 0.182234E-001
 0.198455E-001
 0.217114E-001
 0.238717E-001
 0.264022E-001
 0.293840E-001
 0.329568E-001
 0.372665E-001
 0.425714E-001
 0.491873E-001
 0.575967E-001
 0.685713E-001
 0.831604E-001
 0.103281E+000
 0.131963E+000
 0.174447E+000
 0.241203E+000
 0.353448E+000
 0.562183E+000
 0.100122E-001
 0.105450E-001
 0.111241E-001
 0.117545E-001
 0.124422E-001
 0.131941E-001
 0.140186E-001
 0.149254E-001
 0.159260E-001
 0.170342E-001
 0.182663E-001
 0.196422E-001
 0.211858E-001
 0.229268E-001
 0.249014E-001
 0.271553E-001
 0.297466E-001
 0.327466E-001
 0.362576E-001
 0.403918E-001
 0.453450E-001
 0.513051E-001
 0.586608E-001
 0.677961E-001
 0.794739E-001
 0.947064E-001
 0.115060E+000
 0.143521E+000
 0.184422E+000
 0.246846E+000
 0.349409E+000
 0.537562E+000
 0.119648E-001
 0.126046E-001
 0.132992E-001
 0.140544E-001
 0.148770E-001
 0.157753E-001
 0.167589E-001
 0.178392E-001
 0.190293E-001
 0.203451E-001
 0.218050E-001
 0.234314E-001
 0.252513E-001
 0.272969E-001
 0.296090E-001
 0.322361E-001
 0.352416E-001
 0.387019E-001
 0.427189E-001
 0.474238E-001
 0.529814E-001
 0.596451E-001
 0.676839E-001
 0.776396E-001
 0.899950E-001
 0.105957E+000
 0.126699E+000
 0.154906E+000
 0.194630E+000
 0.252711E+000
 0.345343E+000
 0.511290E+000
 0.137305E-001
 0.144696E-001
 0.152713E-001
 0.161420E-001
 0.170898E-001
 0.181239E-001
 0.192556E-001
 0.204974E-001
 0.218645E-001
 0.233743E-001
 0.250477E-001
 0.269095E-001
 0.289895E-001
 0.313236E-001
 0.339552E-001
 0.369387E-001
 0.403391E-001
 0.442425E-001
 0.487495E-001
 0.540032E-001
 0.601689E-001
 0.674935E-001
 0.762790E-001
 0.869594E-001
 0.100179E+000
 0.116713E+000
 0.138156E+000
 0.166075E+000
 0.204759E+000
 0.259100E+000
 0.341078E+000
 0.483597E+000
 0.153119E-001
 0.161436E-001
 0.170438E-001
 0.180206E-001
 0.190834E-001
 0.202426E-001
 0.215107E-001
 0.229017E-001
 0.244324E-001
 0.261221E-001
 0.279939E-001
 0.300750E-001
 0.323981E-001
 0.350022E-001
 0.379347E-001
 0.412535E-001
 0.450301E-001
 0.493522E-001
 0.543328E-001
 0.601090E-001
 0.668703E-001
 0.748385E-001
 0.843536E-001
 0.957936E-001
 0.109811E+000
 0.127124E+000
 0.149050E+000
 0.177249E+000
 0.214493E+000
 0.265841E+000
 0.337497E+000
 0.453190E+000
 0.172784E-001
 0.182177E-001
 0.192343E-001
 0.203369E-001
 0.215360E-001
 0.228435E-001
 0.242729E-001
 0.258402E-001
 0.275637E-001
 0.294651E-001
 0.315698E-001
 0.339078E-001
 0.365149E-001
 0.394340E-001
 0.427165E-001
 0.464252E-001
 0.506364E-001
 0.554454E-001
 0.609681E-001
 0.673558E-001
 0.747891E-001
 0.835237E-001
 0.938452E-001
 0.106220E+000
 0.121107E+000
 0.139421E+000
 0.161935E+000
 0.190546E+000
 0.226717E+000
 0.274418E+000
 0.337164E+000
 0.421599E+000
 0.198674E-001
 0.209413E-001
 0.221046E-001
 0.233663E-001
 0.247378E-001
 0.262324E-001
 0.278653E-001
 0.296544E-001
 0.316202E-001
 0.337868E-001
 0.361825E-001
 0.388405E-001
 0.418003E-001
 0.451088E-001
 0.488228E-001
 0.530091E-001
 0.577528E-001
 0.631502E-001
 0.693346E-001
 0.764452E-001
 0.847031E-001
 0.943079E-001
 0.105644E+000
 0.119002E+000
 0.135057E+000
 0.154274E+000
 0.177771E+000
 0.206408E+000
 0.241766E+000
 0.285130E+000
 0.337751E+000
 0.391049E+000
 0.226268E-001
 0.238443E-001
 0.251620E-001
 0.265906E-001
 0.281428E-001
 0.298332E-001
 0.316789E-001
 0.336995E-001
 0.359177E-001
 0.383601E-001
 0.410577E-001
 0.440471E-001
 0.473710E-001
 0.510811E-001
 0.552369E-001
 0.599140E-001
 0.651958E-001
 0.711973E-001
 0.780357E-001
 0.858921E-001
 0.949350E-001
 0.105448E+000
 0.117696E+000
 0.132093E+000
 0.149111E+000
 0.169263E+000
 0.193416E+000
 0.221964E+000
 0.256014E+000
 0.294777E+000
 0.336005E+000
 0.360965E+000
 0.255533E-001
 0.269212E-001
 0.284005E-001
 0.300033E-001
 0.317437E-001
 0.336379E-001
 0.357044E-001
 0.379650E-001
 0.404444E-001
 0.431716E-001
 0.461806E-001
 0.495104E-001
 0.532081E-001
 0.573274E-001
 0.619354E-001
 0.671063E-001
 0.729384E-001
 0.795358E-001
 0.870442E-001
 0.956165E-001
 0.105461E+000
 0.116823E+000
 0.129977E+000
 0.145330E+000
 0.163213E+000
 0.184222E+000
 0.208722E+000
 0.237074E+000
 0.269299E+000
 0.303029E+000
 0.332619E+000
 0.330132E+000
 0.286391E-001
 0.301632E-001
 0.318102E-001
 0.335935E-001
 0.355286E-001
 0.376331E-001
 0.399275E-001
 0.424350E-001
 0.451827E-001
 0.482019E-001
 0.515289E-001
 0.552063E-001
 0.592831E-001
 0.638188E-001
 0.688804E-001
 0.745523E-001
 0.809282E-001
 0.881274E-001
 0.962872E-001
 0.105571E+000
 0.116189E+000
 0.128359E+000
 0.142390E+000
 0.158576E+000
 0.177289E+000
 0.198919E+000
 0.223627E+000
 0.251500E+000
 0.281439E+000
 0.309908E+000
 0.327421E+000
 0.298874E+000
 0.318714E-001
 0.335565E-001
 0.353762E-001
 0.373451E-001
 0.394800E-001
 0.418001E-001
 0.443273E-001
 0.470869E-001
 0.501080E-001
 0.534238E-001
 0.570734E-001
 0.611015E-001
 0.655612E-001
 0.705132E-001
 0.760307E-001
 0.821978E-001
 0.891154E-001
 0.969037E-001
 0.105700E+000
 0.115677E+000
 0.127023E+000
 0.139974E+000
 0.154790E+000
 0.171745E+000
 0.191156E+000
 0.213222E+000
 0.237975E+000
 0.265003E+000
 0.292368E+000
 0.315234E+000
 0.320491E+000
 0.267423E+000
 0.352326E-001
 0.370822E-001
 0.390780E-001
 0.412359E-001
 0.435740E-001
 0.461130E-001
 0.488763E-001
 0.518909E-001
 0.551876E-001
 0.588021E-001
 0.627752E-001
 0.671547E-001
 0.719953E-001
 0.773617E-001
 0.833286E-001
 0.899836E-001
 0.974310E-001
 0.105789E+000
 0.115202E+000
 0.125833E+000
 0.137872E+000
 0.151539E+000
 0.167063E+000
 0.184693E+000
 0.204644E+000
 0.226991E+000
 0.251556E+000
 0.277428E+000
 0.301947E+000
 0.318887E+000
 0.311926E+000
 0.236052E+000
 0.386988E-001
 0.407147E-001
 0.428884E-001
 0.452370E-001
 0.477798E-001
 0.505388E-001
 0.535389E-001
 0.568086E-001
 0.603806E-001
 0.642923E-001
 0.685867E-001
 0.733132E-001
 0.785294E-001
 0.843018E-001
 0.907073E-001
 0.978364E-001
 0.105793E+000
 0.114698E+000
 0.124693E+000
 0.135937E+000
 0.148614E+000
 0.162923E+000
 0.179070E+000
 0.197254E+000
 0.217597E+000
 0.240046E+000
 0.264176E+000
 0.288616E+000
 0.310028E+000
 0.320784E+000
 0.301856E+000
 0.205037E+000
 0.422395E-001
 0.444217E-001
 0.467732E-001
 0.493119E-001
 0.520585E-001
 0.550360E-001
 0.582707E-001
 0.617927E-001
 0.656361E-001
 0.698399E-001
 0.744488E-001
 0.795141E-001
 0.850951E-001
 0.912599E-001
 0.980874E-001
 0.105668E+000
 0.114108E+000
 0.123526E+000
 0.134061E+000
 0.145867E+000
 0.159115E+000
 0.173985E+000
 0.190654E+000
 0.209260E+000
 0.229838E+000
 0.252198E+000
 0.275650E+000
 0.298409E+000
 0.316470E+000
 0.320883E+000
 0.290428E+000
 0.174649E+000
 0.458169E-001
 0.481634E-001
 0.506900E-001
 0.534159E-001
 0.563625E-001
 0.595541E-001
 0.630182E-001
 0.667861E-001
 0.708931E-001
 0.753797E-001
 0.802919E-001
 0.856826E-001
 0.916121E-001
 0.981498E-001
 0.105375E+000
 0.113380E+000
 0.122267E+000
 0.132157E+000
 0.143180E+000
 0.155486E+000
 0.169229E+000
 0.184568E+000
 0.201643E+000
 0.220534E+000
 0.241184E+000
 0.263253E+000
 0.285799E+000
 0.306649E+000
 0.321151E+000
 0.319175E+000
 0.277801E+000
 0.145155E+000
 0.493852E-001
 0.518915E-001
 0.545881E-001
 0.574952E-001
 0.606351E-001
 0.640331E-001
 0.677177E-001
 0.717212E-001
 0.760799E-001
 0.808355E-001
 0.860349E-001
 0.917319E-001
 0.979877E-001
 0.104872E+000
 0.112465E+000
 0.120857E+000
 0.130150E+000
 0.140459E+000
 0.151911E+000
 0.164643E+000
 0.178796E+000
 0.194501E+000
 0.211859E+000
 0.230889E+000
 0.251440E+000
 0.273019E+000
 0.294446E+000
 0.313183E+000
 0.323972E+000
 0.315682E+000
 0.264149E+000
 0.116811E+000
 0.528907E-001
 0.555493E-001
 0.584079E-001
 0.614872E-001
 0.648103E-001
 0.684033E-001
 0.722956E-001
 0.765201E-001
 0.811140E-001
 0.861197E-001
 0.915847E-001
 0.975634E-001
 0.104117E+000
 0.111316E+000
 0.119238E+000
 0.127973E+000
 0.137621E+000
 0.148290E+000
 0.160101E+000
 0.173178E+000
 0.187643E+000
 0.203603E+000
 0.221113E+000
 0.240131E+000
 0.260410E+000
 0.281309E+000
 0.301422E+000
 0.317873E+000
 0.324862E+000
 0.310451E+000
 0.249651E+000
 0.898591E-001
 0.562709E-001
 0.590716E-001
 0.620808E-001
 0.653197E-001
 0.688123E-001
 0.725850E-001
 0.766679E-001
 0.810943E-001
 0.859021E-001
 0.911338E-001
 0.968373E-001
 0.103067E+000
 0.109884E+000
 0.117357E+000
 0.125564E+000
 0.134590E+000
 0.144532E+000
 0.155494E+000
 0.167585E+000
 0.180917E+000
 0.195592E+000
 0.211686E+000
 0.229212E+000
 0.248064E+000
 0.267901E+000
 0.287940E+000
 0.306568E+000
 0.320602E+000
 0.323776E+000
 0.303551E+000
 0.234491E+000
 0.645272E-001
 0.594554E-001
 0.623846E-001
 0.655295E-001
 0.689120E-001
 0.725562E-001
 0.764892E-001
 0.807411E-001
 0.853457E-001
 0.903408E-001
 0.957690E-001
 0.101678E+000
 0.108122E+000
 0.115160E+000
 0.122861E+000
 0.131300E+000
 0.140559E+000
 0.150729E+000
 0.161907E+000
 0.174192E+000
 0.187681E+000
 0.202454E+000
 0.218557E+000
 0.235961E+000
 0.254494E+000
 0.273726E+000
 0.292740E+000
 0.309739E+000
 0.321270E+000
 0.320695E+000
 0.295072E+000
 0.218857E+000
 0.410223E-001
 0.623660E-001
 0.654066E-001
 0.686689E-001
 0.721750E-001
 0.759491E-001
 0.800185E-001
 0.844133E-001
 0.891672E-001
 0.943180E-001
 0.999078E-001
 0.105984E+000
 0.112598E+000
 0.119811E+000
 0.127687E+000
 0.136297E+000
 0.145722E+000
 0.156046E+000
 0.167357E+000
 0.179743E+000
 0.193284E+000
 0.208041E+000
 0.224026E+000
 0.241166E+000
 0.259232E+000
 0.277705E+000
 0.295552E+000
 0.310810E+000
 0.319806E+000
 0.315627E+000
 0.285120E+000
 0.202938E+000
 0.195293E-001
 0.649180E-001
 0.680495E-001
 0.714070E-001
 0.750126E-001
 0.788907E-001
 0.830682E-001
 0.875752E-001
 0.924448E-001
 0.977144E-001
 0.103425E+000
 0.109624E+000
 0.116360E+000
 0.123693E+000
 0.131684E+000
 0.140401E+000
 0.149919E+000
 0.160315E+000
 0.171670E+000
 0.184058E+000
 0.197544E+000
 0.212164E+000
 0.227902E+000
 0.244643E+000
 0.262099E+000
 0.279675E+000
 0.296234E+000
 0.309679E+000
 0.316163E+000
 0.308605E+000
 0.273815E+000
 0.186915E+000
 0.208470E-003
 0.670216E-001
 0.702198E-001
 0.736467E-001
 0.773241E-001
 0.812760E-001
 0.855291E-001
 0.901128E-001
 0.950598E-001
 0.100406E+000
 0.106193E+000
 0.112463E+000
 0.119268E+000
 0.126661E+000
 0.134701E+000
 0.143453E+000
 0.152986E+000
 0.163369E+000
 0.174672E+000
 0.186960E+000
 0.200279E+000
 0.214643E+000
 0.230007E+000
 0.246216E+000
 0.262932E+000
 0.279491E+000
 0.294671E+000
 0.306267E+000
 0.310321E+000
 0.299680E+000
 0.261284E+000
 0.170966E+000
-0.168081E-001
 0.685841E-001
 0.718216E-001
 0.752884E-001
 0.790059E-001
 0.829976E-001
 0.872895E-001
 0.919103E-001
 0.968916E-001
 0.102269E+000
 0.108080E+000
 0.114368E+000
 0.121181E+000
 0.128569E+000
 0.136589E+000
 0.145300E+000
 0.154763E+000
 0.165043E+000
 0.176199E+000
 0.188281E+000
 0.201320E+000
 0.215310E+000
 0.230176E+000
 0.245730E+000
 0.261588E+000
 0.277030E+000
 0.290768E+000
 0.300525E+000
 0.302287E+000
 0.288928E+000
 0.247667E+000
 0.155254E+000
-0.314183E-001
 0.695129E-001
 0.727589E-001
 0.762327E-001
 0.799551E-001
 0.839489E-001
 0.882391E-001
 0.928533E-001
 0.978220E-001
 0.103179E+000
 0.108960E+000
 0.115207E+000
 0.121965E+000
 0.129280E+000
 0.137204E+000
 0.145793E+000
 0.155101E+000
 0.165185E+000
 0.176093E+000
 0.187864E+000
 0.200513E+000
 0.214013E+000
 0.228265E+000
 0.243052E+000
 0.257950E+000
 0.272199E+000
 0.284465E+000
 0.292434E+000
 0.292093E+000
 0.276438E+000
 0.233101E+000
 0.139930E+000
-0.435517E-001
 0.697184E-001
 0.729393E-001
 0.763844E-001
 0.800735E-001
 0.840284E-001
 0.882730E-001
 0.928336E-001
 0.977392E-001
 0.103021E+000
 0.108715E+000
 0.114859E+000
 0.121493E+000
 0.128663E+000
 0.136415E+000
 0.144799E+000
 0.153864E+000
 0.163657E+000
 0.174218E+000
 0.185574E+000
 0.197724E+000
 0.210625E+000
 0.224156E+000
 0.238075E+000
 0.251931E+000
 0.264935E+000
 0.275730E+000
 0.282001E+000
 0.279798E+000
 0.262318E+000
 0.217729E+000
 0.125126E+000
-0.531718E-001
 0.691184E-001
 0.722782E-001
 0.756562E-001
 0.792711E-001
 0.831436E-001
 0.872961E-001
 0.917534E-001
 0.965427E-001
 0.101694E+000
 0.107239E+000
 0.113213E+000
 0.119656E+000
 0.126606E+000
 0.134107E+000
 0.142202E+000
 0.150935E+000
 0.160344E+000
 0.170461E+000
 0.181300E+000
 0.192849E+000
 0.205049E+000
 0.217762E+000
 0.230727E+000
 0.243477E+000
 0.255207E+000
 0.264564E+000
 0.269268E+000
 0.265481E+000
 0.246684E+000
 0.201685E+000
 0.110956E+000
-0.602765E-001
 0.676418E-001
 0.707027E-001
 0.739734E-001
 0.774715E-001
 0.812160E-001
 0.852280E-001
 0.895304E-001
 0.941484E-001
 0.991096E-001
 0.104444E+000
 0.110184E+000
 0.116363E+000
 0.123019E+000
 0.130190E+000
 0.137914E+000
 0.146227E+000
 0.155160E+000
 0.164738E+000
 0.174964E+000
 0.185816E+000
 0.197221E+000
 0.209031E+000
 0.220973E+000
 0.232571E+000
 0.243025E+000
 0.251005E+000
 0.254302E+000
 0.249243E+000
 0.229663E+000
 0.185100E+000
 0.975061E-001
-0.648993E-001
 0.652333E-001
 0.681564E-001
 0.712787E-001
 0.746161E-001
 0.781862E-001
 0.820082E-001
 0.861033E-001
 0.904944E-001
 0.952067E-001
 0.100267E+000
 0.105706E+000
 0.111553E+000
 0.117841E+000
 0.124604E+000
 0.131874E+000
 0.139682E+000
 0.148053E+000
 0.157001E+000
 0.166525E+000
 0.176591E+000
 0.187119E+000
 0.197954E+000
 0.208817E+000
 0.219237E+000
 0.228433E+000
 0.235122E+000
 0.237200E+000
 0.231203E+000
 0.211387E+000
 0.168094E+000
 0.848411E-001
-0.671088E-001
 0.618576E-001
 0.646039E-001
 0.675363E-001
 0.706691E-001
 0.740181E-001
 0.776009E-001
 0.814363E-001
 0.855452E-001
 0.899502E-001
 0.946757E-001
 0.997476E-001
 0.105193E+000
 0.111042E+000
 0.117321E+000
 0.124060E+000
 0.131282E+000
 0.139007E+000
 0.147244E+000
 0.155982E+000
 0.165183E+000
 0.174763E+000
 0.184562E+000
 0.194307E+000
 0.203541E+000
 0.211517E+000
 0.217021E+000
 0.218084E+000
 0.211499E+000
 0.191989E+000
 0.150774E+000
 0.729971E-001
-0.670088E-001
 0.575034E-001
 0.600345E-001
 0.627363E-001
 0.656213E-001
 0.687037E-001
 0.719989E-001
 0.755238E-001
 0.792968E-001
 0.833378E-001
 0.876684E-001
 0.923114E-001
 0.972905E-001
 0.102630E+000
 0.108355E+000
 0.114489E+000
 0.121050E+000
 0.128053E+000
 0.135502E+000
 0.143381E+000
 0.151649E+000
 0.160219E+000
 0.168936E+000
 0.177537E+000
 0.185591E+000
 0.192398E+000
 0.196837E+000
 0.197103E+000
 0.190278E+000
 0.171607E+000
 0.133235E+000
 0.619833E-001
-0.647368E-001
 0.521864E-001
 0.544656E-001
 0.568977E-001
 0.594938E-001
 0.622660E-001
 0.652276E-001
 0.683935E-001
 0.717797E-001
 0.754033E-001
 0.792829E-001
 0.834382E-001
 0.878894E-001
 0.926572E-001
 0.977621E-001
 0.103223E+000
 0.109055E+000
 0.115267E+000
 0.121859E+000
 0.128815E+000
 0.136089E+000
 0.143599E+000
 0.151199E+000
 0.158642E+000
 0.165534E+000
 0.171237E+000
 0.174739E+000
 0.174425E+000
 0.167701E+000
 0.150371E+000
 0.115554E+000
 0.517812E-001
-0.604629E-001
 0.459518E-001
 0.479448E-001
 0.500710E-001
 0.523398E-001
 0.547613E-001
 0.573469E-001
 0.601091E-001
 0.630613E-001
 0.662183E-001
 0.695956E-001
 0.732095E-001
 0.770770E-001
 0.812152E-001
 0.856406E-001
 0.903681E-001
 0.954093E-001
 0.100770E+000
 0.106448E+000
 0.112423E+000
 0.118655E+000
 0.125066E+000
 0.131522E+000
 0.137804E+000
 0.143559E+000
 0.148227E+000
 0.150922E+000
 0.150238E+000
 0.143936E+000
 0.128412E+000
 0.977922E-001
 0.423460E-001
-0.543870E-001
 0.388749E-001
 0.405509E-001
 0.423387E-001
 0.442456E-001
 0.462802E-001
 0.484516E-001
 0.507700E-001
 0.532466E-001
 0.558932E-001
 0.587224E-001
 0.617476E-001
 0.649824E-001
 0.684403E-001
 0.721345E-001
 0.760762E-001
 0.802741E-001
 0.847317E-001
 0.894442E-001
 0.943940E-001
 0.995436E-001
 0.104824E+000
 0.110120E+000
 0.115243E+000
 0.119893E+000
 0.123595E+000
 0.125605E+000
 0.124747E+000
 0.119158E+000
 0.105854E+000
 0.799958E-001
 0.336074E-001
-0.467366E-001
 0.310605E-001
 0.323930E-001
 0.338142E-001
 0.353298E-001
 0.369463E-001
 0.386708E-001
 0.405113E-001
 0.424764E-001
 0.445753E-001
 0.468177E-001
 0.492140E-001
 0.517745E-001
 0.545096E-001
 0.574290E-001
 0.605412E-001
 0.638521E-001
 0.673636E-001
 0.710706E-001
 0.749577E-001
 0.789933E-001
 0.831210E-001
 0.872466E-001
 0.912177E-001
 0.947935E-001
 0.975956E-001
 0.990316E-001
 0.981715E-001
 0.935467E-001
 0.828155E-001
 0.621948E-001
 0.254728E-001
-0.377632E-001
 0.226404E-001
 0.236080E-001
 0.246400E-001
 0.257402E-001
 0.269135E-001
 0.281647E-001
 0.294997E-001
 0.309246E-001
 0.324458E-001
 0.340704E-001
 0.358055E-001
 0.376586E-001
 0.396370E-001
 0.417473E-001
 0.439953E-001
 0.463849E-001
 0.489169E-001
 0.515870E-001
 0.543832E-001
 0.572817E-001
 0.602404E-001
 0.631896E-001
 0.660177E-001
 0.685484E-001
 0.705063E-001
 0.714612E-001
 0.707405E-001
 0.672851E-001
 0.594109E-001
 0.444058E-001
 0.178295E-001
-0.277388E-001
 0.137697E-001
 0.143567E-001
 0.149827E-001
 0.156500E-001
 0.163615E-001
 0.171202E-001
 0.179294E-001
 0.187929E-001
 0.197145E-001
 0.206985E-001
 0.217491E-001
 0.228708E-001
 0.240677E-001
 0.253440E-001
 0.267029E-001
 0.281465E-001
 0.296752E-001
 0.312862E-001
 0.329717E-001
 0.347170E-001
 0.364961E-001
 0.382664E-001
 0.399595E-001
 0.414680E-001
 0.426246E-001
 0.431685E-001
 0.426927E-001
 0.405576E-001
 0.357485E-001
 0.266341E-001
 0.105492E-001
-0.169517E-001
 0.462118E-002
 0.481794E-002
 0.502775E-002
 0.525141E-002
 0.548983E-002
 0.574405E-002
 0.601518E-002
 0.630445E-002
 0.661316E-002
 0.694270E-002
 0.729450E-002
 0.767001E-002
 0.807066E-002
 0.849776E-002
 0.895241E-002
 0.943529E-002
 0.994644E-002
 0.104849E-001
 0.110480E-001
 0.116308E-001
 0.122245E-001
 0.128147E-001
 0.133784E-001
 0.138795E-001
 0.142620E-001
 0.144384E-001
 0.142724E-001
 0.135503E-001
 0.119331E-001
 0.887630E-002
 0.349138E-002
-0.570222E-002
-0.462118E-002
-0.481794E-002
-0.502775E-002
-0.525141E-002
-0.548983E-002
-0.574405E-002
-0.601518E-002
-0.630445E-002
-0.661316E-002
-0.694270E-002
-0.729450E-002
-0.767001E-002
-0.807066E-002
-0.849776E-002
-0.895241E-002
-0.943529E-002
-0.994644E-002
-0.104849E-001
-0.110480E-001
-0.116308E-001
-0.122245E-001
-0.128147E-001
-0.133784E-001
-0.138795E-001
-0.142620E-001
-0.144384E-001
-0.142724E-001
-0.135503E-001
-0.119331E-001
-0.887630E-002
-0.349138E-002
 0.570222E-002
-0.137697E-001
-0.143567E-001
-0.149827E-001
-0.156500E-001
-0.163615E-001
-0.171202E-001
-0.179294E-001
-0.187929E-001
-0.197145E-001
-0.206985E-001
-0.217491E-001
-0.228708E-001
-0.240677E-001
-0.253440E-001
-0.267029E-001
-0.281465E-001
-0.296752E-001
-0.312862E-001
-0.329717E-001
-0.347170E-001
-0.364961E-001
-0.382664E-001
-0.399595E-001
-0.414680E-001
-0.426246E-001
-0.431685E-001
-0.426927E-001
-0.405576E-001
-0.357485E-001
-0.266341E-001
-0.105492E-001
 0.169517E-001
-0.226404E-001
-0.236080E-001
-0.246400E-001
-0.257402E-001
-0.269135E-001
-0.281647E-001
-0.294997E-001
-0.309246E-001
-0.324458E-001
-0.340704E-001
-0.358055E-001
-0.376586E-001
-0.396370E-001
-0.417473E-001
-0.439953E-001
-0.463849E-001
-0.489169E-001
-0.515870E-001
-0.543832E-001
-0.572817E-001
-0.602404E-001
-0.631896E-001
-0.660177E-001
-0.685484E-001
-0.705063E-001
-0.714612E-001
-0.707405E-001
-0.672851E-001
-0.594109E-001
-0.444058E-001
-0.178295E-001
 0.277388E-001
-0.310605E-001
-0.323930E-001
-0.338142E-001
-0.353298E-001
-0.369463E-001
-0.386708E-001
-0.405113E-001
-0.424764E-001
-0.445753E-001
-0.468177E-001
-0.492140E-001
-0.517745E-001
-0.545096E-001
-0.574290E-001
-0.605412E-001
-0.638521E-001
-0.673636E-001
-0.710706E-001
-0.749577E-001
-0.789933E-001
-0.831210E-001
-0.872466E-001
-0.912177E-001
-0.947935E-001
-0.975956E-001
-0.990316E-001
-0.981715E-001
-0.935467E-001
-0.828155E-001
-0.621948E-001
-0.254728E-001
 0.377632E-001
-0.388749E-001
-0.405509E-001
-0.423387E-001
-0.442456E-001
-0.462802E-001
-0.484516E-001
-0.507700E-001
-0.532466E-001
-0.558932E-001
-0.587224E-001
-0.617476E-001
-0.649824E-001
-0.684403E-001
-0.721345E-001
-0.760762E-001
-0.802741E-001
-0.847317E-001
-0.894442E-001
-0.943940E-001
-0.995436E-001
-0.104824E+000
-0.110120E+000
-0.115243E+000
-0.119893E+000
-0.123595E+000
-0.125605E+000
-0.124747E+000
-0.119158E+000
-0.105854E+000
-0.799958E-001
-0.336074E-001
 0.467366E-001
-0.459518E-001
-0.479448E-001
-0.500710E-001
-0.523398E-001
-0.547613E-001
-0.573469E-001
-0.601091E-001
-0.630613E-001
-0.662183E-001
-0.695956E-001
-0.732095E-001
-0.770770E-001
-0.812152E-001
-0.856406E-001
-0.903681E-001
-0.954093E-001
-0.100770E+000
-0.106448E+000
-0.112423E+000
-0.118655E+000
-0.125066E+000
-0.131522E+000
-0.137804E+000
-0.143559E+000
-0.148227E+000
-0.150922E+000
-0.150238E+000
-0.143936E+000
-0.128412E+000
-0.977922E-001
-0.423460E-001
 0.543870E-001
-0.521864E-001
-0.544656E-001
-0.568977E-001
-0.594938E-001
-0.622660E-001
-0.652276E-001
-0.683935E-001
-0.717797E-001
-0.754033E-001
-0.792829E-001
-0.834382E-001
-0.878894E-001
-0.926572E-001
-0.977621E-001
-0.103223E+000
-0.109055E+000
-0.115267E+000
-0.121859E+000
-0.128815E+000
-0.136089E+000
-0.143599E+000
-0.151199E+000
-0.158642E+000
-0.165534E+000
-0.171237E+000
-0.174739E+000
-0.174425E+000
-0.167701E+000
-0.150371E+000
-0.115554E+000
-0.517812E-001
 0.604629E-001
-0.575034E-001
-0.600345E-001
-0.627363E-001
-0.656213E-001
-0.687037E-001
-0.719989E-001
-0.755238E-001
-0.792968E-001
-0.833378E-001
-0.876684E-001
-0.923114E-001
-0.972905E-001
-0.102630E+000
-0.108355E+000
-0.114489E+000
-0.121050E+000
-0.128053E+000
-0.135502E+000
-0.143381E+000
-0.151649E+000
-0.160219E+000
-0.168936E+000
-0.177537E+000
-0.185591E+000
-0.192398E+000
-0.196837E+000
-0.197103E+000
-0.190278E+000
-0.171607E+000
-0.133235E+000
-0.619833E-001
 0.647368E-001
-0.618576E-001
-0.646039E-001
-0.675363E-001
-0.706691E-001
-0.740181E-001
-0.776009E-001
-0.814363E-001
-0.855452E-001
-0.899502E-001
-0.946757E-001
-0.997476E-001
-0.105193E+000
-0.111042E+000
-0.117321E+000
-0.124060E+000
-0.131282E+000
-0.139007E+000
-0.147244E+000
-0.155982E+000
-0.165183E+000
-0.174763E+000
-0.184562E+000
-0.194307E+000
-0.203541E+000
-0.211517E+000
-0.217021E+000
-0.218084E+000
-0.211499E+000
-0.191989E+000
-0.150774E+000
-0.729971E-001
 0.670088E-001
-0.652333E-001
-0.681564E-001
-0.712787E-001
-0.746161E-001
-0.781862E-001
-0.820082E-001
-0.861033E-001
-0.904944E-001
-0.952067E-001
-0.100267E+000
-0.105706E+000
-0.111553E+000
-0.117841E+000
-0.124604E+000
-0.131874E+000
-0.139682E+000
-0.148053E+000
-0.157001E+000
-0.166525E+000
-0.176591E+000
-0.187119E+000
-0.197954E+000
-0.208817E+000
-0.219237E+000
-0.228433E+000
-0.235122E+000
-0.237200E+000
-0.231203E+000
-0.211387E+000
-0.168094E+000
-0.848411E-001
 0.671088E-001
-0.676418E-001
-0.707027E-001
-0.739734E-001
-0.774715E-001
-0.812160E-001
-0.852280E-001
-0.895304E-001
-0.941484E-001
-0.991096E-001
-0.104444E+000
-0.110184E+000
-0.116363E+000
-0.123019E+000
-0.130190E+000
-0.137914E+000
-0.146227E+000
-0.155160E+000
-0.164738E+000
-0.174964E+000
-0.185816E+000
-0.197221E+000
-0.209031E+000
-0.220973E+000
-0.232571E+000
-0.243025E+000
-0.251005E+000
-0.254302E+000
-0.249243E+000
-0.229663E+000
-0.185100E+000
-0.975061E-001
 0.648993E-001
-0.691184E-001
-0.722782E-001
-0.756562E-001
-0.792711E-001
-0.831436E-001
-0.872961E-001
-0.917534E-001
-0.965427E-001
-0.101694E+000
-0.107239E+000
-0.113213E+000
-0.119656E+000
-0.126606E+000
-0.134107E+000
-0.142202E+000
-0.150935E+000
-0.160344E+000
-0.170461E+000
-0.181300E+000
-0.192849E+000
-0.205049E+000
-0.217762E+000
-0.230727E+000
-0.243477E+000
-0.255207E+000
-0.264564E+000
-0.269268E+000
-0.265481E+000
-0.246684E+000
-0.201685E+000
-0.110956E+000
 0.602765E-001
-0.697184E-001
-0.729393E-001
-0.763844E-001
-0.800735E-001
-0.840284E-001
-0.882730E-001
-0.928336E-001
-0.977392E-001
-0.103021E+000
-0.108715E+000
-0.114859E+000
-0.121493E+000
-0.128663E+000
-0.136415E+000
-0.144799E+000
-0.153864E+000
-0.163657E+000
-0.174218E+000
-0.185574E+000
-0.197724E+000
-0.210625E+000
-0.224156E+000
-0.238075E+000
-0.251931E+000
-0.264935E+000
-0.275730E+000
-0.282001E+000
-0.279798E+000
-0.262318E+000
-0.217729E+000
-0.125126E+000
 0.531718E-001
-0.695129E-001
-0.727589E-001
-0.762327E-001
-0.799551E-001
-0.839489E-001
-0.882391E-001
-0.928533E-001
-0.978220E-001
-0.103179E+000
-0.108960E+000
-0.115207E+000
-0.121965E+000
-0.129280E+000
-0.137204E+000
-0.145793E+000
-0.155101E+000
-0.165185E+000
-0.176093E+000
-0.187864E+000
-0.200513E+000
-0.214013E+000
-0.228265E+000
-0.243052E+000
-0.257950E+000
-0.272199E+000
-0.284465E+000
-0.292434E+000
-0.292093E+000
-0.276438E+000
-0.233101E+000
-0.139930E+000
 0.435517E-001
-0.685841E-001
-0.718216E-001
-0.752884E-001
-0.790059E-001
-0.829976E-001
-0.872895E-001
-0.919103E-001
-0.968916E-001
-0.102269E+000
-0.108080E+000
-0.114368E+000
-0.121181E+000
-0.128569E+000
-0.136589E+000
-0.145300E+000
-0.154763E+000
-0.165043E+000
-0.176199E+000
-0.188281E+000
-0.201320E+000
-0.215310E+000
-0.230176E+000
-0.245730E+000
-0.261588E+000
-0.277030E+000
-0.290768E+000
-0.300525E+000
-0.302287E+000
-0.288928E+000
-0.247667E+000
-0.155254E+000
 0.314183E-001
-0.670216E-001
-0.702198E-001
-0.736467E-001
-0.773241E-001
-0.812760E-001
-0.855291E-001
-0.901128E-001
-0.950598E-001
-0.100406E+000
-0.106193E+000
-0.112463E+000
-0.119268E+000
-0.126661E+000
-0.134701E+000
-0.143453E+000
-0.152986E+000
-0.163369E+000
-0.174672E+000
-0.186960E+000
-0.200279E+000
-0.214643E+000
-0.230007E+000
-0.246216E+000
-0.262932E+000
-0.279491E+000
-0.294671E+000
-0.306267E+000
-0.310321E+000
-0.299680E+000
-0.261284E+000
-0.170966E+000
 0.168081E-001
-0.649180E-001
-0.680495E-001
-0.714070E-001
-0.750126E-001
-0.788907E-001
-0.830682E-001
-0.875752E-001
-0.924448E-001
-0.977144E-001
-0.103425E+000
-0.109624E+000
-0.116360E+000
-0.123693E+000
-0.131684E+000
-0.140401E+000
-0.149919E+000
-0.160315E+000
-0.171670E+000
-0.184058E+000
-0.197544E+000
-0.212164E+000
-0.227902E+000
-0.244643E+000
-0.262099E+000
-0.279675E+000
-0.296234E+000
-0.309679E+000
-0.316163E+000
-0.308605E+000
-0.273815E+000
-0.186915E+000
-0.208470E-003
-0.623660E-001
-0.654066E-001
-0.686689E-001
-0.721750E-001
-0.759491E-001
-0.800185E-001
-0.844133E-001
-0.891672E-001
-0.943180E-001
-0.999078E-001
-0.105984E+000
-0.112598E+000
-0.119811E+000
-0.127687E+000
-0.136297E+000
-0.145722E+000
-0.156046E+000
-0.167357E+000
-0.179743E+000
-0.193284E+000
-0.208041E+000
-0.224026E+000
-0.241166E+000
-0.259232E+000
-0.277705E+000
-0.295552E+000
-0.310810E+000
-0.319806E+000
-0.315627E+000
-0.285120E+000
-0.202938E+000
-0.195293E-001
-0.594554E-001
-0.623846E-001
-0.655295E-001
-0.689120E-001
-0.725562E-001
-0.764892E-001
-0.807411E-001
-0.853457E-001
-0.903408E-001
-0.957690E-001
-0.101678E+000
-0.108122E+000
-0.115160E+000
-0.122861E+000
-0.131300E+000
-0.140559E+000
-0.150729E+000
-0.161907E+000
-0.174192E+000
-0.187681E+000
-0.202454E+000
-0.218557E+000
-0.235961E+000
-0.254494E+000
-0.273726E+000
-0.292740E+000
-0.309739E+000
-0.321270E+000
-0.320695E+000
-0.295072E+000
-0.218857E+000
-0.410223E-001
-0.562709E-001
-0.590716E-001
-0.620808E-001
-0.653197E-001
-0.688123E-001
-0.725850E-001
-0.766679E-001
-0.810943E-001
-0.859021E-001
-0.911338E-001
-0.968373E-001
-0.103067E+000
-0.109884E+000
-0.117357E+000
-0.125564E+000
-0.134590E+000
-0.144532E+000
-0.155494E+000
-0.167585E+000
-0.180917E+000
-0.195592E+000
-0.211686E+000
-0.229212E+000
-0.248064E+000
-0.267901E+000
-0.287940E+000
-0.306568E+000
-0.320602E+000
-0.323776E+000
-0.303551E+000
-0.234491E+000
-0.645272E-001
-0.528907E-001
-0.555493E-001
-0.584079E-001
-0.614872E-001
-0.648103E-001
-0.684033E-001
-0.722956E-001
-0.765201E-001
-0.811140E-001
-0.861197E-001
-0.915847E-001
-0.975634E-001
-0.104117E+000
-0.111316E+000
-0.119238E+000
-0.127973E+000
-0.137621E+000
-0.148290E+000
-0.160101E+000
-0.173178E+000
-0.187643E+000
-0.203603E+000
-0.221113E+000
-0.240131E+000
-0.260410E+000
-0.281309E+000
-0.301422E+000
-0.317873E+000
-0.324862E+000
-0.310451E+000
-0.249651E+000
-0.898591E-001
-0.493852E-001
-0.518915E-001
-0.545881E-001
-0.574952E-001
-0.606351E-001
-0.640331E-001
-0.677177E-001
-0.717212E-001
-0.760799E-001
-0.808355E-001
-0.860349E-001
-0.917319E-001
-0.979877E-001
-0.104872E+000
-0.112465E+000
-0.120857E+000
-0.130150E+000
-0.140459E+000
-0.151911E+000
-0.164643E+000
-0.178796E+000
-0.194501E+000
-0.211859E+000
-0.230889E+000
-0.251440E+000
-0.273019E+000
-0.294446E+000
-0.313183E+000
-0.323972E+000
-0.315682E+000
-0.264149E+000
-0.116811E+000
-0.458169E-001
-0.481634E-001
-0.506900E-001
-0.534159E-001
-0.563625E-001
-0.595541E-001
-0.630182E-001
-0.667861E-001
-0.708931E-001
-0.753797E-001
-0.802919E-001
-0.856826E-001
-0.916121E-001
-0.981498E-001
-0.105375E+000
-0.113380E+000
-0.122267E+000
-0.132157E+000
-0.143180E+000
-0.155486E+000
-0.169229E+000
-0.184568E+000
-0.201643E+000
-0.220534E+000
-0.241184E+000
-0.263253E+000
-0.285799E+000
-0.306649E+000
-0.321151E+000
-0.319175E+000
-0.277801E+000
-0.145155E+000
-0.422395E-001
-0.444217E-001
-0.467732E-001
-0.493119E-001
-0.520585E-001
-0.550360E-001
-0.582707E-001
-0.617927E-001
-0.656361E-001
-0.698399E-001
-0.744488E-001
-0.795141E-001
-0.850951E-001
-0.912599E-001
-0.980874E-001
-0.105668E+000
-0.114108E+000
-0.123526E+000
-0.134061E+000
-0.145867E+000
-0.159115E+000
-0.173985E+000
-0.190654E+000
-0.209260E+000
-0.229838E+000
-0.252198E+000
-0.275650E+000
-0.298409E+000
-0.316470E+000
-0.320883E+000
-0.290428E+000
-0.174649E+000
-0.386988E-001
-0.407147E-001
-0.428884E-001
-0.452370E-001
-0.477798E-001
-0.505388E-001
-0.535389E-001
-0.568086E-001
-0.603806E-001
-0.642923E-001
-0.685867E-001
-0.733132E-001
-0.785294E-001
-0.843018E-001
-0.907073E-001
-0.978364E-001
-0.105793E+000
-0.114698E+000
-0.124693E+000
-0.135937E+000
-0.148614E+000
-0.162923E+000
-0.179070E+000
-0.197254E+000
-0.217597E+000
-0.240046E+000
-0.264176E+000
-0.288616E+000
-0.310028E+000
-0.320784E+000
-0.301856E+000
-0.205037E+000
-0.352326E-001
-0.370822E-001
-0.390780E-001
-0.412359E-001
-0.435740E-001
-0.461130E-001
-0.488763E-001
-0.518909E-001
-0.551876E-001
-0.588021E-001
-0.627752E-001
-0.671547E-001
-0.719953E-001
-0.773617E-001
-0.833286E-001
-0.899836E-001
-0.974310E-001
-0.105789E+000
-0.115202E+000
-0.125833E+000
-0.137872E+000
-0.151539E+000
-0.167063E+000
-0.184693E+000
-0.204644E+000
-0.226991E+000
-0.251556E+000
-0.277428E+000
-0.301947E+000
-0.318887E+000
-0.311926E+000
-0.236052E+000
-0.318714E-001
-0.335565E-001
-0.353762E-001
-0.373451E-001
-0.394800E-001
-0.418001E-001
-0.443273E-001
-0.470869E-001
-0.501080E-001
-0.534238E-001
-0.570734E-001
-0.611015E-001
-0.655612E-001
-0.705132E-001
-0.760307E-001
-0.821978E-001
-0.891154E-001
-0.969037E-001
-0.105700E+000
-0.115677E+000
-0.127023E+000
-0.139974E+000
-0.154790E+000
-0.171745E+000
-0.191156E+000
-0.213222E+000
-0.237975E+000
-0.265003E+000
-0.292368E+000
-0.315234E+000
-0.320491E+000
-0.267423E+000
-0.286391E-001
-0.301632E-001
-0.318102E-001
-0.335935E-001
-0.355286E-001
-0.376331E-001
-0.399275E-001
-0.424350E-001
-0.451827E-001
-0.482019E-001
-0.515289E-001
-0.552063E-001
-0.592831E-001
-0.638188E-001
-0.688804E-001
-0.745523E-001
-0.809282E-001
-0.881274E-001
-0.962872E-001
-0.105571E+000
-0.116189E+000
-0.128359E+000
-0.142390E+000
-0.158576E+000
-0.177289E+000
-0.198919E+000
-0.223627E+000
-0.251500E+000
-0.281439E+000
-0.309908E+000
-0.327421E+000
-0.298874E+000
-0.255533E-001
-0.269212E-001
-0.284005E-001
-0.300033E-001
-0.317437E-001
-0.336379E-001
-0.357044E-001
-0.379650E-001
-0.404444E-001
-0.431716E-001
-0.461806E-001
-0.495104E-001
-0.532081E-001
-0.573274E-001
-0.619354E-001
-0.671063E-001
-0.729384E-001
-0.795358E-001
-0.870442E-001
-0.956165E-001
-0.105461E+000
-0.116823E+000
-0.129977E+000
-0.145330E+000
-0.163213E+000
-0.184222E+000
-0.208722E+000
-0.237074E+000
-0.269299E+000
-0.303029E+000
-0.332619E+000
-0.330132E+000
-0.226268E-001
-0.238443E-001
-0.251620E-001
-0.265906E-001
-0.281428E-001
-0.298332E-001
-0.316789E-001
-0.336995E-001
-0.359177E-001
-0.383601E-001
-0.410577E-001
-0.440471E-001
-0.473710E-001
-0.510811E-001
-0.552369E-001
-0.599140E-001
-0.651958E-001
-0.711973E-001
-0.780357E-001
-0.858921E-001
-0.949350E-001
-0.105448E+000
-0.117696E+000
-0.132093E+000
-0.149111E+000
-0.169263E+000
-0.193416E+000
-0.221964E+000
-0.256014E+000
-0.294777E+000
-0.336005E+000
-0.360965E+000
-0.198674E-001
-0.209413E-001
-0.221046E-001
-0.233663E-001
-0.247378E-001
-0.262324E-001
-0.278653E-001
-0.296544E-001
-0.316202E-001
-0.337868E-001
-0.361825E-001
-0.388405E-001
-0.418003E-001
-0.451088E-001
-0.488228E-001
-0.530091E-001
-0.577528E-001
-0.631502E-001
-0.693346E-001
-0.764452E-001
-0.847031E-001
-0.943079E-001
-0.105644E+000
-0.119002E+000
-0.135057E+000
-0.154274E+000
-0.177771E+000
-0.206408E+000
-0.241766E+000
-0.285130E+000
-0.337751E+000
-0.391049E+000
-0.172784E-001
-0.182177E-001
-0.192343E-001
-0.203369E-001
-0.215360E-001
-0.228435E-001
-0.242729E-001
-0.258402E-001
-0.275637E-001
-0.294651E-001
-0.315698E-001
-0.339078E-001
-0.365149E-001
-0.394340E-001
-0.427165E-001
-0.464252E-001
-0.506364E-001
-0.554454E-001
-0.609681E-001
-0.673558E-001
-0.747891E-001
-0.835237E-001
-0.938452E-001
-0.106220E+000
-0.121107E+000
-0.139421E+000
-0.161935E+000
-0.190546E+000
-0.226717E+000
-0.274418E+000
-0.337164E+000
-0.421599E+000
SCALARS pressure FLOAT     1
LOOKUP_TABLE default
 0.433759E+000
 0.433772E+000
 0.433791E+000
 0.433814E+000
 0.433842E+000
 0.433873E+000
 0.433908E+000
 0.433948E+000
 0.433994E+000
 0.434044E+000
 0.434102E+000
 0.434166E+000
 0.434240E+000
 0.434323E+000
 0.434418E+000
 0.434527E+000
 0.434653E+000
 0.434798E+000
 0.434970E+000
 0.435166E+000
 0.435407E+000
 0.435681E+000
 0.436035E+000
 0.436431E+000
 0.436976E+000
 0.437583E+000
 0.438477E+000
 0.439483E+000
 0.441100E+000
 0.442972E+000
 0.446372E+000
 0.451188E+000
 0.434702E+000
 0.434773E+000
 0.434853E+000
 0.434942E+000
 0.435041E+000
 0.435150E+000
 0.435271E+000
 0.435406E+000
 0.435556E+000
 0.435723E+000
 0.435909E+000
 0.436118E+000
 0.436354E+000
 0.436620E+000
 0.436922E+000
 0.437268E+000
 0.437664E+000
 0.438124E+000
 0.438655E+000
 0.439283E+000
 0.440019E+000
 0.440903E+000
 0.441968E+000
 0.443261E+000
 0.444887E+000
 0.446873E+000
 0.449537E+000
 0.452797E+000
 0.457610E+000
 0.463476E+000
 0.473628E+000
 0.485938E+000
 0.435736E+000
 0.435868E+000
 0.436013E+000
 0.436173E+000
 0.436349E+000
 0.436543E+000
 0.436757E+000
 0.436993E+000
 0.437255E+000
 0.437547E+000
 0.437871E+000
 0.438235E+000
 0.438644E+000
 0.439105E+000
 0.439629E+000
 0.440225E+000
 0.440910E+000
 0.441699E+000
 0.442616E+000
 0.443692E+000
 0.444953E+000
 0.446476E+000
 0.448274E+000
 0.450527E+000
 0.453212E+000
 0.456727E+000
 0.461013E+000
 0.466873E+000
 0.474400E+000
 0.485075E+000
 0.500492E+000
 0.522395E+000
 0.436864E+000
 0.437061E+000
 0.437277E+000
 0.437513E+000
 0.437772E+000
 0.438057E+000
 0.438370E+000
 0.438715E+000
 0.439098E+000
 0.439523E+000
 0.439995E+000
 0.440524E+000
 0.441118E+000
 0.441787E+000
 0.442545E+000
 0.443407E+000
 0.444397E+000
 0.445534E+000
 0.446860E+000
 0.448397E+000
 0.450231E+000
 0.452379E+000
 0.455010E+000
 0.458147E+000
 0.462087E+000
 0.466944E+000
 0.473185E+000
 0.481289E+000
 0.492014E+000
 0.506931E+000
 0.527995E+000
 0.559008E+000
 0.438092E+000
 0.438359E+000
 0.438650E+000
 0.438967E+000
 0.439316E+000
 0.439697E+000
 0.440117E+000
 0.440579E+000
 0.441090E+000
 0.441657E+000
 0.442287E+000
 0.442992E+000
 0.443781E+000
 0.444671E+000
 0.445676E+000
 0.446822E+000
 0.448129E+000
 0.449640E+000
 0.451381E+000
 0.453428E+000
 0.455817E+000
 0.458678E+000
 0.462087E+000
 0.466246E+000
 0.471349E+000
 0.477713E+000
 0.485812E+000
 0.496280E+000
 0.510161E+000
 0.529221E+000
 0.555948E+000
 0.595596E+000
 0.439423E+000
 0.439764E+000
 0.440136E+000
 0.440541E+000
 0.440984E+000
 0.441470E+000
 0.442002E+000
 0.442589E+000
 0.443237E+000
 0.443955E+000
 0.444753E+000
 0.445643E+000
 0.446640E+000
 0.447762E+000
 0.449031E+000
 0.450471E+000
 0.452120E+000
 0.454010E+000
 0.456205E+000
 0.458755E+000
 0.461759E+000
 0.465316E+000
 0.469578E+000
 0.474742E+000
 0.481071E+000
 0.488952E+000
 0.498932E+000
 0.511791E+000
 0.528800E+000
 0.551923E+000
 0.584246E+000
 0.631998E+000
 0.440860E+000
 0.441281E+000
 0.441739E+000
 0.442238E+000
 0.442782E+000
 0.443378E+000
 0.444031E+000
 0.444750E+000
 0.445543E+000
 0.446421E+000
 0.447396E+000
 0.448483E+000
 0.449699E+000
 0.451067E+000
 0.452610E+000
 0.454364E+000
 0.456363E+000
 0.458661E+000
 0.461314E+000
 0.464404E+000
 0.468030E+000
 0.472320E+000
 0.477450E+000
 0.483648E+000
 0.491232E+000
 0.500648E+000
 0.512524E+000
 0.527787E+000
 0.547878E+000
 0.575000E+000
 0.612771E+000
 0.668106E+000
 0.442408E+000
 0.442914E+000
 0.443463E+000
 0.444060E+000
 0.444712E+000
 0.445425E+000
 0.446206E+000
 0.447065E+000
 0.448011E+000
 0.449058E+000
 0.450219E+000
 0.451513E+000
 0.452960E+000
 0.454584E+000
 0.456418E+000
 0.458496E+000
 0.460866E+000
 0.463582E+000
 0.466718E+000
 0.470364E+000
 0.474633E+000
 0.479678E+000
 0.485697E+000
 0.492954E+000
 0.501813E+000
 0.512778E+000
 0.526563E+000
 0.544221E+000
 0.567348E+000
 0.598391E+000
 0.641411E+000
 0.703822E+000
 0.444068E+000
 0.444663E+000
 0.445309E+000
 0.446011E+000
 0.446777E+000
 0.447613E+000
 0.448529E+000
 0.449535E+000
 0.450643E+000
 0.451867E+000
 0.453225E+000
 0.454736E+000
 0.456423E+000
 0.458318E+000
 0.460452E+000
 0.462870E+000
 0.465623E+000
 0.468776E+000
 0.472411E+000
 0.476629E+000
 0.481562E+000
 0.487380E+000
 0.494308E+000
 0.502642E+000
 0.512791E+000
 0.525316E+000
 0.541013E+000
 0.561046E+000
 0.587155E+000
 0.622021E+000
 0.670061E+000
 0.739050E+000
 0.445841E+000
 0.446531E+000
 0.447279E+000
 0.448091E+000
 0.448976E+000
 0.449942E+000
 0.451000E+000
 0.452160E+000
 0.453438E+000
 0.454848E+000
 0.456411E+000
 0.458148E+000
 0.460088E+000
 0.462262E+000
 0.464710E+000
 0.467480E+000
 0.470631E+000
 0.474235E+000
 0.478383E+000
 0.483190E+000
 0.488803E+000
 0.495412E+000
 0.503264E+000
 0.512690E+000
 0.524139E+000
 0.538228E+000
 0.555829E+000
 0.578206E+000
 0.607236E+000
 0.645805E+000
 0.698616E+000
 0.773699E+000
 0.447726E+000
 0.448516E+000
 0.449371E+000
 0.450299E+000
 0.451310E+000
 0.452412E+000
 0.453617E+000
 0.454939E+000
 0.456393E+000
 0.457998E+000
 0.459774E+000
 0.461748E+000
 0.463949E+000
 0.466414E+000
 0.469186E+000
 0.472320E+000
 0.475880E+000
 0.479948E+000
 0.484623E+000
 0.490033E+000
 0.496340E+000
 0.503751E+000
 0.512540E+000
 0.523068E+000
 0.535822E+000
 0.551472E+000
 0.570960E+000
 0.595643E+000
 0.627519E+000
 0.669654E+000
 0.726971E+000
 0.807678E+000
 0.449723E+000
 0.450616E+000
 0.451583E+000
 0.452632E+000
 0.453774E+000
 0.455018E+000
 0.456377E+000
 0.457867E+000
 0.459505E+000
 0.461311E+000
 0.463309E+000
 0.465526E+000
 0.467998E+000
 0.470763E+000
 0.473870E+000
 0.477378E+000
 0.481358E+000
 0.485900E+000
 0.491114E+000
 0.497139E+000
 0.504150E+000
 0.512374E+000
 0.522107E+000
 0.533740E+000
 0.547798E+000
 0.564999E+000
 0.586349E+000
 0.613286E+000
 0.647922E+000
 0.693471E+000
 0.755022E+000
 0.840895E+000
 0.451826E+000
 0.452827E+000
 0.453911E+000
 0.455086E+000
 0.456363E+000
 0.457754E+000
 0.459273E+000
 0.460938E+000
 0.462765E+000
 0.464779E+000
 0.467005E+000
 0.469474E+000
 0.472224E+000
 0.475297E+000
 0.478747E+000
 0.482637E+000
 0.487047E+000
 0.492073E+000
 0.497834E+000
 0.504481E+000
 0.512204E+000
 0.521247E+000
 0.531928E+000
 0.544665E+000
 0.560018E+000
 0.578752E+000
 0.601929E+000
 0.631062E+000
 0.668360E+000
 0.717156E+000
 0.782663E+000
 0.873261E+000
 0.454029E+000
 0.455143E+000
 0.456347E+000
 0.457652E+000
 0.459069E+000
 0.460612E+000
 0.462296E+000
 0.464139E+000
 0.466163E+000
 0.468390E+000
 0.470851E+000
 0.473578E+000
 0.476611E+000
 0.479999E+000
 0.483798E+000
 0.488079E+000
 0.492925E+000
 0.498441E+000
 0.504756E+000
 0.512030E+000
 0.520468E+000
 0.530331E+000
 0.541958E+000
 0.555791E+000
 0.572426E+000
 0.592666E+000
 0.617627E+000
 0.648887E+000
 0.688737E+000
 0.740606E+000
 0.809789E+000
 0.904684E+000
 0.456325E+000
 0.457554E+000
 0.458882E+000
 0.460320E+000
 0.461881E+000
 0.463580E+000
 0.465433E+000
 0.467460E+000
 0.469683E+000
 0.472129E+000
 0.474828E+000
 0.477818E+000
 0.481141E+000
 0.484848E+000
 0.489002E+000
 0.493677E+000
 0.498964E+000
 0.504974E+000
 0.511845E+000
 0.519748E+000
 0.528901E+000
 0.539581E+000
 0.552146E+000
 0.567064E+000
 0.584958E+000
 0.606670E+000
 0.633363E+000
 0.666671E+000
 0.708953E+000
 0.763713E+000
 0.836294E+000
 0.935075E+000
 0.458702E+000
 0.460049E+000
 0.461503E+000
 0.463078E+000
 0.464786E+000
 0.466643E+000
 0.468668E+000
 0.470881E+000
 0.473307E+000
 0.475975E+000
 0.478917E+000
 0.482172E+000
 0.485788E+000
 0.489818E+000
 0.494330E+000
 0.499401E+000
 0.505131E+000
 0.511635E+000
 0.519062E+000
 0.527592E+000
 0.537456E+000
 0.548945E+000
 0.562435E+000
 0.578417E+000
 0.597542E+000
 0.620685E+000
 0.649050E+000
 0.684318E+000
 0.728906E+000
 0.786366E+000
 0.862071E+000
 0.964347E+000
 0.461147E+000
 0.462613E+000
 0.464196E+000
 0.465908E+000
 0.467765E+000
 0.469782E+000
 0.471981E+000
 0.474383E+000
 0.477014E+000
 0.479905E+000
 0.483092E+000
 0.486615E+000
 0.490524E+000
 0.494878E+000
 0.499747E+000
 0.505215E+000
 0.511386E+000
 0.518383E+000
 0.526361E+000
 0.535512E+000
 0.546077E+000
 0.558362E+000
 0.572759E+000
 0.589780E+000
 0.610100E+000
 0.634626E+000
 0.664593E+000
 0.701727E+000
 0.748484E+000
 0.808455E+000
 0.887014E+000
 0.992413E+000
 0.463641E+000
 0.465228E+000
 0.466940E+000
 0.468791E+000
 0.470797E+000
 0.472976E+000
 0.475350E+000
 0.477941E+000
 0.480777E+000
 0.483892E+000
 0.487323E+000
 0.491113E+000
 0.495315E+000
 0.499991E+000
 0.505216E+000
 0.511078E+000
 0.517685E+000
 0.525169E+000
 0.533691E+000
 0.543452E+000
 0.554705E+000
 0.567767E+000
 0.583047E+000
 0.601075E+000
 0.622549E+000
 0.648399E+000
 0.679894E+000
 0.718791E+000
 0.767578E+000
 0.829867E+000
 0.911017E+000
 0.101919E+001
 0.466166E+000
 0.467872E+000
 0.469713E+000
 0.471703E+000
 0.473858E+000
 0.476199E+000
 0.478746E+000
 0.481525E+000
 0.484566E+000
 0.487903E+000
 0.491576E+000
 0.495630E+000
 0.500123E+000
 0.505118E+000
 0.510693E+000
 0.516942E+000
 0.523978E+000
 0.531939E+000
 0.540993E+000
 0.551350E+000
 0.563271E+000
 0.577088E+000
 0.593221E+000
 0.612218E+000
 0.634796E+000
 0.661909E+000
 0.694849E+000
 0.735400E+000
 0.786074E+000
 0.850488E+000
 0.933977E+000
 0.104459E+001
 0.468697E+000
 0.470523E+000
 0.472492E+000
 0.474618E+000
 0.476921E+000
 0.479420E+000
 0.482139E+000
 0.485104E+000
 0.488346E+000
 0.491902E+000
 0.495812E+000
 0.500127E+000
 0.504904E+000
 0.510211E+000
 0.516129E+000
 0.522756E+000
 0.530211E+000
 0.538635E+000
 0.548206E+000
 0.559139E+000
 0.571705E+000
 0.586247E+000
 0.603198E+000
 0.623121E+000
 0.646748E+000
 0.675053E+000
 0.709350E+000
 0.751442E+000
 0.803856E+000
 0.870208E+000
 0.955791E+000
 0.106854E+001
 0.471210E+000
 0.473152E+000
 0.475246E+000
 0.477507E+000
 0.479954E+000
 0.482608E+000
 0.485494E+000
 0.488641E+000
 0.492079E+000
 0.495848E+000
 0.499991E+000
 0.504559E+000
 0.509612E+000
 0.515221E+000
 0.521471E+000
 0.528464E+000
 0.536322E+000
 0.545194E+000
 0.555260E+000
 0.566746E+000
 0.579929E+000
 0.595162E+000
 0.612891E+000
 0.633689E+000
 0.658304E+000
 0.687728E+000
 0.723288E+000
 0.766804E+000
 0.820811E+000
 0.888914E+000
 0.976361E+000
 0.109097E+001
 0.473675E+000
 0.475731E+000
 0.477945E+000
 0.480336E+000
 0.482922E+000
 0.485727E+000
 0.488775E+000
 0.492097E+000
 0.495725E+000
 0.499700E+000
 0.504066E+000
 0.508877E+000
 0.514195E+000
 0.520095E+000
 0.526663E+000
 0.534006E+000
 0.542250E+000
 0.551547E+000
 0.562086E+000
 0.574096E+000
 0.587864E+000
 0.603749E+000
 0.622209E+000
 0.643827E+000
 0.669365E+000
 0.699826E+000
 0.736553E+000
 0.781374E+000
 0.836825E+000
 0.906499E+000
 0.995592E+000
 0.111180E+001
 0.476063E+000
 0.478226E+000
 0.480556E+000
 0.483070E+000
 0.485790E+000
 0.488738E+000
 0.491941E+000
 0.495430E+000
 0.499239E+000
 0.503410E+000
 0.507988E+000
 0.513031E+000
 0.518601E+000
 0.524776E+000
 0.531646E+000
 0.539320E+000
 0.547928E+000
 0.557626E+000
 0.568608E+000
 0.581110E+000
 0.595425E+000
 0.611920E+000
 0.631059E+000
 0.653438E+000
 0.679829E+000
 0.711243E+000
 0.749035E+000
 0.795039E+000
 0.851790E+000
 0.922860E+000
 0.101339E+001
 0.113096E+001
 0.478340E+000
 0.480604E+000
 0.483043E+000
 0.485674E+000
 0.488519E+000
 0.491603E+000
 0.494952E+000
 0.498597E+000
 0.502577E+000
 0.506931E+000
 0.511709E+000
 0.516968E+000
 0.522775E+000
 0.529207E+000
 0.536359E+000
 0.544341E+000
 0.553288E+000
 0.563360E+000
 0.574753E+000
 0.587711E+000
 0.602531E+000
 0.619587E+000
 0.639351E+000
 0.662426E+000
 0.689593E+000
 0.721874E+000
 0.760627E+000
 0.807692E+000
 0.865599E+000
 0.937898E+000
 0.102968E+001
 0.114840E+001
 0.480473E+000
 0.482831E+000
 0.485371E+000
 0.488110E+000
 0.491072E+000
 0.494280E+000
 0.497764E+000
 0.501555E+000
 0.505691E+000
 0.510215E+000
 0.515178E+000
 0.520637E+000
 0.526661E+000
 0.533330E+000
 0.540741E+000
 0.549006E+000
 0.558263E+000
 0.568676E+000
 0.580446E+000
 0.593819E+000
 0.609098E+000
 0.626663E+000
 0.646993E+000
 0.670697E+000
 0.698562E+000
 0.731617E+000
 0.771227E+000
 0.819231E+000
 0.878153E+000
 0.951520E+000
 0.104437E+001
 0.116405E+001
 0.482430E+000
 0.484873E+000
 0.487504E+000
 0.490342E+000
 0.493409E+000
 0.496731E+000
 0.500336E+000
 0.504259E+000
 0.508538E+000
 0.513216E+000
 0.518345E+000
 0.523984E+000
 0.530204E+000
 0.537087E+000
 0.544731E+000
 0.553251E+000
 0.562787E+000
 0.573507E+000
 0.585614E+000
 0.599358E+000
 0.615047E+000
 0.633066E+000
 0.653898E+000
 0.678159E+000
 0.706640E+000
 0.740377E+000
 0.780737E+000
 0.829559E+000
 0.889358E+000
 0.963640E+000
 0.105739E+001
 0.117786E+001
 0.484178E+000
 0.486696E+000
 0.489408E+000
 0.492332E+000
 0.495493E+000
 0.498915E+000
 0.502629E+000
 0.506668E+000
 0.511072E+000
 0.515886E+000
 0.521162E+000
 0.526961E+000
 0.533354E+000
 0.540425E+000
 0.548274E+000
 0.557018E+000
 0.566799E+000
 0.577787E+000
 0.590188E+000
 0.604257E+000
 0.620304E+000
 0.638718E+000
 0.659986E+000
 0.684729E+000
 0.713743E+000
 0.748066E+000
 0.789068E+000
 0.838588E+000
 0.899130E+000
 0.974180E+000
 0.106868E+001
 0.118978E+001
 0.485687E+000
 0.488270E+000
 0.491050E+000
 0.494049E+000
 0.497289E+000
 0.500798E+000
 0.504604E+000
 0.508743E+000
 0.513254E+000
 0.518184E+000
 0.523585E+000
 0.529520E+000
 0.536061E+000
 0.543292E+000
 0.551315E+000
 0.560250E+000
 0.570239E+000
 0.581455E+000
 0.594106E+000
 0.608450E+000
 0.624799E+000
 0.643546E+000
 0.665182E+000
 0.690330E+000
 0.719790E+000
 0.754604E+000
 0.796141E+000
 0.846239E+000
 0.907395E+000
 0.983073E+000
 0.107817E+001
 0.119979E+001
 0.486930E+000
 0.489565E+000
 0.492402E+000
 0.495462E+000
 0.498767E+000
 0.502346E+000
 0.506228E+000
 0.510448E+000
 0.515047E+000
 0.520072E+000
 0.525576E+000
 0.531621E+000
 0.538282E+000
 0.545644E+000
 0.553809E+000
 0.562899E+000
 0.573057E+000
 0.584458E+000
 0.597312E+000
 0.611878E+000
 0.628472E+000
 0.647489E+000
 0.669421E+000
 0.694895E+000
 0.724715E+000
 0.759921E+000
 0.801887E+000
 0.852445E+000
 0.914086E+000
 0.990259E+000
 0.108583E+001
 0.120783E+001
 0.487884E+000
 0.490559E+000
 0.493439E+000
 0.496545E+000
 0.499900E+000
 0.503532E+000
 0.507472E+000
 0.511755E+000
 0.516421E+000
 0.521517E+000
 0.527099E+000
 0.533229E+000
 0.539981E+000
 0.547443E+000
 0.555716E+000
 0.564923E+000
 0.575210E+000
 0.586751E+000
 0.599760E+000
 0.614494E+000
 0.631274E+000
 0.650493E+000
 0.672650E+000
 0.698370E+000
 0.728460E+000
 0.763961E+000
 0.806247E+000
 0.857149E+000
 0.919152E+000
 0.995692E+000
 0.109161E+001
 0.121389E+001
 0.488530E+000
 0.491232E+000
 0.494141E+000
 0.497279E+000
 0.500668E+000
 0.504336E+000
 0.508314E+000
 0.512639E+000
 0.517350E+000
 0.522496E+000
 0.528130E+000
 0.534317E+000
 0.541131E+000
 0.548659E+000
 0.557005E+000
 0.566291E+000
 0.576664E+000
 0.588300E+000
 0.601412E+000
 0.616260E+000
 0.633163E+000
 0.652520E+000
 0.674826E+000
 0.700711E+000
 0.730981E+000
 0.766680E+000
 0.809179E+000
 0.860310E+000
 0.922552E+000
 0.999334E+000
 0.109548E+001
 0.121794E+001
 0.488856E+000
 0.491572E+000
 0.494496E+000
 0.497649E+000
 0.501055E+000
 0.504741E+000
 0.508739E+000
 0.513085E+000
 0.517819E+000
 0.522989E+000
 0.528650E+000
 0.534865E+000
 0.541710E+000
 0.549272E+000
 0.557655E+000
 0.566981E+000
 0.577398E+000
 0.589081E+000
 0.602244E+000
 0.617149E+000
 0.634115E+000
 0.653540E+000
 0.675921E+000
 0.701889E+000
 0.732249E+000
 0.768046E+000
 0.810653E+000
 0.861897E+000
 0.924259E+000
 0.100116E+001
 0.109742E+001
 0.121997E+001
 0.488856E+000
 0.491572E+000
 0.494496E+000
 0.497649E+000
 0.501055E+000
 0.504741E+000
 0.508739E+000
 0.513085E+000
 0.517819E+000
 0.522989E+000
 0.528650E+000
 0.534865E+000
 0.541710E+000
 0.549272E+000
 0.557655E+000
 0.566981E+000
 0.577398E+000
 0.589081E+000
 0.602244E+000
 0.617149E+000
 0.634115E+000
 0.653540E+000
 0.675921E+000
 0.701889E+000
 0.732249E+000
 0.768046E+000
 0.810653E+000
 0.861897E+000
 0.924259E+000
 0.100116E+001
 0.109742E+001
 0.121997E+001
 0.488530E+000
 0.491232E+000
 0.494141E+000
 0.497279E+000
 0.500668E+000
 0.504336E+000
 0.508314E+000
 0.512639E+000
 0.517350E+000
 0.522496E+000
 0.528130E+000
 0.534317E+000
 0.541131E+000
 0.548659E+000
 0.557005E+000
 0.566291E+000
 0.576664E+000
 0.588300E+000
 0.601412E+000
 0.616260E+000
 0.633163E+000
 0.652520E+000
 0.674826E+000
 0.700711E+000
 0.730981E+000
 0.766680E+000
 0.809179E+000
 0.860310E+000
 0.922552E+000
 0.999334E+000
 0.109548E+001
 0.121794E+001
 0.487884E+000
 0.490559E+000
 0.493439E+000
 0.496545E+000
 0.499900E+000
 0.503532E+000
 0.507472E+000
 0.511755E+000
 0.516421E+000
 0.521517E+000
 0.527099E+000
 0.533229E+000
 0.539981E+000
 0.547443E+000
 0.555716E+000
 0.564923E+000
 0.575210E+000
 0.586751E+000
 0.599760E+000
 0.614494E+000
 0.631274E+000
 0.650493E+000
 0.672650E+000
 0.698370E+000
 0.728460E+000
 0.763961E+000
 0.806247E+000
 0.857149E+000
 0.919152E+000
 0.995692E+000
 0.109161E+001
 0.121389E+001
 0.486930E+000
 0.489565E+000
 0.492402E+000
 0.495462E+000
 0.498767E+000
 0.502346E+000
 0.506228E+000
 0.510448E+000
 0.515047E+000
 0.520072E+000
 0.525576E+000
 0.531621E+000
 0.538282E+000
 0.545644E+000
 0.553809E+000
 0.562899E+000
 0.573057E+000
 0.584458E+000
 0.597312E+000
 0.611878E+000
 0.628472E+000
 0.647489E+000
 0.669421E+000
 0.694895E+000
 0.724715E+000
 0.759921E+000
 0.801887E+000
 0.852445E+000
 0.914086E+000
 0.990259E+000
 0.108583E+001
 0.120783E+001
 0.485687E+000
 0.488270E+000
 0.491050E+000
 0.494049E+000
 0.497289E+000
 0.500798E+000
 0.504604E+000
 0.508743E+000
 0.513254E+000
 0.518184E+000
 0.523585E+000
 0.529520E+000
 0.536061E+000
 0.543292E+000
 0.551315E+000
 0.560250E+000
 0.570239E+000
 0.581455E+000
 0.594106E+000
 0.608450E+000
 0.624799E+000
 0.643546E+000
 0.665182E+000
 0.690330E+000
 0.719790E+000
 0.754604E+000
 0.796141E+000
 0.846239E+000
 0.907395E+000
 0.983073E+000
 0.107817E+001
 0.119979E+001
 0.484178E+000
 0.486696E+000
 0.489408E+000
 0.492332E+000
 0.495493E+000
 0.498915E+000
 0.502629E+000
 0.506668E+000
 0.511072E+000
 0.515886E+000
 0.521162E+000
 0.526961E+000
 0.533354E+000
 0.540425E+000
 0.548274E+000
 0.557018E+000
 0.566799E+000
 0.577787E+000
 0.590188E+000
 0.604257E+000
 0.620304E+000
 0.638718E+000
 0.659986E+000
 0.684729E+000
 0.713743E+000
 0.748066E+000
 0.789068E+000
 0.838588E+000
 0.899130E+000
 0.974180E+000
 0.106868E+001
 0.118978E+001
 0.482430E+000
 0.484873E+000
 0.487504E+000
 0.490342E+000
 0.493409E+000
 0.496731E+000
 0.500336E+000
 0.504259E+000
 0.508538E+000
 0.513216E+000
 0.518345E+000
 0.523984E+000
 0.530204E+000
 0.537087E+000
 0.544731E+000
 0.553251E+000
 0.562787E+000
 0.573507E+000
 0.585614E+000
 0.599358E+000
 0.615047E+000
 0.633066E+000
 0.653898E+000
 0.678159E+000
 0.706640E+000
 0.740377E+000
 0.780737E+000
 0.829559E+000
 0.889358E+000
 0.963640E+000
 0.105739E+001
 0.117786E+001
 0.480473E+000
 0.482831E+000
 0.485371E+000
 0.488110E+000
 0.491072E+000
 0.494280E+000
 0.497764E+000
 0.501555E+000
 0.505691E+000
 0.510215E+000
 0.515178E+000
 0.520637E+000
 0.526661E+000
 0.533330E+000
 0.540741E+000
 0.549006E+000
 0.558263E+000
 0.568676E+000
 0.580446E+000
 0.593819E+000
 0.609098E+000
 0.626663E+000
 0.646993E+000
 0.670697E+000
 0.698562E+000
 0.731617E+000
 0.771227E+000
 0.819231E+000
 0.878153E+000
 0.951520E+000
 0.104437E+001
 0.116405E+001
 0.478340E+000
 0.480604E+000
 0.483043E+000
 0.485674E+000
 0.488519E+000
 0.491603E+000
 0.494952E+000
 0.498597E+000
 0.502577E+000
 0.506931E+000
 0.511709E+000
 0.516968E+000
 0.522775E+000
 0.529207E+000
 0.536359E+000
 0.544341E+000
 0.553288E+000
 0.563360E+000
 0.574753E+000
 0.587711E+000
 0.602531E+000
 0.619587E+000
 0.639351E+000
 0.662426E+000
 0.689593E+000
 0.721874E+000
 0.760627E+000
 0.807692E+000
 0.865599E+000
 0.937898E+000
 0.102968E+001
 0.114840E+001
 0.476063E+000
 0.478226E+000
 0.480556E+000
 0.483070E+000
 0.485790E+000
 0.488738E+000
 0.491941E+000
 0.495430E+000
 0.499239E+000
 0.503410E+000
 0.507988E+000
 0.513031E+000
 0.518601E+000
 0.524776E+000
 0.531646E+000
 0.539320E+000
 0.547928E+000
 0.557626E+000
 0.568608E+000
 0.581110E+000
 0.595425E+000
 0.611920E+000
 0.631059E+000
 0.653438E+000
 0.679829E+000
 0.711243E+000
 0.749035E+000
 0.795039E+000
 0.851790E+000
 0.922860E+000
 0.101339E+001
 0.113096E+001
 0.473675E+000
 0.475731E+000
 0.477945E+000
 0.480336E+000
 0.482922E+000
 0.485727E+000
 0.488775E+000
 0.492097E+000
 0.495725E+000
 0.499700E+000
 0.504066E+000
 0.508877E+000
 0.514195E+000
 0.520095E+000
 0.526663E+000
 0.534006E+000
 0.542250E+000
 0.551547E+000
 0.562086E+000
 0.574096E+000
 0.587864E+000
 0.603749E+000
 0.622209E+000
 0.643827E+000
 0.669365E+000
 0.699826E+000
 0.736553E+000
 0.781374E+000
 0.836825E+000
 0.906499E+000
 0.995592E+000
 0.111180E+001
 0.471210E+000
 0.473152E+000
 0.475246E+000
 0.477507E+000
 0.479954E+000
 0.482608E+000
 0.485494E+000
 0.488641E+000
 0.492079E+000
 0.495848E+000
 0.499991E+000
 0.504559E+000
 0.509612E+000
 0.515221E+000
 0.521471E+000
 0.528464E+000
 0.536322E+000
 0.545194E+000
 0.555260E+000
 0.566746E+000
 0.579929E+000
 0.595162E+000
 0.612891E+000
 0.633689E+000
 0.658304E+000
 0.687728E+000
 0.723288E+000
 0.766804E+000
 0.820811E+000
 0.888914E+000
 0.976361E+000
 0.109097E+001
 0.468697E+000
 0.470523E+000
 0.472492E+000
 0.474618E+000
 0.476921E+000
 0.479420E+000
 0.482139E+000
 0.485104E+000
 0.488346E+000
 0.491902E+000
 0.495812E+000
 0.500127E+000
 0.504904E+000
 0.510211E+000
 0.516129E+000
 0.522756E+000
 0.530211E+000
 0.538635E+000
 0.548206E+000
 0.559139E+000
 0.571705E+000
 0.586247E+000
 0.603198E+000
 0.623121E+000
 0.646748E+000
 0.675053E+000
 0.709350E+000
 0.751442E+000
 0.803856E+000
 0.870208E+000
 0.955791E+000
 0.106854E+001
 0.466166E+000
 0.467872E+000
 0.469713E+000
 0.471703E+000
 0.473858E+000
 0.476199E+000
 0.478746E+000
 0.481525E+000
 0.484566E+000
 0.487903E+000
 0.491576E+000
 0.495630E+000
 0.500123E+000
 0.505118E+000
 0.510693E+000
 0.516942E+000
 0.523978E+000
 0.531939E+000
 0.540993E+000
 0.551350E+000
 0.563271E+000
 0.577088E+000
 0.593221E+000
 0.612218E+000
 0.634796E+000
 0.661909E+000
 0.694849E+000
 0.735400E+000
 0.786074E+000
 0.850488E+000
 0.933977E+000
 0.104459E+001
 0.463641E+000
 0.465228E+000
 0.466940E+000
 0.468791E+000
 0.470797E+000
 0.472976E+000
 0.475350E+000
 0.477941E+000
 0.480777E+000
 0.483892E+000
 0.487323E+000
 0.491113E+000
 0.495315E+000
 0.499991E+000
 0.505216E+000
 0.511078E+000
 0.517685E+000
 0.525169E+000
 0.533691E+000
 0.543452E+000
 0.554705E+000
 0.567767E+000
 0.583047E+000
 0.601075E+000
 0.622549E+000
 0.648399E+000
 0.679894E+000
 0.718791E+000
 0.767578E+000
 0.829867E+000
 0.911017E+000
 0.101919E+001
 0.461147E+000
 0.462613E+000
 0.464196E+000
 0.465908E+000
 0.467765E+000
 0.469782E+000
 0.471981E+000
 0.474383E+000
 0.477014E+000
 0.479905E+000
 0.483092E+000
 0.486615E+000
 0.490524E+000
 0.494878E+000
 0.499747E+000
 0.505215E+000
 0.511386E+000
 0.518383E+000
 0.526361E+000
 0.535512E+000
 0.546077E+000
 0.558362E+000
 0.572759E+000
 0.589780E+000
 0.610100E+000
 0.634626E+000
 0.664593E+000
 0.701727E+000
 0.748484E+000
 0.808455E+000
 0.887014E+000
 0.992413E+000
 0.458702E+000
 0.460049E+000
 0.461503E+000
 0.463078E+000
 0.464786E+000
 0.466643E+000
 0.468668E+000
 0.470881E+000
 0.473307E+000
 0.475975E+000
 0.478917E+000
 0.482172E+000
 0.485788E+000
 0.489818E+000
 0.494330E+000
 0.499401E+000
 0.505131E+000
 0.511635E+000
 0.519062E+000
 0.527592E+000
 0.537456E+000
 0.548945E+000
 0.562435E+000
 0.578417E+000
 0.597542E+000
 0.620685E+000
 0.649050E+000
 0.684318E+000
 0.728906E+000
 0.786366E+000
 0.862071E+000
 0.964347E+000
 0.456325E+000
 0.457554E+000
 0.458882E+000
 0.460320E+000
 0.461881E+000
 0.463580E+000
 0.465433E+000
 0.467460E+000
 0.469683E+000
 0.472129E+000
 0.474828E+000
 0.477818E+000
 0.481141E+000
 0.484848E+000
 0.489002E+000
 0.493677E+000
 0.498964E+000
 0.504974E+000
 0.511845E+000
 0.519748E+000
 0.528901E+000
 0.539581E+000
 0.552146E+000
 0.567064E+000
 0.584958E+000
 0.606670E+000
 0.633363E+000
 0.666671E+000
 0.708953E+000
 0.763713E+000
 0.836294E+000
 0.935075E+000
 0.454029E+000
 0.455143E+000
 0.456347E+000
 0.457652E+000
 0.459069E+000
 0.460612E+000
 0.462296E+000
 0.464139E+000
 0.466163E+000
 0.468390E+000
 0.470851E+000
 0.473578E+000
 0.476611E+000
 0.479999E+000
 0.483798E+000
 0.488079E+000
 0.492925E+000
 0.498441E+000
 0.504756E+000
 0.512030E+000
 0.520468E+000
 0.530331E+000
 0.541958E+000
 0.555791E+000
 0.572426E+000
 0.592666E+000
 0.617627E+000
 0.648887E+000
 0.688737E+000
 0.740606E+000
 0.809789E+000
 0.904684E+000
 0.451826E+000
 0.452827E+000
 0.453911E+000
 0.455086E+000
 0.456363E+000
 0.457754E+000
 0.459273E+000
 0.460938E+000
 0.462765E+000
 0.464779E+000
 0.467005E+000
 0.469474E+000
 0.472224E+000
 0.475297E+000
 0.478747E+000
 0.482637E+000
 0.487047E+000
 0.492073E+000
 0.497834E+000
 0.504481E+000
 0.512204E+000
 0.521247E+000
 0.531928E+000
 0.544665E+000
 0.560018E+000
 0.578752E+000
 0.601929E+000
 0.631062E+000
 0.668360E+000
 0.717156E+000
 0.782663E+000
 0.873261E+000
 0.449723E+000
 0.450616E+000
 0.451583E+000
 0.452632E+000
 0.453774E+000
 0.455018E+000
 0.456377E+000
 0.457867E+000
 0.459505E+000
 0.461311E+000
 0.463309E+000
 0.465526E+000
 0.467998E+000
 0.470763E+000
 0.473870E+000
 0.477378E+000
 0.481358E+000
 0.485900E+000
 0.491114E+000
 0.497139E+000
 0.504150E+000
 0.512374E+000
 0.522107E+000
 0.533740E+000
 0.547798E+000
 0.564999E+000
 0.586349E+000
 0.613286E+000
 0.647922E+000
 0.693471E+000
 0.755022E+000
 0.840895E+000
 0.447726E+000
 0.448516E+000
 0.449371E+000
 0.450299E+000
 0.451310E+000
 0.452412E+000
 0.453617E+000
 0.454939E+000
 0.456393E+000
 0.457998E+000
 0.459774E+000
 0.461748E+000
 0.463949E+000
 0.466414E+000
 0.469186E+000
 0.472320E+000
 0.475880E+000
 0.479948E+000
 0.484623E+000
 0.490033E+000
 0.496340E+000
 0.503751E+000
 0.512540E+000
 0.523068E+000
 0.535822E+000
 0.551472E+000
 0.570960E+000
 0.595643E+000
 0.627519E+000
 0.669654E+000
 0.726971E+000
 0.807678E+000
 0.445841E+000
 0.446531E+000
 0.447279E+000
 0.448091E+000
 0.448976E+000
 0.449942E+000
 0.451000E+000
 0.452160E+000
 0.453438E+000
 0.454848E+000
 0.456411E+000
 0.458148E+000
 0.460088E+000
 0.462262E+000
 0.464710E+000
 0.467480E+000
 0.470631E+000
 0.474235E+000
 0.478383E+000
 0.483190E+000
 0.488803E+000
 0.495412E+000
 0.503264E+000
 0.512690E+000
 0.524139E+000
 0.538228E+000
 0.555829E+000
 0.578206E+000
 0.607236E+000
 0.645805E+000
 0.698616E+000
 0.773699E+000
 0.444068E+000
 0.444663E+000
 0.445309E+000
 0.446011E+000
 0.446777E+000
 0.447613E+000
 0.448529E+000
 0.449535E+000
 0.450643E+000
 0.451867E+000
 0.453225E+000
 0.454736E+000
 0.456423E+000
 0.458318E+000
 0.460452E+000
 0.462870E+000
 0.465623E+000
 0.468776E+000
 0.472411E+000
 0.476629E+000
 0.481562E+000
 0.487380E+000
 0.494308E+000
 0.502642E+000
 0.512791E+000
 0.525316E+000
 0.541013E+000
 0.561046E+000
 0.587155E+000
 0.622021E+000
 0.670061E+000
 0.739050E+000
 0.442408E+000
 0.442914E+000
 0.443463E+000
 0.444060E+000
 0.444712E+000
 0.445425E+000
 0.446206E+000
 0.447065E+000
 0.448011E+000
 0.449058E+000
 0.450219E+000
 0.451513E+000
 0.452960E+000
 0.454584E+000
 0.456418E+000
 0.458496E+000
 0.460866E+000
 0.463582E+000
 0.466718E+000
 0.470364E+000
 0.474633E+000
 0.479678E+000
 0.485697E+000
 0.492954E+000
 0.501813E+000
 0.512778E+000
 0.526563E+000
 0.544221E+000
 0.567348E+000
 0.598391E+000
 0.641411E+000
 0.703822E+000
 0.440860E+000
 0.441281E+000
 0.441739E+000
 0.442238E+000
 0.442782E+000
 0.443378E+000
 0.444031E+000
 0.444750E+000
 0.445543E+000
 0.446421E+000
 0.447396E+000
 0.448483E+000
 0.449699E+000
 0.451067E+000
 0.452610E+000
 0.454364E+000
 0.456363E+000
 0.458661E+000
 0.461314E+000
 0.464404E+000
 0.468030E+000
 0.472320E+000
 0.477450E+000
 0.483648E+000
 0.491232E+000
 0.500648E+000
 0.512524E+000
 0.527787E+000
 0.547878E+000
 0.575000E+000
 0.612771E+000
 0.668106E+000
 0.439423E+000
 0.439764E+000
 0.440136E+000
 0.440541E+000
 0.440984E+000
 0.441470E+000
 0.442002E+000
 0.442589E+000
 0.443237E+000
 0.443955E+000
 0.444753E+000
 0.445643E+000
 0.446640E+000
 0.447762E+000
 0.449031E+000
 0.450471E+000
 0.452120E+000
 0.454010E+000
 0.456205E+000
 0.458755E+000
 0.461759E+000
 0.465316E+000
 0.469578E+000
 0.474742E+000
 0.481071E+000
 0.488952E+000
 0.498932E+000
 0.511791E+000
 0.528800E+000
 0.551923E+000
 0.584246E+000
 0.631998E+000
 0.438092E+000
 0.438359E+000
 0.438650E+000
 0.438967E+000
 0.439316E+000
 0.439697E+000
 0.440117E+000
 0.440579E+000
 0.441090E+000
 0.441657E+000
 0.442287E+000
 0.442992E+000
 0.443781E+000
 0.444671E+000
 0.445676E+000
 0.446822E+000
 0.448129E+000
 0.449640E+000
 0.451381E+000
 0.453428E+000
 0.455817E+000
 0.458678E+000
 0.462087E+000
 0.466246E+000
 0.471349E+000
 0.477713E+000
 0.485812E+000
 0.496280E+000
 0.510161E+000
 0.529221E+000
 0.555948E+000
 0.595596E+000
 0.436864E+000
 0.437061E+000
 0.437277E+000
 0.437513E+000
 0.437772E+000
 0.438057E+000
 0.438370E+000
 0.438715E+000
 0.439098E+000
 0.439523E+000
 0.439995E+000
 0.440524E+000
 0.441118E+000
 0.441787E+000
 0.442545E+000
 0.443407E+000
 0.444397E+000
 0.445534E+000
 0.446860E+000
 0.448397E+000
 0.450231E+000
 0.452379E+000
 0.455010E+000
 0.458147E+000
 0.462087E+000
 0.466944E+000
 0.473185E+000
 0.481289E+000
 0.492014E+000
 0.506931E+000
 0.527995E+000
 0.559008E+000
 0.435736E+000
 0.435868E+000
 0.436013E+000
 0.436173E+000
 0.436349E+000
 0.436543E+000
 0.436757E+000
 0.436993E+000
 0.437255E+000
 0.437547E+000
 0.437871E+000
 0.438235E+000
 0.438644E+000
 0.439105E+000
 0.439629E+000
 0.440225E+000
 0.440910E+000
 0.441699E+000
 0.442616E+000
 0.443692E+000
 0.444953E+000
 0.446476E+000
 0.448274E+000
 0.450527E+000
 0.453212E+000
 0.456727E+000
 0.461013E+000
 0.466873E+000
 0.474400E+000
 0.485075E+000
 0.500492E+000
 0.522395E+000
 0.434702E+000
 0.434773E+000
 0.434853E+000
 0.434942E+000
 0.435041E+000
 0.435150E+000
 0.435271E+000
 0.435406E+000
 0.435556E+000
 0.435723E+000
 0.435909E+000
 0.436118E+000
 0.436354E+000
 0.436620E+000
 0.436922E+000
 0.437268E+000
 0.437664E+000
 0.438124E+000
 0.438655E+000
 0.439283E+000
 0.440019E+000
 0.440903E+000
 0.441968E+000
 0.443261E+000
 0.444887E+000
 0.446873E+000
 0.449537E+000
 0.452797E+000
 0.457610E+000
 0.463476E+000
 0.473628E+000
 0.485938E+000
 0.433759E+000
 0.433772E+000
 0.433791E+000
 0.433814E+000
 0.433842E+000
 0.433873E+000
 0.433908E+000
 0.433948E+000
 0.433994E+000
 0.434044E+000
 0.434102E+000
 0.434166E+000
 0.434240E+000
 0.434323E+000
 0.434418E+000
 0.434527E+000
 0.434653E+000
 0.434798E+000
 0.434970E+000
 0.435166E+000
 0.435407E+000
 0.435681E+000
 0.436035E+000
 0.436431E+000
 0.436976E+000
 0.437583E+000
 0.438477E+000
 0.439483E+000
 0.441100E+000
 0.442972E+000
 0.446372E+000
 0.451188E+000
 0.432867E+000
 0.432829E+000
 0.432792E+000
 0.432755E+000
 0.432716E+000
 0.432674E+000
 0.432628E+000
 0.432580E+000
 0.432526E+000
 0.432468E+000
 0.432404E+000
 0.432333E+000
 0.432254E+000
 0.432165E+000
 0.432065E+000
 0.431953E+000
 0.431822E+000
 0.431675E+000
 0.431498E+000
 0.431300E+000
 0.431050E+000
 0.430777E+000
 0.430404E+000
 0.430012E+000
 0.429421E+000
 0.428830E+000
 0.427829E+000
 0.426878E+000
 0.425008E+000
 0.423399E+000
 0.419299E+000
 0.417344E+000
 0.431904E+000
 0.431816E+000
 0.431722E+000
 0.431620E+000
 0.431511E+000
 0.431391E+000
 0.431261E+000
 0.431118E+000
 0.430960E+000
 0.430786E+000
 0.430593E+000
 0.430378E+000
 0.430137E+000
 0.429866E+000
 0.429560E+000
 0.429209E+000
 0.428811E+000
 0.428345E+000
 0.427814E+000
 0.427175E+000
 0.426446E+000
 0.425534E+000
 0.424492E+000
 0.423136E+000
 0.421562E+000
 0.419446E+000
 0.416885E+000
 0.413375E+000
 0.408754E+000
 0.402487E+000
 0.392696E+000
 0.381348E+000
 0.430856E+000
 0.430710E+000
 0.430553E+000
 0.430382E+000
 0.430196E+000
 0.429993E+000
 0.429771E+000
 0.429527E+000
 0.429257E+000
 0.428959E+000
 0.428628E+000
 0.428259E+000
 0.427844E+000
 0.427379E+000
 0.426850E+000
 0.426251E+000
 0.425560E+000
 0.424772E+000
 0.423843E+000
 0.422775E+000
 0.421488E+000
 0.419986E+000
 0.418139E+000
 0.415921E+000
 0.413155E+000
 0.409676E+000
 0.405290E+000
 0.399410E+000
 0.391839E+000
 0.380942E+000
 0.365921E+000
 0.344066E+000
 0.429715E+000
 0.429507E+000
 0.429281E+000
 0.429035E+000
 0.428767E+000
 0.428474E+000
 0.428153E+000
 0.427800E+000
 0.427411E+000
 0.426980E+000
 0.426501E+000
 0.425966E+000
 0.425368E+000
 0.424694E+000
 0.423933E+000
 0.423064E+000
 0.422075E+000
 0.420927E+000
 0.419606E+000
 0.418051E+000
 0.416228E+000
 0.414051E+000
 0.411430E+000
 0.408258E+000
 0.404309E+000
 0.399422E+000
 0.393122E+000
 0.384994E+000
 0.374166E+000
 0.359149E+000
 0.338322E+000
 0.306917E+000
 0.428478E+000
 0.428201E+000
 0.427901E+000
 0.427574E+000
 0.427218E+000
 0.426828E+000
 0.426401E+000
 0.425932E+000
 0.425414E+000
 0.424842E+000
 0.424205E+000
 0.423496E+000
 0.422701E+000
 0.421808E+000
 0.420797E+000
 0.419650E+000
 0.418334E+000
 0.416825E+000
 0.415073E+000
 0.413028E+000
 0.410624E+000
 0.407760E+000
 0.404336E+000
 0.400159E+000
 0.395039E+000
 0.388637E+000
 0.380495E+000
 0.369982E+000
 0.355994E+000
 0.336882E+000
 0.310223E+000
 0.269942E+000
 0.427138E+000
 0.426788E+000
 0.426408E+000
 0.425994E+000
 0.425543E+000
 0.425051E+000
 0.424511E+000
 0.423917E+000
 0.423263E+000
 0.422540E+000
 0.421737E+000
 0.420841E+000
 0.419840E+000
 0.418713E+000
 0.417441E+000
 0.415995E+000
 0.414344E+000
 0.412447E+000
 0.410250E+000
 0.407692E+000
 0.404680E+000
 0.401115E+000
 0.396838E+000
 0.391658E+000
 0.385305E+000
 0.377388E+000
 0.367368E+000
 0.354448E+000
 0.337341E+000
 0.314168E+000
 0.281765E+000
 0.233254E+000
 0.425692E+000
 0.425263E+000
 0.424797E+000
 0.424291E+000
 0.423740E+000
 0.423137E+000
 0.422477E+000
 0.421752E+000
 0.420953E+000
 0.420070E+000
 0.419090E+000
 0.417998E+000
 0.416777E+000
 0.415406E+000
 0.413858E+000
 0.412101E+000
 0.410096E+000
 0.407794E+000
 0.405136E+000
 0.402038E+000
 0.398406E+000
 0.394104E+000
 0.388960E+000
 0.382744E+000
 0.375134E+000
 0.365682E+000
 0.353763E+000
 0.338431E+000
 0.318250E+000
 0.291053E+000
 0.253087E+000
 0.196930E+000
 0.424136E+000
 0.423623E+000
 0.423067E+000
 0.422462E+000
 0.421803E+000
 0.421084E+000
 0.420297E+000
 0.419433E+000
 0.418481E+000
 0.417429E+000
 0.416262E+000
 0.414964E+000
 0.413513E+000
 0.411884E+000
 0.410047E+000
 0.407965E+000
 0.405590E+000
 0.402869E+000
 0.399727E+000
 0.396075E+000
 0.391796E+000
 0.386740E+000
 0.380706E+000
 0.373429E+000
 0.364543E+000
 0.353541E+000
 0.339708E+000
 0.321977E+000
 0.298760E+000
 0.267608E+000
 0.224305E+000
 0.161050E+000
 0.422469E+000
 0.421867E+000
 0.421214E+000
 0.420505E+000
 0.419733E+000
 0.418891E+000
 0.417969E+000
 0.416958E+000
 0.415844E+000
 0.414615E+000
 0.413253E+000
 0.411738E+000
 0.410046E+000
 0.408148E+000
 0.406009E+000
 0.403587E+000
 0.400829E+000
 0.397671E+000
 0.394030E+000
 0.389804E+000
 0.384862E+000
 0.379031E+000
 0.372088E+000
 0.363732E+000
 0.353554E+000
 0.340991E+000
 0.325241E+000
 0.305132E+000
 0.278926E+000
 0.243915E+000
 0.195528E+000
 0.125695E+000
 0.420688E+000
 0.419992E+000
 0.419238E+000
 0.418419E+000
 0.417527E+000
 0.416556E+000
 0.415493E+000
 0.414327E+000
 0.413045E+000
 0.411630E+000
 0.410063E+000
 0.408321E+000
 0.406377E+000
 0.404199E+000
 0.401747E+000
 0.398972E+000
 0.395817E+000
 0.392208E+000
 0.388053E+000
 0.383238E+000
 0.377614E+000
 0.370993E+000
 0.363124E+000
 0.353674E+000
 0.342195E+000
 0.328065E+000
 0.310407E+000
 0.287950E+000
 0.258812E+000
 0.220064E+000
 0.166863E+000
 0.909471E-001
 0.418796E+000
 0.418000E+000
 0.417139E+000
 0.416204E+000
 0.415188E+000
 0.414080E+000
 0.412870E+000
 0.411543E+000
 0.410084E+000
 0.408475E+000
 0.406695E+000
 0.404717E+000
 0.402512E+000
 0.400043E+000
 0.397267E+000
 0.394128E+000
 0.390563E+000
 0.386490E+000
 0.381807E+000
 0.376389E+000
 0.370071E+000
 0.362646E+000
 0.353839E+000
 0.343287E+000
 0.330500E+000
 0.314806E+000
 0.295256E+000
 0.270489E+000
 0.238492E+000
 0.196148E+000
 0.138411E+000
 0.568911E-001
 0.416792E+000
 0.415893E+000
 0.414920E+000
 0.413865E+000
 0.412718E+000
 0.411469E+000
 0.410104E+000
 0.408609E+000
 0.406967E+000
 0.405157E+000
 0.403155E+000
 0.400934E+000
 0.398459E+000
 0.395690E+000
 0.392579E+000
 0.389066E+000
 0.385080E+000
 0.380532E+000
 0.375311E+000
 0.369277E+000
 0.362255E+000
 0.354015E+000
 0.344262E+000
 0.332603E+000
 0.318511E+000
 0.301263E+000
 0.279848E+000
 0.252819E+000
 0.218047E+000
 0.172266E+000
 0.110277E+000
 0.236130E-001
 0.414682E+000
 0.413674E+000
 0.412585E+000
 0.411405E+000
 0.410122E+000
 0.408726E+000
 0.407202E+000
 0.405534E+000
 0.403702E+000
 0.401684E+000
 0.399454E+000
 0.396981E+000
 0.394228E+000
 0.391151E+000
 0.387697E+000
 0.383802E+000
 0.379386E+000
 0.374354E+000
 0.368585E+000
 0.361928E+000
 0.354193E+000
 0.345134E+000
 0.334432E+000
 0.321668E+000
 0.306277E+000
 0.287493E+000
 0.264247E+000
 0.235015E+000
 0.197568E+000
 0.148519E+000
 0.825638E-001
-0.880022E-002
 0.412471E+000
 0.411351E+000
 0.410142E+000
 0.408832E+000
 0.407410E+000
 0.405862E+000
 0.404173E+000
 0.402326E+000
 0.400299E+000
 0.398068E+000
 0.395604E+000
 0.392873E+000
 0.389836E+000
 0.386444E+000
 0.382640E+000
 0.378355E+000
 0.373503E+000
 0.367980E+000
 0.361657E+000
 0.354372E+000
 0.345921E+000
 0.336040E+000
 0.324392E+000
 0.310529E+000
 0.293855E+000
 0.273561E+000
 0.248526E+000
 0.217160E+000
 0.177149E+000
 0.125013E+000
 0.553759E-001
-0.402613E-001
 0.410167E+000
 0.408932E+000
 0.407599E+000
 0.406156E+000
 0.404591E+000
 0.402888E+000
 0.401031E+000
 0.399000E+000
 0.396773E+000
 0.394324E+000
 0.391621E+000
 0.388628E+000
 0.385301E+000
 0.381590E+000
 0.377432E+000
 0.372751E+000
 0.367459E+000
 0.361441E+000
 0.354562E+000
 0.346647E+000
 0.337479E+000
 0.326781E+000
 0.314193E+000
 0.299244E+000
 0.281308E+000
 0.259538E+000
 0.232767E+000
 0.199345E+000
 0.156890E+000
 0.101854E+000
 0.288182E-001
-0.706830E-001
 0.407781E+000
 0.406430E+000
 0.404970E+000
 0.403391E+000
 0.401679E+000
 0.399818E+000
 0.397789E+000
 0.395573E+000
 0.393143E+000
 0.390472E+000
 0.387527E+000
 0.384268E+000
 0.380649E+000
 0.376615E+000
 0.372099E+000
 0.367022E+000
 0.361286E+000
 0.354774E+000
 0.347338E+000
 0.338795E+000
 0.328916E+000
 0.317408E+000
 0.303893E+000
 0.287877E+000
 0.268708E+000
 0.245504E+000
 0.217056E+000
 0.181667E+000
 0.136898E+000
 0.791527E-001
 0.299611E-002
-0.999792E-001
 0.405329E+000
 0.403857E+000
 0.402270E+000
 0.400554E+000
 0.398693E+000
 0.396672E+000
 0.394470E+000
 0.392065E+000
 0.389430E+000
 0.386536E+000
 0.383347E+000
 0.379821E+000
 0.375908E+000
 0.371550E+000
 0.366676E+000
 0.361202E+000
 0.355025E+000
 0.348020E+000
 0.340031E+000
 0.330868E+000
 0.320286E+000
 0.307981E+000
 0.293557E+000
 0.276500E+000
 0.256133E+000
 0.231544E+000
 0.201489E+000
 0.164228E+000
 0.117282E+000
 0.570211E-001
-0.219852E-001
-0.128065E+000
 0.402825E+000
 0.401234E+000
 0.399518E+000
 0.397663E+000
 0.395654E+000
 0.393471E+000
 0.391095E+000
 0.388501E+000
 0.385661E+000
 0.382544E+000
 0.379111E+000
 0.375317E+000
 0.371111E+000
 0.366431E+000
 0.361201E+000
 0.355334E+000
 0.348720E+000
 0.341227E+000
 0.332694E+000
 0.322919E+000
 0.311650E+000
 0.298566E+000
 0.283257E+000
 0.265191E+000
 0.243669E+000
 0.217751E+000
 0.186163E+000
 0.147135E+000
 0.981524E-001
 0.355713E-001
-0.460214E-001
-0.154856E+000
 0.400291E+000
 0.398580E+000
 0.396736E+000
 0.394743E+000
 0.392585E+000
 0.390242E+000
 0.387692E+000
 0.384910E+000
 0.381867E+000
 0.378527E+000
 0.374852E+000
 0.370794E+000
 0.366298E+000
 0.361299E+000
 0.355719E+000
 0.349464E+000
 0.342420E+000
 0.334450E+000
 0.325385E+000
 0.315013E+000
 0.303074E+000
 0.289234E+000
 0.273071E+000
 0.254034E+000
 0.231405E+000
 0.204222E+000
 0.171185E+000
 0.130497E+000
 0.796246E-001
 0.149161E-001
-0.690092E-001
-0.180273E+000
 0.397750E+000
 0.395920E+000
 0.393949E+000
 0.391820E+000
 0.389515E+000
 0.387014E+000
 0.384293E+000
 0.381326E+000
 0.378081E+000
 0.374523E+000
 0.370610E+000
 0.366292E+000
 0.361512E+000
 0.356201E+000
 0.350277E+000
 0.343643E+000
 0.336181E+000
 0.327747E+000
 0.318165E+000
 0.307217E+000
 0.294631E+000
 0.280065E+000
 0.263082E+000
 0.243118E+000
 0.219437E+000
 0.191058E+000
 0.156661E+000
 0.114428E+000
 0.618127E-001
-0.483283E-002
-0.908477E-001
-0.204236E+000
 0.395227E+000
 0.393282E+000
 0.391186E+000
 0.388924E+000
 0.386475E+000
 0.383819E+000
 0.380931E+000
 0.377783E+000
 0.374342E+000
 0.370571E+000
 0.366426E+000
 0.361855E+000
 0.356799E+000
 0.351185E+000
 0.344929E+000
 0.337929E+000
 0.330063E+000
 0.321182E+000
 0.311103E+000
 0.299601E+000
 0.286397E+000
 0.271139E+000
 0.253377E+000
 0.232536E+000
 0.207864E+000
 0.178365E+000
 0.142701E+000
 0.990411E-001
 0.448311E-001
-0.235652E-001
-0.111438E+000
-0.226671E+000
 0.392751E+000
 0.390694E+000
 0.388479E+000
 0.386087E+000
 0.383499E+000
 0.380694E+000
 0.377644E+000
 0.374321E+000
 0.370691E+000
 0.366714E+000
 0.362346E+000
 0.357532E+000
 0.352210E+000
 0.346306E+000
 0.339731E+000
 0.332382E+000
 0.324129E+000
 0.314821E+000
 0.304270E+000
 0.292243E+000
 0.278454E+000
 0.262542E+000
 0.244048E+000
 0.222385E+000
 0.196788E+000
 0.166248E+000
 0.129416E+000
 0.844491E-001
 0.287924E-001
-0.411736E-001
-0.130687E+000
-0.247507E+000
 0.390354E+000
 0.388190E+000
 0.385860E+000
 0.383345E+000
 0.380624E+000
 0.377675E+000
 0.374472E+000
 0.370982E+000
 0.367171E+000
 0.362999E+000
 0.358418E+000
 0.353373E+000
 0.347799E+000
 0.341619E+000
 0.334743E+000
 0.327062E+000
 0.318446E+000
 0.308736E+000
 0.297740E+000
 0.285221E+000
 0.270884E+000
 0.254361E+000
 0.235186E+000
 0.212760E+000
 0.186310E+000
 0.154815E+000
 0.116915E+000
 0.707632E-001
 0.138063E-001
-0.575546E-001
-0.148502E+000
-0.266677E+000
 0.388067E+000
 0.385802E+000
 0.383364E+000
 0.380733E+000
 0.377888E+000
 0.374805E+000
 0.371455E+000
 0.367809E+000
 0.363829E+000
 0.359473E+000
 0.354693E+000
 0.349431E+000
 0.343621E+000
 0.337183E+000
 0.330026E+000
 0.322036E+000
 0.313080E+000
 0.302997E+000
 0.291588E+000
 0.278613E+000
 0.263770E+000
 0.246685E+000
 0.226884E+000
 0.203760E+000
 0.176531E+000
 0.144169E+000
 0.105306E+000
 0.580913E-001
-0.216608E-004
-0.726095E-001
-0.164800E+000
-0.284117E+000
 0.385923E+000
 0.383566E+000
 0.381028E+000
 0.378290E+000
 0.375329E+000
 0.372121E+000
 0.368638E+000
 0.364846E+000
 0.360709E+000
 0.356184E+000
 0.351219E+000
 0.345758E+000
 0.339730E+000
 0.333056E+000
 0.325639E+000
 0.317366E+000
 0.308099E+000
 0.297674E+000
 0.285889E+000
 0.272498E+000
 0.257195E+000
 0.239599E+000
 0.219232E+000
 0.195479E+000
 0.167550E+000
 0.134412E+000
 0.946907E-001
 0.465362E-001
-0.125917E-001
-0.862459E-001
-0.179500E+000
-0.299772E+000
 0.383957E+000
 0.381516E+000
 0.378888E+000
 0.376052E+000
 0.372986E+000
 0.369665E+000
 0.366060E+000
 0.362137E+000
 0.357858E+000
 0.353179E+000
 0.348048E+000
 0.342406E+000
 0.336182E+000
 0.329294E+000
 0.321644E+000
 0.313116E+000
 0.303570E+000
 0.292838E+000
 0.280715E+000
 0.266952E+000
 0.251238E+000
 0.233188E+000
 0.212317E+000
 0.188007E+000
 0.159460E+000
 0.125639E+000
 0.851669E-001
 0.361941E-001
-0.238111E-001
-0.983781E-001
-0.192531E+000
-0.313587E+000
 0.382201E+000
 0.379686E+000
 0.376977E+000
 0.374055E+000
 0.370897E+000
 0.367476E+000
 0.363763E+000
 0.359724E+000
 0.355320E+000
 0.350505E+000
 0.345228E+000
 0.339426E+000
 0.333029E+000
 0.325953E+000
 0.318098E+000
 0.309346E+000
 0.299554E+000
 0.288554E+000
 0.276136E+000
 0.262047E+000
 0.245975E+000
 0.227530E+000
 0.206222E+000
 0.181428E+000
 0.152348E+000
 0.117939E+000
 0.768236E-001
 0.271531E-001
-0.335952E-001
-0.108929E+000
-0.203827E+000
-0.325518E+000
 0.380684E+000
 0.378106E+000
 0.375329E+000
 0.372333E+000
 0.369096E+000
 0.365589E+000
 0.361784E+000
 0.357646E+000
 0.353134E+000
 0.348204E+000
 0.342801E+000
 0.336863E+000
 0.330319E+000
 0.323083E+000
 0.315053E+000
 0.306110E+000
 0.296110E+000
 0.284881E+000
 0.272213E+000
 0.257849E+000
 0.241474E+000
 0.222695E+000
 0.201019E+000
 0.175819E+000
 0.146292E+000
 0.111392E+000
 0.697408E-001
 0.194918E-001
-0.418690E-001
-0.117830E+000
-0.213330E+000
-0.335523E+000
 0.379435E+000
 0.376805E+000
 0.373972E+000
 0.370916E+000
 0.367614E+000
 0.364038E+000
 0.360157E+000
 0.355938E+000
 0.351339E+000
 0.346313E+000
 0.340808E+000
 0.334760E+000
 0.328095E+000
 0.320728E+000
 0.312556E+000
 0.303458E+000
 0.293289E+000
 0.281875E+000
 0.269003E+000
 0.254417E+000
 0.237797E+000
 0.218748E+000
 0.196774E+000
 0.171247E+000
 0.141361E+000
 0.106067E+000
 0.639877E-001
 0.132781E-001
-0.485682E-001
-0.125023E+000
-0.220992E+000
-0.343569E+000
 0.378476E+000
 0.375807E+000
 0.372932E+000
 0.369830E+000
 0.366478E+000
 0.362848E+000
 0.358911E+000
 0.354629E+000
 0.349963E+000
 0.344866E+000
 0.339283E+000
 0.333150E+000
 0.326394E+000
 0.318927E+000
 0.310647E+000
 0.301431E+000
 0.291134E+000
 0.279579E+000
 0.266553E+000
 0.251798E+000
 0.234992E+000
 0.215739E+000
 0.193541E+000
 0.167768E+000
 0.137611E+000
 0.102022E+000
 0.596213E-001
 0.856771E-002
-0.536398E-001
-0.130460E+000
-0.226774E+000
-0.349628E+000
 0.377827E+000
 0.375131E+000
 0.372227E+000
 0.369094E+000
 0.365709E+000
 0.362043E+000
 0.358067E+000
 0.353743E+000
 0.349032E+000
 0.343886E+000
 0.338250E+000
 0.332061E+000
 0.325243E+000
 0.317710E+000
 0.309357E+000
 0.300062E+000
 0.289678E+000
 0.278028E+000
 0.264899E+000
 0.250030E+000
 0.233100E+000
 0.213710E+000
 0.191362E+000
 0.165424E+000
 0.135086E+000
 0.992996E-001
 0.566855E-001
 0.540328E-002
-0.570437E-001
-0.134105E+000
-0.230645E+000
-0.353678E+000
 0.377499E+000
 0.374789E+000
 0.371871E+000
 0.368723E+000
 0.365320E+000
 0.361637E+000
 0.357641E+000
 0.353296E+000
 0.348563E+000
 0.343392E+000
 0.337730E+000
 0.331512E+000
 0.324663E+000
 0.317096E+000
 0.308706E+000
 0.299371E+000
 0.288944E+000
 0.277246E+000
 0.264066E+000
 0.249140E+000
 0.232147E+000
 0.212689E+000
 0.190265E+000
 0.164244E+000
 0.133816E+000
 0.979310E-001
 0.552101E-001
 0.381378E-002
-0.587525E-001
-0.135934E+000
-0.232586E+000
-0.355707E+000
 0.377499E+000
 0.374789E+000
 0.371871E+000
 0.368723E+000
 0.365320E+000
 0.361637E+000
 0.357641E+000
 0.353296E+000
 0.348563E+000
 0.343392E+000
 0.337730E+000
 0.331512E+000
 0.324663E+000
 0.317096E+000
 0.308706E+000
 0.299371E+000
 0.288944E+000
 0.277246E+000
 0.264066E+000
 0.249140E+000
 0.232147E+000
 0.212689E+000
 0.190265E+000
 0.164244E+000
 0.133816E+000
 0.979310E-001
 0.552101E-001
 0.381378E-002
-0.587525E-001
-0.135934E+000
-0.232586E+000
-0.355707E+000
 0.377827E+000
 0.375131E+000
 0.372227E+000
 0.369094E+000
 0.365709E+000
 0.362043E+000
 0.358067E+000
 0.353743E+000
 0.349032E+000
 0.343886E+000
 0.338250E+000
 0.332061E+000
 0.325243E+000
 0.317710E+000
 0.309357E+000
 0.300062E+000
 0.289678E+000
 0.278028E+000
 0.264899E+000
 0.250030E+000
 0.233100E+000
 0.213710E+000
 0.191362E+000
 0.165424E+000
 0.135086E+000
 0.992996E-001
 0.566855E-001
 0.540328E-002
-0.570437E-001
-0.134105E+000
-0.230645E+000
-0.353678E+000
 0.378476E+000
 0.375807E+000
 0.372932E+000
 0.369830E+000
 0.366478E+000
 0.362848E+000
 0.358911E+000
 0.354629E+000
 0.349963E+000
 0.344866E+000
 0.339283E+000
 0.333150E+000
 0.326394E+000
 0.318927E+000
 0.310647E+000
 0.301431E+000
 0.291134E+000
 0.279579E+000
 0.266553E+000
 0.251798E+000
 0.234992E+000
 0.215739E+000
 0.193541E+000
 0.167768E+000
 0.137611E+000
 0.102022E+000
 0.596213E-001
 0.856771E-002
-0.536398E-001
-0.130460E+000
-0.226774E+000
-0.349628E+000
 0.379435E+000
 0.376805E+000
 0.373972E+000
 0.370916E+000
 0.367614E+000
 0.364038E+000
 0.360157E+000
 0.355938E+000
 0.351339E+000
 0.346313E+000
 0.340808E+000
 0.334760E+000
 0.328095E+000
 0.320728E+000
 0.312556E+000
 0.303458E+000
 0.293289E+000
 0.281875E+000
 0.269003E+000
 0.254417E+000
 0.237797E+000
 0.218748E+000
 0.196774E+000
 0.171247E+000
 0.141361E+000
 0.106067E+000
 0.639877E-001
 0.132781E-001
-0.485682E-001
-0.125023E+000
-0.220992E+000
-0.343569E+000
 0.380684E+000
 0.378106E+000
 0.375329E+000
 0.372333E+000
 0.369096E+000
 0.365589E+000
 0.361784E+000
 0.357646E+000
 0.353134E+000
 0.348204E+000
 0.342801E+000
 0.336863E+000
 0.330319E+000
 0.323083E+000
 0.315053E+000
 0.306110E+000
 0.296110E+000
 0.284881E+000
 0.272213E+000
 0.257849E+000
 0.241474E+000
 0.222695E+000
 0.201019E+000
 0.175819E+000
 0.146292E+000
 0.111392E+000
 0.697408E-001
 0.194918E-001
-0.418690E-001
-0.117830E+000
-0.213330E+000
-0.335523E+000
 0.382201E+000
 0.379686E+000
 0.376977E+000
 0.374055E+000
 0.370897E+000
 0.367476E+000
 0.363763E+000
 0.359724E+000
 0.355320E+000
 0.350505E+000
 0.345228E+000
 0.339426E+000
 0.333029E+000
 0.325953E+000
 0.318098E+000
 0.309346E+000
 0.299554E+000
 0.288554E+000
 0.276136E+000
 0.262047E+000
 0.245975E+000
 0.227530E+000
 0.206222E+000
 0.181428E+000
 0.152348E+000
 0.117939E+000
 0.768236E-001
 0.271531E-001
-0.335952E-001
-0.108929E+000
-0.203827E+000
-0.325518E+000
 0.383957E+000
 0.381516E+000
 0.378888E+000
 0.376052E+000
 0.372986E+000
 0.369665E+000
 0.366060E+000
 0.362137E+000
 0.357858E+000
 0.353179E+000
 0.348048E+000
 0.342406E+000
 0.336182E+000
 0.329294E+000
 0.321644E+000
 0.313116E+000
 0.303570E+000
 0.292838E+000
 0.280715E+000
 0.266952E+000
 0.251238E+000
 0.233188E+000
 0.212317E+000
 0.188007E+000
 0.159460E+000
 0.125639E+000
 0.851669E-001
 0.361941E-001
-0.238111E-001
-0.983781E-001
-0.192531E+000
-0.313587E+000
 0.385923E+000
 0.383566E+000
 0.381028E+000
 0.378290E+000
 0.375329E+000
 0.372121E+000
 0.368638E+000
 0.364846E+000
 0.360709E+000
 0.356184E+000
 0.351219E+000
 0.345758E+000
 0.339730E+000
 0.333056E+000
 0.325639E+000
 0.317366E+000
 0.308099E+000
 0.297674E+000
 0.285889E+000
 0.272498E+000
 0.257195E+000
 0.239599E+000
 0.219232E+000
 0.195479E+000
 0.167550E+000
 0.134412E+000
 0.946907E-001
 0.465362E-001
-0.125917E-001
-0.862459E-001
-0.179500E+000
-0.299772E+000
 0.388067E+000
 0.385802E+000
 0.383364E+000
 0.380733E+000
 0.377888E+000
 0.374805E+000
 0.371455E+000
 0.367809E+000
 0.363829E+000
 0.359473E+000
 0.354693E+000
 0.349431E+000
 0.343621E+000
 0.337183E+000
 0.330026E+000
 0.322036E+000
 0.313080E+000
 0.302997E+000
 0.291588E+000
 0.278613E+000
 0.263770E+000
 0.246685E+000
 0.226884E+000
 0.203760E+000
 0.176531E+000
 0.144169E+000
 0.105306E+000
 0.580913E-001
-0.216608E-004
-0.726095E-001
-0.164800E+000
-0.284117E+000
 0.390354E+000
 0.388190E+000
 0.385860E+000
 0.383345E+000
 0.380624E+000
 0.377675E+000
 0.374472E+000
 0.370982E+000
 0.367171E+000
 0.362999E+000
 0.358418E+000
 0.353373E+000
 0.347799E+000
 0.341619E+000
 0.334743E+000
 0.327062E+000
 0.318446E+000
 0.308736E+000
 0.297740E+000
 0.285221E+000
 0.270884E+000
 0.254361E+000
 0.235186E+000
 0.212760E+000
 0.186310E+000
 0.154815E+000
 0.116915E+000
 0.707632E-001
 0.138063E-001
-0.575546E-001
-0.148502E+000
-0.266677E+000
 0.392751E+000
 0.390694E+000
 0.388479E+000
 0.386087E+000
 0.383499E+000
 0.380694E+000
 0.377644E+000
 0.374321E+000
 0.370691E+000
 0.366714E+000
 0.362346E+000
 0.357532E+000
 0.352210E+000
 0.346306E+000
 0.339731E+000
 0.332382E+000
 0.324129E+000
 0.314821E+000
 0.304270E+000
 0.292243E+000
 0.278454E+000
 0.262542E+000
 0.244048E+000
 0.222385E+000
 0.196788E+000
 0.166248E+000
 0.129416E+000
 0.844491E-001
 0.287924E-001
-0.411736E-001
-0.130687E+000
-0.247507E+000
 0.395227E+000
 0.393282E+000
 0.391186E+000
 0.388924E+000
 0.386475E+000
 0.383819E+000
 0.380931E+000
 0.377783E+000
 0.374342E+000
 0.370571E+000
 0.366426E+000
 0.361855E+000
 0.356799E+000
 0.351185E+000
 0.344929E+000
 0.337929E+000
 0.330063E+000
 0.321182E+000
 0.311103E+000
 0.299601E+000
 0.286397E+000
 0.271139E+000
 0.253377E+000
 0.232536E+000
 0.207864E+000
 0.178365E+000
 0.142701E+000
 0.990411E-001
 0.448311E-001
-0.235652E-001
-0.111438E+000
-0.226671E+000
 0.397750E+000
 0.395920E+000
 0.393949E+000
 0.391820E+000
 0.389515E+000
 0.387014E+000
 0.384293E+000
 0.381326E+000
 0.378081E+000
 0.374523E+000
 0.370610E+000
 0.366292E+000
 0.361512E+000
 0.356201E+000
 0.350277E+000
 0.343643E+000
 0.336181E+000
 0.327747E+000
 0.318165E+000
 0.307217E+000
 0.294631E+000
 0.280065E+000
 0.263082E+000
 0.243118E+000
 0.219437E+000
 0.191058E+000
 0.156661E+000
 0.114428E+000
 0.618127E-001
-0.483283E-002
-0.908477E-001
-0.204236E+000
 0.400291E+000
 0.398580E+000
 0.396736E+000
 0.394743E+000
 0.392585E+000
 0.390242E+000
 0.387692E+000
 0.384910E+000
 0.381867E+000
 0.378527E+000
 0.374852E+000
 0.370794E+000
 0.366298E+000
 0.361299E+000
 0.355719E+000
 0.349464E+000
 0.342420E+000
 0.334450E+000
 0.325385E+000
 0.315013E+000
 0.303074E+000
 0.289234E+000
 0.273071E+000
 0.254034E+000
 0.231405E+000
 0.204222E+000
 0.171185E+000
 0.130497E+000
 0.796246E-001
 0.149161E-001
-0.690092E-001
-0.180273E+000
 0.402825E+000
 0.401234E+000
 0.399518E+000
 0.397663E+000
 0.395654E+000
 0.393471E+000
 0.391095E+000
 0.388501E+000
 0.385661E+000
 0.382544E+000
 0.379111E+000
 0.375317E+000
 0.371111E+000
 0.366431E+000
 0.361201E+000
 0.355334E+000
 0.348720E+000
 0.341227E+000
 0.332694E+000
 0.322919E+000
 0.311650E+000
 0.298566E+000
 0.283257E+000
 0.265191E+000
 0.243669E+000
 0.217751E+000
 0.186163E+000
 0.147135E+000
 0.981524E-001
 0.355713E-001
-0.460214E-001
-0.154856E+000
 0.405329E+000
 0.403857E+000
 0.402270E+000
 0.400554E+000
 0.398693E+000
 0.396672E+000
 0.394470E+000
 0.392065E+000
 0.389430E+000
 0.386536E+000
 0.383347E+000
 0.379821E+000
 0.375908E+000
 0.371550E+000
 0.366676E+000
 0.361202E+000
 0.355025E+000
 0.348020E+000
 0.340031E+000
 0.330868E+000
 0.320286E+000
 0.307981E+000
 0.293557E+000
 0.276500E+000
 0.256133E+000
 0.231544E+000
 0.201489E+000
 0.164228E+000
 0.117282E+000
 0.570211E-001
-0.219852E-001
-0.128065E+000
 0.407781E+000
 0.406430E+000
 0.404970E+000
 0.403391E+000
 0.401679E+000
 0.399818E+000
 0.397789E+000
 0.395573E+000
 0.393143E+000
 0.390472E+000
 0.387527E+000
 0.384268E+000
 0.380649E+000
 0.376615E+000
 0.372099E+000
 0.367022E+000
 0.361286E+000
 0.354774E+000
 0.347338E+000
 0.338795E+000
 0.328916E+000
 0.317408E+000
 0.303893E+000
 0.287877E+000
 0.268708E+000
 0.245504E+000
 0.217056E+000
 0.181667E+000
 0.136898E+000
 0.791527E-001
 0.299611E-002
-0.999792E-001
 0.410167E+000
 0.408932E+000
 0.407599E+000
 0.406156E+000
 0.404591E+000
 0.402888E+000
 0.401031E+000
 0.399000E+000
 0.396773E+000
 0.394324E+000
 0.391621E+000
 0.388628E+000
 0.385301E+000
 0.381590E+000
 0.377432E+000
 0.372751E+000
 0.367459E+000
 0.361441E+000
 0.354562E+000
 0.346647E+000
 0.337479E+000
 0.326781E+000
 0.314193E+000
 0.299244E+000
 0.281308E+000
 0.259538E+000
 0.232767E+000
 0.199345E+000
 0.156890E+000
 0.101854E+000
 0.288182E-001
-0.706830E-001
 0.412471E+000
 0.411351E+000
 0.410142E+000
 0.408832E+000
 0.407410E+000
 0.405862E+000
 0.404173E+000
 0.402326E+000
 0.400299E+000
 0.398068E+000
 0.395604E+000
 0.392873E+000
 0.389836E+000
 0.386444E+000
 0.382640E+000
 0.378355E+000
 0.373503E+000
 0.367980E+000
 0.361657E+000
 0.354372E+000
 0.345921E+000
 0.336040E+000
 0.324392E+000
 0.310529E+000
 0.293855E+000
 0.273561E+000
 0.248526E+000
 0.217160E+000
 0.177149E+000
 0.125013E+000
 0.553759E-001
-0.402613E-001
 0.414682E+000
 0.413674E+000
 0.412585E+000
 0.411405E+000
 0.410122E+000
 0.408726E+000
 0.407202E+000
 0.405534E+000
 0.403702E+000
 0.401684E+000
 0.399454E+000
 0.396981E+000
 0.394228E+000
 0.391151E+000
 0.387697E+000
 0.383802E+000
 0.379386E+000
 0.374354E+000
 0.368585E+000
 0.361928E+000
 0.354193E+000
 0.345134E+000
 0.334432E+000
 0.321668E+000
 0.306277E+000
 0.287493E+000
 0.264247E+000
 0.235015E+000
 0.197568E+000
 0.148519E+000
 0.825638E-001
-0.880022E-002
 0.416792E+000
 0.415893E+000
 0.414920E+000
 0.413865E+000
 0.412718E+000
 0.411469E+000
 0.410104E+000
 0.408609E+000
 0.406967E+000
 0.405157E+000
 0.403155E+000
 0.400934E+000
 0.398459E+000
 0.395690E+000
 0.392579E+000
 0.389066E+000
 0.385080E+000
 0.380532E+000
 0.375311E+000
 0.369277E+000
 0.362255E+000
 0.354015E+000
 0.344262E+000
 0.332603E+000
 0.318511E+000
 0.301263E+000
 0.279848E+000
 0.252819E+000
 0.218047E+000
 0.172266E+000
 0.110277E+000
 0.236130E-001
 0.418796E+000
 0.418000E+000
 0.417139E+000
 0.416204E+000
 0.415188E+000
 0.414080E+000
 0.412870E+000
 0.411543E+000
 0.410084E+000
 0.408475E+000
 0.406695E+000
 0.404717E+000
 0.402512E+000
 0.400043E+000
 0.397267E+000
 0.394128E+000
 0.390563E+000
 0.386490E+000
 0.381807E+000
 0.376389E+000
 0.370071E+000
 0.362646E+000
 0.353839E+000
 0.343287E+000
 0.330500E+000
 0.314806E+000
 0.295256E+000
 0.270489E+000
 0.238492E+000
 0.196148E+000
 0.138411E+000
 0.568911E-001
 0.420688E+000
 0.419992E+000
 0.419238E+000
 0.418419E+000
 0.417527E+000
 0.416556E+000
 0.415493E+000
 0.414327E+000
 0.413045E+000
 0.411630E+000
 0.410063E+000
 0.408321E+000
 0.406377E+000
 0.404199E+000
 0.401747E+000
 0.398972E+000
 0.395817E+000
 0.392208E+000
 0.388053E+000
 0.383238E+000
 0.377614E+000
 0.370993E+000
 0.363124E+000
 0.353674E+000
 0.342195E+000
 0.328065E+000
 0.310407E+000
 0.287950E+000
 0.258812E+000
 0.220064E+000
 0.166863E+000
 0.909471E-001
 0.422469E+000
 0.421867E+000
 0.421214E+000
 0.420505E+000
 0.419733E+000
 0.418891E+000
 0.417969E+000
 0.416958E+000
 0.415844E+000
 0.414615E+000
 0.413253E+000
 0.411738E+000
 0.410046E+000
 0.408148E+000
 0.406009E+000
 0.403587E+000
 0.400829E+000
 0.397671E+000
 0.394030E+000
 0.389804E+000
 0.384862E+000
 0.379031E+000
 0.372088E+000
 0.363732E+000
 0.353554E+000
 0.340991E+000
 0.325241E+000
 0.305132E+000
 0.278926E+000
 0.243915E+000
 0.195528E+000
 0.125695E+000
 0.424136E+000
 0.423623E+000
 0.423067E+000
 0.422462E+000
 0.421803E+000
 0.421084E+000
 0.420297E+000
 0.419433E+000
 0.418481E+000
 0.417429E+000
 0.416262E+000
 0.414964E+000
 0.413513E+000
 0.411884E+000
 0.410047E+000
 0.407965E+000
 0.405590E+000
 0.402869E+000
 0.399727E+000
 0.396075E+000
 0.391796E+000
 0.386740E+000
 0.380706E+000
 0.373429E+000
 0.364543E+000
 0.353541E+000
 0.339708E+000
 0.321977E+000
 0.298760E+000
 0.267608E+000
 0.224305E+000
 0.161050E+000
 0.425692E+000
 0.425263E+000
 0.424797E+000
 0.424291E+000
 0.423740E+000
 0.423137E+000
 0.422477E+000
 0.421752E+000
 0.420953E+000
 0.420070E+000
 0.419090E+000
 0.417998E+000
 0.416777E+000
 0.415406E+000
 0.413858E+000
 0.412101E+000
 0.410096E+000
 0.407794E+000
 0.405136E+000
 0.402038E+000
 0.398406E+000
 0.394104E+000
 0.388960E+000
 0.382744E+000
 0.375134E+000
 0.365682E+000
 0.353763E+000
 0.338431E+000
 0.318250E+000
 0.291053E+000
 0.253087E+000
 0.196930E+000
 0.427138E+000
 0.426788E+000
 0.426408E+000
 0.425994E+000
 0.425543E+000
 0.425051E+000
 0.424511E+000
 0.423917E+000
 0.423263E+000
 0.422540E+000
 0.421737E+000
 0.420841E+000
 0.419840E+000
 0.418713E+000
 0.417441E+000
 0.415995E+000
 0.414344E+000
 0.412447E+000
 0.410250E+000
 0.407692E+000
 0.404680E+000
 0.401115E+000
 0.396838E+000
 0.391658E+000
 0.385305E+000
 0.377388E+000
 0.367368E+000
 0.354448E+000
 0.337341E+000
 0.314168E+000
 0.281765E+000
 0.233254E+000
 0.428478E+000
 0.428201E+000
 0.427901E+000
 0.427574E+000
 0.427218E+000
 0.426828E+000
 0.426401E+000
 0.425932E+000
 0.425414E+000
 0.424842E+000
 0.424205E+000
 0.423496E+000
 0.422701E+000
 0.421808E+000
 0.420797E+000
 0.419650E+000
 0.418334E+000
 0.416825E+000
 0.415073E+000
 0.413028E+000
 0.410624E+000
 0.407760E+000
 0.404336E+000
 0.400159E+000
 0.395039E+000
 0.388637E+000
 0.380495E+000
 0.369982E+000
 0.355994E+000
 0.336882E+000
 0.310223E+000
 0.269942E+000
 0.429715E+000
 0.429507E+000
 0.429281E+000
 0.429035E+000
 0.428767E+000
 0.428474E+000
 0.428153E+000
 0.427800E+000
 0.427411E+000
 0.426980E+000
 0.426501E+000
 0.425966E+000
 0.425368E+000
 0.424694E+000
 0.423933E+000
 0.423064E+000
 0.422075E+000
 0.420927E+000
 0.419606E+000
 0.418051E+000
 0.416228E+000
 0.414051E+000
 0.411430E+000
 0.408258E+000
 0.404309E+000
 0.399422E+000
 0.393122E+000
 0.384994E+000
 0.374166E+000
 0.359149E+000
 0.338322E+000
 0.306917E+000
 0.430856E+000
 0.430710E+000
 0.430553E+000
 0.430382E+000
 0.430196E+000
 0.429993E+000
 0.429771E+000
 0.429527E+000
 0.429257E+000
 0.428959E+000
 0.428628E+000
 0.428259E+000
 0.427844E+000
 0.427379E+000
 0.426850E+000
 0.426251E+000
 0.425560E+000
 0.424772E+000
 0.423843E+000
 0.422775E+000
 0.421488E+000
 0.419986E+000
 0.418139E+000
 0.415921E+000
 0.413155E+000
 0.409676E+000
 0.405290E+000
 0.399410E+000
 0.391839E+000
 0.380942E+000
 0.365921E+000
 0.344066E+000
 0.431904E+000
 0.431816E+000
 0.431722E+000
 0.431620E+000
 0.431511E+000
 0.431391E+000
 0.431261E+000
 0.431118E+000
 0.430960E+000
 0.430786E+000
 0.430593E+000
 0.430378E+000
 0.430137E+000
 0.429866E+000
 0.429560E+000
 0.429209E+000
 0.428811E+000
 0.428345E+000
 0.427814E+000
 0.427175E+000
 0.426446E+000
 0.425534E+000
 0.424492E+000
 0.423136E+000
 0.421562E+000
 0.419446E+000
 0.416885E+000
 0.413375E+000
 0.408754E+000
 0.402487E+000
 0.392696E+000
 0.381348E+000
 0.432867E+000
 0.432829E+000
 0.432792E+000
 0.432755E+000
 0.432716E+000
 0.432674E+000
 0.432628E+000
 0.432580E+000
 0.432526E+000
 0.432468E+000
 0.432404E+000
 0.432333E+000
 0.432254E+000
 0.432165E+000
 0.432065E+000
 0.431953E+000
 0.431822E+000
 0.431675E+000
 0.431498E+000
 0.431300E+000
 0.431050E+000
 0.430777E+000
 0.430404E+000
 0.430012E+000
 0.429421E+000
 0.428830E+000
 0.427829E+000
 0.426878E+000
 0.425008E+000
 0.423399E+000
 0.419299E+000
 0.417344E+000
 0.433759E+000
 0.433772E+000
 0.433791E+000
 0.433814E+000
 0.433842E+000
 0.433873E+000
 0.433908E+000
 0.433948E+000
 0.433994E+000
 0.434044E+000
 0.434102E+000
 0.434166E+000
 0.434240E+000
 0.434323E+000
 0.434418E+000
 0.434527E+000
 0.434653E+000
 0.434798E+000
 0.434970E+000
 0.435166E+000
 0.435407E+000
 0.435681E+000
 0.436035E+000
 0.436431E+000
 0.436976E+000
 0.437583E+000
 0.438477E+000
 0.439483E+000
 0.441100E+000
 0.442972E+000
 0.446372E+000
 0.451188E+000
 0.434702E+000
 0.434773E+000
 0.434853E+000
 0.434942E+000
 0.435041E+000
 0.435150E+000
 0.435271E+000
 0.435406E+000
 0.435556E+000
 0.435723E+000
 0.435909E+000
 0.436118E+000
 0.436354E+000
 0.436620E+000
 0.436922E+000
 0.437268E+000
 0.437664E+000
 0.438124E+000
 0.438655E+000
 0.439283E+000
 0.440019E+000
 0.440903E+000
 0.441968E+000
 0.443261E+000
 0.444887E+000
 0.446873E+000
 0.449537E+000
 0.452797E+000
 0.457610E+000
 0.463476E+000
 0.473628E+000
 0.485938E+000
 0.435736E+000
 0.435868E+000
 0.436013E+000
 0.436173E+000
 0.436349E+000
 0.436543E+000
 0.436757E+000
 0.436993E+000
 0.437255E+000
 0.437547E+000
 0.437871E+000
 0.438235E+000
 0.438644E+000
 0.439105E+000
 0.439629E+000
 0.440225E+000
 0.440910E+000
 0.441699E+000
 0.442616E+000
 0.443692E+000
 0.444953E+000
 0.446476E+000
 0.448274E+000
 0.450527E+000
 0.453212E+000
 0.456727E+000
 0.461013E+000
 0.466873E+000
 0.474400E+000
 0.485075E+000
 0.500492E+000
 0.522395E+000
 0.436864E+000
 0.437061E+000
 0.437277E+000
 0.437513E+000
 0.437772E+000
 0.438057E+000
 0.438370E+000
 0.438715E+000
 0.439098E+000
 0.439523E+000
 0.439995E+000
 0.440524E+000
 0.441118E+000
 0.441787E+000
 0.442545E+000
 0.443407E+000
 0.444397E+000
 0.445534E+000
 0.446860E+000
 0.448397E+000
 0.450231E+000
 0.452379E+000
 0.455010E+000
 0.458147E+000
 0.462087E+000
 0.466944E+000
 0.473185E+000
 0.481289E+000
 0.492014E+000
 0.506931E+000
 0.527995E+000
 0.559008E+000
 0.438092E+000
 0.438359E+000
 0.438650E+000
 0.438967E+000
 0.439316E+000
 0.439697E+000
 0.440117E+000
 0.440579E+000
 0.441090E+000
 0.441657E+000
 0.442287E+000
 0.442992E+000
 0.443781E+000
 0.444671E+000
 0.445676E+000
 0.446822E+000
 0.448129E+000
 0.449640E+000
 0.451381E+000
 0.453428E+000
 0.455817E+000
 0.458678E+000
 0.462087E+000
 0.466246E+000
 0.471349E+000
 0.477713E+000
 0.485812E+000
 0.496280E+000
 0.510161E+000
 0.529221E+000
 0.555948E+000
 0.595596E+000
 0.439423E+000
 0.439764E+000
 0.440136E+000
 0.440541E+000
 0.440984E+000
 0.441470E+000
 0.442002E+000
 0.442589E+000
 0.443237E+000
 0.443955E+000
 0.444753E+000
 0.445643E+000
 0.446640E+000
 0.447762E+000
 0.449031E+000
 0.450471E+000
 0.452120E+000
 0.454010E+000
 0.456205E+000
 0.458755E+000
 0.461759E+000
 0.465316E+000
 0.469578E+000
 0.474742E+000
 0.481071E+000
 0.488952E+000
 0.498932E+000
 0.511791E+000
 0.528800E+000
 0.551923E+000
 0.584246E+000
 0.631998E+000
 0.440860E+000
 0.441281E+000
 0.441739E+000
 0.442238E+000
 0.442782E+000
 0.443378E+000
 0.444031E+000
 0.444750E+000
 0.445543E+000
 0.446421E+000
 0.447396E+000
 0.448483E+000
 0.449699E+000
 0.451067E+000
 0.452610E+000
 0.454364E+000
 0.456363E+000
 0.458661E+000
 0.461314E+000
 0.464404E+000
 0.468030E+000
 0.472320E+000
 0.477450E+000
 0.483648E+000
 0.491232E+000
 0.500648E+000
 0.512524E+000
 0.527787E+000
 0.547878E+000
 0.575000E+000
 0.612771E+000
 0.668106E+000
 0.442408E+000
 0.442914E+000
 0.443463E+000
 0.444060E+000
 0.444712E+000
 0.445425E+000
 0.446206E+000
 0.447065E+000
 0.448011E+000
 0.449058E+000
 0.450219E+000
 0.451513E+000
 0.452960E+000
 0.454584E+000
 0.456418E+000
 0.458496E+000
 0.460866E+000
 0.463582E+000
 0.466718E+000
 0.470364E+000
 0.474633E+000
 0.479678E+000
 0.485697E+000
 0.492954E+000
 0.501813E+000
 0.512778E+000
 0.526563E+000
 0.544221E+000
 0.567348E+000
 0.598391E+000
 0.641411E+000
 0.703822E+000
 0.444068E+000
 0.444663E+000
 0.445309E+000
 0.446011E+000
 0.446777E+000
 0.447613E+000
 0.448529E+000
 0.449535E+000
 0.450643E+000
 0.451867E+000
 0.453225E+000
 0.454736E+000
 0.456423E+000
 0.458318E+000
 0.460452E+000
 0.462870E+000
 0.465623E+000
 0.468776E+000
 0.472411E+000
 0.476629E+000
 0.481562E+000
 0.487380E+000
 0.494308E+000
 0.502642E+000
 0.512791E+000
 0.525316E+000
 0.541013E+000
 0.561046E+000
 0.587155E+000
 0.622021E+000
 0.670061E+000
 0.739050E+000
 0.445841E+000
 0.446531E+000
 0.447279E+000
 0.448091E+000
 0.448976E+000
 0.449942E+000
 0.451000E+000
 0.452160E+000
 0.453438E+000
 0.454848E+000
 0.456411E+000
 0.458148E+000
 0.460088E+000
 0.462262E+000
 0.464710E+000
 0.467480E+000
 0.470631E+000
 0.474235E+000
 0.478383E+000
 0.483190E+000
 0.488803E+000
 0.495412E+000
 0.503264E+000
 0.512690E+000
 0.524139E+000
 0.538228E+000
 0.555829E+000
 0.578206E+000
 0.607236E+000
 0.645805E+000
 0.698616E+000
 0.773699E+000
 0.447726E+000
 0.448516E+000
 0.449371E+000
 0.450299E+000
 0.451310E+000
 0.452412E+000
 0.453617E+000
 0.454939E+000
 0.456393E+000
 0.457998E+000
 0.459774E+000
 0.461748E+000
 0.463949E+000
 0.466414E+000
 0.469186E+000
 0.472320E+000
 0.475880E+000
 0.479948E+000
 0.484623E+000
 0.490033E+000
 0.496340E+000
 0.503751E+000
 0.512540E+000
 0.523068E+000
 0.535822E+000
 0.551472E+000
 0.570960E+000
 0.595643E+000
 0.627519E+000
 0.669654E+000
 0.726971E+000
 0.807678E+000
 0.449723E+000
 0.450616E+000
 0.451583E+000
 0.452632E+000
 0.453774E+000
 0.455018E+000
 0.456377E+000
 0.457867E+000
 0.459505E+000
 0.461311E+000
 0.463309E+000
 0.465526E+000
 0.467998E+000
 0.470763E+000
 0.473870E+000
 0.477378E+000
 0.481358E+000
 0.485900E+000
 0.491114E+000
 0.497139E+000
 0.504150E+000
 0.512374E+000
 0.522107E+000
 0.533740E+000
 0.547798E+000
 0.564999E+000
 0.586349E+000
 0.613286E+000
 0.647922E+000
 0.693471E+000
 0.755022E+000
 0.840895E+000
 0.451826E+000
 0.452827E+000
 0.453911E+000
 0.455086E+000
 0.456363E+000
 0.457754E+000
 0.459273E+000
 0.460938E+000
 0.462765E+000
 0.464779E+000
 0.467005E+000
 0.469474E+000
 0.472224E+000
 0.475297E+000
 0.478747E+000
 0.482637E+000
 0.487047E+000
 0.492073E+000
 0.497834E+000
 0.504481E+000
 0.512204E+000
 0.521247E+000
 0.531928E+000
 0.544665E+000
 0.560018E+000
 0.578752E+000
 0.601929E+000
 0.631062E+000
 0.668360E+000
 0.717156E+000
 0.782663E+000
 0.873261E+000
 0.454029E+000
 0.455143E+000
 0.456347E+000
 0.457652E+000
 0.459069E+000
 0.460612E+000
 0.462296E+000
 0.464139E+000
 0.466163E+000
 0.468390E+000
 0.470851E+000
 0.473578E+000
 0.476611E+000
 0.479999E+000
 0.483798E+000
 0.488079E+000
 0.492925E+000
 0.498441E+000
 0.504756E+000
 0.512030E+000
 0.520468E+000
 0.530331E+000
 0.541958E+000
 0.555791E+000
 0.572426E+000
 0.592666E+000
 0.617627E+000
 0.648887E+000
 0.688737E+000
 0.740606E+000
 0.809789E+000
 0.904684E+000
 0.456325E+000
 0.457554E+000
 0.458882E+000
 0.460320E+000
 0.461881E+000
 0.463580E+000
 0.465433E+000
 0.467460E+000
 0.469683E+000
 0.472129E+000
 0.474828E+000
 0.477818E+000
 0.481141E+000
 0.484848E+000
 0.489002E+000
 0.493677E+000
 0.498964E+000
 0.504974E+000
 0.511845E+000
 0.519748E+000
 0.528901E+000
 0.539581E+000
 0.552146E+000
 0.567064E+000
 0.584958E+000
 0.606670E+000
 0.633363E+000
 0.666671E+000
 0.708953E+000
 0.763713E+000
 0.836294E+000
 0.935075E+000
 0.458702E+000
 0.460049E+000
 0.461503E+000
 0.463078E+000
 0.464786E+000
 0.466643E+000
 0.468668E+000
 0.470881E+000
 0.473307E+000
 0.475975E+000
 0.478917E+000
 0.482172E+000
 0.485788E+000
 0.489818E+000
 0.494330E+000
 0.499401E+000
 0.505131E+000
 0.511635E+000
 0.519062E+000
 0.527592E+000
 0.537456E+000
 0.548945E+000
 0.562435E+000
 0.578417E+000
 0.597542E+000
 0.620685E+000
 0.649050E+000
 0.684318E+000
 0.728906E+000
 0.786366E+000
 0.862071E+000
 0.964347E+000
 0.461147E+000
 0.462613E+000
 0.464196E+000
 0.465908E+000
 0.467765E+000
 0.469782E+000
 0.471981E+000
 0.474383E+000
 0.477014E+000
 0.479905E+000
 0.483092E+000
 0.486615E+000
 0.490524E+000
 0.494878E+000
 0.499747E+000
 0.505215E+000
 0.511386E+000
 0.518383E+000
 0.526361E+000
 0.535512E+000
 0.546077E+000
 0.558362E+000
 0.572759E+000
 0.589780E+000
 0.610100E+000
 0.634626E+000
 0.664593E+000
 0.701727E+000
 0.748484E+000
 0.808455E+000
 0.887014E+000
 0.992413E+000
 0.463641E+000
 0.465228E+000
 0.466940E+000
 0.468791E+000
 0.470797E+000
 0.472976E+000
 0.475350E+000
 0.477941E+000
 0.480777E+000
 0.483892E+000
 0.487323E+000
 0.491113E+000
 0.495315E+000
 0.499991E+000
 0.505216E+000
 0.511078E+000
 0.517685E+000
 0.525169E+000
 0.533691E+000
 0.543452E+000
 0.554705E+000
 0.567767E+000
 0.583047E+000
 0.601075E+000
 0.622549E+000
 0.648399E+000
 0.679894E+000
 0.718791E+000
 0.767578E+000
 0.829867E+000
 0.911017E+000
 0.101919E+001
 0.466166E+000
 0.467872E+000
 0.469713E+000
 0.471703E+000
 0.473858E+000
 0.476199E+000
 0.478746E+000
 0.481525E+000
 0.484566E+000
 0.487903E+000
 0.491576E+000
 0.495630E+000
 0.500123E+000
 0.505118E+000
 0.510693E+000
 0.516942E+000
 0.523978E+000
 0.531939E+000
 0.540993E+000
 0.551350E+000
 0.563271E+000
 0.577088E+000
 0.593221E+000
 0.612218E+000
 0.634796E+000
 0.661909E+000
 0.694849E+000
 0.735400E+000
 0.786074E+000
 0.850488E+000
 0.933977E+000
 0.104459E+001
 0.468697E+000
 0.470523E+000
 0.472492E+000
 0.474618E+000
 0.476921E+000
 0.479420E+000
 0.482139E+000
 0.485104E+000
 0.488346E+000
 0.491902E+000
 0.495812E+000
 0.500127E+000
 0.504904E+000
 0.510211E+000
 0.516129E+000
 0.522756E+000
 0.530211E+000
 0.538635E+000
 0.548206E+000
 0.559139E+000
 0.571705E+000
 0.586247E+000
 0.603198E+000
 0.623121E+000
 0.646748E+000
 0.675053E+000
 0.709350E+000
 0.751442E+000
 0.803856E+000
 0.870208E+000
 0.955791E+000
 0.106854E+001
 0.471210E+000
 0.473152E+000
 0.475246E+000
 0.477507E+000
 0.479954E+000
 0.482608E+000
 0.485494E+000
 0.488641E+000
 0.492079E+000
 0.495848E+000
 0.499991E+000
 0.504559E+000
 0.509612E+000
 0.515221E+000
 0.521471E+000
 0.528464E+000
 0.536322E+000
 0.545194E+000
 0.555260E+000
 0.566746E+000
 0.579929E+000
 0.595162E+000
 0.612891E+000
 0.633689E+000
 0.658304E+000
 0.687728E+000
 0.723288E+000
 0.766804E+000
 0.820811E+000
 0.888914E+000
 0.976361E+000
 0.109097E+001
 0.473675E+000
 0.475731E+000
 0.477945E+000
 0.480336E+000
 0.482922E+000
 0.485727E+000
 0.488775E+000
 0.492097E+000
 0.495725E+000
 0.499700E+000
 0.504066E+000
 0.508877E+000
 0.514195E+000
 0.520095E+000
 0.526663E+000
 0.534006E+000
 0.542250E+000
 0.551547E+000
 0.562086E+000
 0.574096E+000
 0.587864E+000
 0.603749E+000
 0.622209E+000
 0.643827E+000
 0.669365E+000
 0.699826E+000
 0.736553E+000
 0.781374E+000
 0.836825E+000
 0.906499E+000
 0.995592E+000
 0.111180E+001
 0.476063E+000
 0.478226E+000
 0.480556E+000
 0.483070E+000
 0.485790E+000
 0.488738E+000
 0.491941E+000
 0.495430E+000
 0.499239E+000
 0.503410E+000
 0.507988E+000
 0.513031E+000
 0.518601E+000
 0.524776E+000
 0.531646E+000
 0.539320E+000
 0.547928E+000
 0.557626E+000
 0.568608E+000
 0.581110E+000
 0.595425E+000
 0.611920E+000
 0.631059E+000
 0.653438E+000
 0.679829E+000
 0.711243E+000
 0.749035E+000
 0.795039E+000
 0.851790E+000
 0.922860E+000
 0.101339E+001
 0.113096E+001
 0.478340E+000
 0.480604E+000
 0.483043E+000
 0.485674E+000
 0.488519E+000
 0.491603E+000
 0.494952E+000
 0.498597E+000
 0.502577E+000
 0.506931E+000
 0.511709E+000
 0.516968E+000
 0.522775E+000
 0.529207E+000
 0.536359E+000
 0.544341E+000
 0.553288E+000
 0.563360E+000
 0.574753E+000
 0.587711E+000
 0.602531E+000
 0.619587E+000
 0.639351E+000
 0.662426E+000
 0.689593E+000
 0.721874E+000
 0.760627E+000
 0.807692E+000
 0.865599E+000
 0.937898E+000
 0.102968E+001
 0.114840E+001
 0.480473E+000
 0.482831E+000
 0.485371E+000
 0.488110E+000
 0.491072E+000
 0.494280E+000
 0.497764E+000
 0.501555E+000
 0.505691E+000
 0.510215E+000
 0.515178E+000
 0.520637E+000
 0.526661E+000
 0.533330E+000
 0.540741E+000
 0.549006E+000
 0.558263E+000
 0.568676E+000
 0.580446E+000
 0.593819E+000
 0.609098E+000
 0.626663E+000
 0.646993E+000
 0.670697E+000
 0.698562E+000
 0.731617E+000
 0.771227E+000
 0.819231E+000
 0.878153E+000
 0.951520E+000
 0.104437E+001
 0.116405E+001
 0.482430E+000
 0.484873E+000
 0.487504E+000
 0.490342E+000
 0.493409E+000
 0.496731E+000
 0.500336E+000
 0.504259E+000
 0.508538E+000
 0.513216E+000
 0.518345E+000
 0.523984E+000
 0.530204E+000
 0.537087E+000
 0.544731E+000
 0.553251E+000
 0.562787E+000
 0.573507E+000
 0.585614E+000
 0.599358E+000
 0.615047E+000
 0.633066E+000
 0.653898E+000
 0.678159E+000
 0.706640E+000
 0.740377E+000
 0.780737E+000
 0.829559E+000
 0.889358E+000
 0.963640E+000
 0.105739E+001
 0.117786E+001
 0.484178E+000
 0.486696E+000
 0.489408E+000
 0.492332E+000
 0.495493E+000
 0.498915E+000
 0.502629E+000
 0.506668E+000
 0.511072E+000
 0.515886E+000
 0.521162E+000
 0.526961E+000
 0.533354E+000
 0.540425E+000
 0.548274E+000
 0.557018E+000
 0.566799E+000
 0.577787E+000
 0.590188E+000
 0.604257E+000
 0.620304E+000
 0.638718E+000
 0.659986E+000
 0.684729E+000
 0.713743E+000
 0.748066E+000
 0.789068E+000
 0.838588E+000
 0.899130E+000
 0.974180E+000
 0.106868E+001
 0.118978E+001
 0.485687E+000
 0.488270E+000
 0.491050E+000
 0.494049E+000
 0.497289E+000
 0.500798E+000
 0.504604E+000
 0.508743E+000
 0.513254E+000
 0.518184E+000
 0.523585E+000
 0.529520E+000
 0.536061E+000
 0.543292E+000
 0.551315E+000
 0.560250E+000
 0.570239E+000
 0.581455E+000
 0.594106E+000
 0.608450E+000
 0.624799E+000
 0.643546E+000
 0.665182E+000
 0.690330E+000
 0.719790E+000
 0.754604E+000
 0.796141E+000
 0.846239E+000
 0.907395E+000
 0.983073E+000
 0.107817E+001
 0.119979E+001
 0.486930E+000
 0.489565E+000
 0.492402E+000
 0.495462E+000
 0.498767E+000
 0.502346E+000
 0.506228E+000
 0.510448E+000
 0.515047E+000
 0.520072E+000
 0.525576E+000
 0.531621E+000
 0.538282E+000
 0.545644E+000
 0.553809E+000
 0.562899E+000
 0.573057E+000
 0.584458E+000
 0.597312E+000
 0.611878E+000
 0.628472E+000
 0.647489E+000
 0.669421E+000
 0.694895E+000
 0.724715E+000
 0.759921E+000
 0.801887E+000
 0.852445E+000
 0.914086E+000
 0.990259E+000
 0.108583E+001
 0.120783E+001
 0.487884E+000
 0.490559E+000
 0.493439E+000
 0.496545E+000
 0.499900E+000
 0.503532E+000
 0.507472E+000
 0.511755E+000
 0.516421E+000
 0.521517E+000
 0.527099E+000
 0.533229E+000
 0.539981E+000
 0.547443E+000
 0.555716E+000
 0.564923E+000
 0.575210E+000
 0.586751E+000
 0.599760E+000
 0.614494E+000
 0.631274E+000
 0.650493E+000
 0.672650E+000
 0.698370E+000
 0.728460E+000
 0.763961E+000
 0.806247E+000
 0.857149E+000
 0.919152E+000
 0.995692E+000
 0.109161E+001
 0.121389E+001
 0.488530E+000
 0.491232E+000
 0.494141E+000
 0.497279E+000
 0.500668E+000
 0.504336E+000
 0.508314E+000
 0.512639E+000
 0.517350E+000
 0.522496E+000
 0.528130E+000
 0.534317E+000
 0.541131E+000
 0.548659E+000
 0.557005E+000
 0.566291E+000
 0.576664E+000
 0.588300E+000
 0.601412E+000
 0.616260E+000
 0.633163E+000
 0.652520E+000
 0.674826E+000
 0.700711E+000
 0.730981E+000
 0.766680E+000
 0.809179E+000
 0.860310E+000
 0.922552E+000
 0.999334E+000
 0.109548E+001
 0.121794E+001
 0.488856E+000
 0.491572E+000
 0.494496E+000
 0.497649E+000
 0.501055E+000
 0.504741E+000
 0.508739E+000
 0.513085E+000
 0.517819E+000
 0.522989E+000
 0.528650E+000
 0.534865E+000
 0.541710E+000
 0.549272E+000
 0.557655E+000
 0.566981E+000
 0.577398E+000
 0.589081E+000
 0.602244E+000
 0.617149E+000
 0.634115E+000
 0.653540E+000
 0.675921E+000
 0.701889E+000
 0.732249E+000
 0.768046E+000
 0.810653E+000
 0.861897E+000
 0.924259E+000
 0.100116E+001
 0.109742E+001
 0.121997E+001
 0.488856E+000
 0.491572E+000
 0.494496E+000
 0.497649E+000
 0.501055E+000
 0.504741E+000
 0.508739E+000
 0.513085E+000
 0.517819E+000
 0.522989E+000
 0.528650E+000
 0.534865E+000
 0.541710E+000
 0.549272E+000
 0.557655E+000
 0.566981E+000
 0.577398E+000
 0.589081E+000
 0.602244E+000
 0.617149E+000
 0.634115E+000
 0.653540E+000
 0.675921E+000
 0.701889E+000
 0.732249E+000
 0.768046E+000
 0.810653E+000
 0.861897E+000
 0.924259E+000
 0.100116E+001
 0.109742E+001
 0.121997E+001
 0.488530E+000
 0.491232E+000
 0.494141E+000
 0.497279E+000
 0.500668E+000
 0.504336E+000
 0.508314E+000
 0.512639E+000
 0.517350E+000
 0.522496E+000
 0.528130E+000
 0.534317E+000
 0.541131E+000
 0.548659E+000
 0.557005E+000
 0.566291E+000
 0.576664E+000
 0.588300E+000
 0.601412E+000
 0.616260E+000
 0.633163E+000
 0.652520E+000
 0.674826E+000
 0.700711E+000
 0.730981E+000
 0.766680E+000
 0.809179E+000
 0.860310E+000
 0.922552E+000
 0.999334E+000
 0.109548E+001
 0.121794E+001
 0.487884E+000
 0.490559E+000
 0.493439E+000
 0.496545E+000
 0.499900E+000
 0.503532E+000
 0.507472E+000
 0.511755E+000
 0.516421E+000
 0.521517E+000
 0.527099E+000
 0.533229E+000
 0.539981E+000
 0.547443E+000
 0.555716E+000
 0.564923E+000
 0.575210E+000
 0.586751E+000
 0.599760E+000
 0.614494E+000
 0.631274E+000
 0.650493E+000
 0.672650E+000
 0.698370E+000
 0.728460E+000
 0.763961E+000
 0.806247E+000
 0.857149E+000
 0.919152E+000
 0.995692E+000
 0.109161E+001
 0.121389E+001
 0.486930E+000
 0.489565E+000
 0.492402E+000
 0.495462E+000
 0.498767E+000
 0.502346E+000
 0.506228E+000
 0.510448E+000
 0.515047E+000
 0.520072E+000
 0.525576E+000
 0.531621E+000
 0.538282E+000
 0.545644E+000
 0.553809E+000
 0.562899E+000
 0.573057E+000
 0.584458E+000
 0.597312E+000
 0.611878E+000
 0.628472E+000
 0.647489E+000
 0.669421E+000
 0.694895E+000
 0.724715E+000
 0.759921E+000
 0.801887E+000
 0.852445E+000
 0.914086E+000
 0.990259E+000
 0.108583E+001
 0.120783E+001
 0.485687E+000
 0.488270E+000
 0.491050E+000
 0.494049E+000
 0.497289E+000
 0.500798E+000
 0.504604E+000
 0.508743E+000
 0.513254E+000
 0.518184E+000
 0.523585E+000
 0.529520E+000
 0.536061E+000
 0.543292E+000
 0.551315E+000
 0.560250E+000
 0.570239E+000
 0.581455E+000
 0.594106E+000
 0.608450E+000
 0.624799E+000
 0.643546E+000
 0.665182E+000
 0.690330E+000
 0.719790E+000
 0.754604E+000
 0.796141E+000
 0.846239E+000
 0.907395E+000
 0.983073E+000
 0.107817E+001
 0.119979E+001
 0.484178E+000
 0.486696E+000
 0.489408E+000
 0.492332E+000
 0.495493E+000
 0.498915E+000
 0.502629E+000
 0.506668E+000
 0.511072E+000
 0.515886E+000
 0.521162E+000
 0.526961E+000
 0.533354E+000
 0.540425E+000
 0.548274E+000
 0.557018E+000
 0.566799E+000
 0.577787E+000
 0.590188E+000
 0.604257E+000
 0.620304E+000
 0.638718E+000
 0.659986E+000
 0.684729E+000
 0.713743E+000
 0.748066E+000
 0.789068E+000
 0.838588E+000
 0.899130E+000
 0.974180E+000
 0.106868E+001
 0.118978E+001
 0.482430E+000
 0.484873E+000
 0.487504E+000
 0.490342E+000
 0.493409E+000
 0.496731E+000
 0.500336E+000
 0.504259E+000
 0.508538E+000
 0.513216E+000
 0.518345E+000
 0.523984E+000
 0.530204E+000
 0.537087E+000
 0.544731E+000
 0.553251E+000
 0.562787E+000
 0.573507E+000
 0.585614E+000
 0.599358E+000
 0.615047E+000
 0.633066E+000
 0.653898E+000
 0.678159E+000
 0.706640E+000
 0.740377E+000
 0.780737E+000
 0.829559E+000
 0.889358E+000
 0.963640E+000
 0.105739E+001
 0.117786E+001
 0.480473E+000
 0.482831E+000
 0.485371E+000
 0.488110E+000
 0.491072E+000
 0.494280E+000
 0.497764E+000
 0.501555E+000
 0.505691E+000
 0.510215E+000
 0.515178E+000
 0.520637E+000
 0.526661E+000
 0.533330E+000
 0.540741E+000
 0.549006E+000
 0.558263E+000
 0.568676E+000
 0.580446E+000
 0.593819E+000
 0.609098E+000
 0.626663E+000
 0.646993E+000
 0.670697E+000
 0.698562E+000
 0.731617E+000
 0.771227E+000
 0.819231E+000
 0.878153E+000
 0.951520E+000
 0.104437E+001
 0.116405E+001
 0.478340E+000
 0.480604E+000
 0.483043E+000
 0.485674E+000
 0.488519E+000
 0.491603E+000
 0.494952E+000
 0.498597E+000
 0.502577E+000
 0.506931E+000
 0.511709E+000
 0.516968E+000
 0.522775E+000
 0.529207E+000
 0.536359E+000
 0.544341E+000
 0.553288E+000
 0.563360E+000
 0.574753E+000
 0.587711E+000
 0.602531E+000
 0.619587E+000
 0.639351E+000
 0.662426E+000
 0.689593E+000
 0.721874E+000
 0.760627E+000
 0.807692E+000
 0.865599E+000
 0.937898E+000
 0.102968E+001
 0.114840E+001
 0.476063E+000
 0.478226E+000
 0.480556E+000
 0.483070E+000
 0.485790E+000
 0.488738E+000
 0.491941E+000
 0.495430E+000
 0.499239E+000
 0.503410E+000
 0.507988E+000
 0.513031E+000
 0.518601E+000
 0.524776E+000
 0.531646E+000
 0.539320E+000
 0.547928E+000
 0.557626E+000
 0.568608E+000
 0.581110E+000
 0.595425E+000
 0.611920E+000
 0.631059E+000
 0.653438E+000
 0.679829E+000
 0.711243E+000
 0.749035E+000
 0.795039E+000
 0.851790E+000
 0.922860E+000
 0.101339E+001
 0.113096E+001
 0.473675E+000
 0.475731E+000
 0.477945E+000
 0.480336E+000
 0.482922E+000
 0.485727E+000
 0.488775E+000
 0.492097E+000
 0.495725E+000
 0.499700E+000
 0.504066E+000
 0.508877E+000
 0.514195E+000
 0.520095E+000
 0.526663E+000
 0.534006E+000
 0.542250E+000
 0.551547E+000
 0.562086E+000
 0.574096E+000
 0.587864E+000
 0.603749E+000
 0.622209E+000
 0.643827E+000
 0.669365E+000
 0.699826E+000
 0.736553E+000
 0.781374E+000
 0.836825E+000
 0.906499E+000
 0.995592E+000
 0.111180E+001
 0.471210E+000
 0.473152E+000
 0.475246E+000
 0.477507E+000
 0.479954E+000
 0.482608E+000
 0.485494E+000
 0.488641E+000
 0.492079E+000
 0.495848E+000
 0.499991E+000
 0.504559E+000
 0.509612E+000
 0.515221E+000
 0.521471E+000
 0.528464E+000
 0.536322E+000
 0.545194E+000
 0.555260E+000
 0.566746E+000
 0.579929E+000
 0.595162E+000
 0.612891E+000
 0.633689E+000
 0.658304E+000
 0.687728E+000
 0.723288E+000
 0.766804E+000
 0.820811E+000
 0.888914E+000
 0.976361E+000
 0.109097E+001
 0.468697E+000
 0.470523E+000
 0.472492E+000
 0.474618E+000
 0.476921E+000
 0.479420E+000
 0.482139E+000
 0.485104E+000
 0.488346E+000
 0.491902E+000
 0.495812E+000
 0.500127E+000
 0.504904E+000
 0.510211E+000
 0.516129E+000
 0.522756E+000
 0.530211E+000
 0.538635E+000
 0.548206E+000
 0.559139E+000
 0.571705E+000
 0.586247E+000
 0.603198E+000
 0.623121E+000
 0.646748E+000
 0.675053E+000
 0.709350E+000
 0.751442E+000
 0.803856E+000
 0.870208E+000
 0.955791E+000
 0.106854E+001
 0.466166E+000
 0.467872E+000
 0.469713E+000
 0.471703E+000
 0.473858E+000
 0.476199E+000
 0.478746E+000
 0.481525E+000
 0.484566E+000
 0.487903E+000
 0.491576E+000
 0.495630E+000
 0.500123E+000
 0.505118E+000
 0.510693E+000
 0.516942E+000
 0.523978E+000
 0.531939E+000
 0.540993E+000
 0.551350E+000
 0.563271E+000
 0.577088E+000
 0.593221E+000
 0.612218E+000
 0.634796E+000
 0.661909E+000
 0.694849E+000
 0.735400E+000
 0.786074E+000
 0.850488E+000
 0.933977E+000
 0.104459E+001
 0.463641E+000
 0.465228E+000
 0.466940E+000
 0.468791E+000
 0.470797E+000
 0.472976E+000
 0.475350E+000
 0.477941E+000
 0.480777E+000
 0.483892E+000
 0.487323E+000
 0.491113E+000
 0.495315E+000
 0.499991E+000
 0.505216E+000
 0.511078E+000
 0.517685E+000
 0.525169E+000
 0.533691E+000
 0.543452E+000
 0.554705E+000
 0.567767E+000
 0.583047E+000
 0.601075E+000
 0.622549E+000
 0.648399E+000
 0.679894E+000
 0.718791E+000
 0.767578E+000
 0.829867E+000
 0.911017E+000
 0.101919E+001
 0.461147E+000
 0.462613E+000
 0.464196E+000
 0.465908E+000
 0.467765E+000
 0.469782E+000
 0.471981E+000
 0.474383E+000
 0.477014E+000
 0.479905E+000
 0.483092E+000
 0.486615E+000
 0.490524E+000
 0.494878E+000
 0.499747E+000
 0.505215E+000
 0.511386E+000
 0.518383E+000
 0.526361E+000
 0.535512E+000
 0.546077E+000
 0.558362E+000
 0.572759E+000
 0.589780E+000
 0.610100E+000
 0.634626E+000
 0.664593E+000
 0.701727E+000
 0.748484E+000
 0.808455E+000
 0.887014E+000
 0.992413E+000
 0.458702E+000
 0.460049E+000
 0.461503E+000
 0.463078E+000
 0.464786E+000
 0.466643E+000
 0.468668E+000
 0.470881E+000
 0.473307E+000
 0.475975E+000
 0.478917E+000
 0.482172E+000
 0.485788E+000
 0.489818E+000
 0.494330E+000
 0.499401E+000
 0.505131E+000
 0.511635E+000
 0.519062E+000
 0.527592E+000
 0.537456E+000
 0.548945E+000
 0.562435E+000
 0.578417E+000
 0.597542E+000
 0.620685E+000
 0.649050E+000
 0.684318E+000
 0.728906E+000
 0.786366E+000
 0.862071E+000
 0.964347E+000
 0.456325E+000
 0.457554E+000
 0.458882E+000
 0.460320E+000
 0.461881E+000
 0.463580E+000
 0.465433E+000
 0.467460E+000
 0.469683E+000
 0.472129E+000
 0.474828E+000
 0.477818E+000
 0.481141E+000
 0.484848E+000
 0.489002E+000
 0.493677E+000
 0.498964E+000
 0.504974E+000
 0.511845E+000
 0.519748E+000
 0.528901E+000
 0.539581E+000
 0.552146E+000
 0.567064E+000
 0.584958E+000
 0.606670E+000
 0.633363E+000
 0.666671E+000
 0.708953E+000
 0.763713E+000
 0.836294E+000
 0.935075E+000
 0.454029E+000
 0.455143E+000
 0.456347E+000
 0.457652E+000
 0.459069E+000
 0.460612E+000
 0.462296E+000
 0.464139E+000
 0.466163E+000
 0.468390E+000
 0.470851E+000
 0.473578E+000
 0.476611E+000
 0.479999E+000
 0.483798E+000
 0.488079E+000
 0.492925E+000
 0.498441E+000
 0.504756E+000
 0.512030E+000
 0.520468E+000
 0.530331E+000
 0.541958E+000
 0.555791E+000
 0.572426E+000
 0.592666E+000
 0.617627E+000
 0.648887E+000
 0.688737E+000
 0.740606E+000
 0.809789E+000
 0.904684E+000
 0.451826E+000
 0.452827E+000
 0.453911E+000
 0.455086E+000
 0.456363E+000
 0.457754E+000
 0.459273E+000
 0.460938E+000
 0.462765E+000
 0.464779E+000
 0.467005E+000
 0.469474E+000
 0.472224E+000
 0.475297E+000
 0.478747E+000
 0.482637E+000
 0.487047E+000
 0.492073E+000
 0.497834E+000
 0.504481E+000
 0.512204E+000
 0.521247E+000
 0.531928E+000
 0.544665E+000
 0.560018E+000
 0.578752E+000
 0.601929E+000
 0.631062E+000
 0.668360E+000
 0.717156E+000
 0.782663E+000
 0.873261E+000
 0.449723E+000
 0.450616E+000
 0.451583E+000
 0.452632E+000
 0.453774E+000
 0.455018E+000
 0.456377E+000
 0.457867E+000
 0.459505E+000
 0.461311E+000
 0.463309E+000
 0.465526E+000
 0.467998E+000
 0.470763E+000
 0.473870E+000
 0.477378E+000
 0.481358E+000
 0.485900E+000
 0.491114E+000
 0.497139E+000
 0.504150E+000
 0.512374E+000
 0.522107E+000
 0.533740E+000
 0.547798E+000
 0.564999E+000
 0.586349E+000
 0.613286E+000
 0.647922E+000
 0.693471E+000
 0.755022E+000
 0.840895E+000
 0.447726E+000
 0.448516E+000
 0.449371E+000
 0.450299E+000
 0.451310E+000
 0.452412E+000
 0.453617E+000
 0.454939E+000
 0.456393E+000
 0.457998E+000
 0.459774E+000
 0.461748E+000
 0.463949E+000
 0.466414E+000
 0.469186E+000
 0.472320E+000
 0.475880E+000
 0.479948E+000
 0.484623E+000
 0.490033E+000
 0.496340E+000
 0.503751E+000
 0.512540E+000
 0.523068E+000
 0.535822E+000
 0.551472E+000
 0.570960E+000
 0.595643E+000
 0.627519E+000
 0.669654E+000
 0.726971E+000
 0.807678E+000
 0.445841E+000
 0.446531E+000
 0.447279E+000
 0.448091E+000
 0.448976E+000
 0.449942E+000
 0.451000E+000
 0.452160E+000
 0.453438E+000
 0.454848E+000
 0.456411E+000
 0.458148E+000
 0.460088E+000
 0.462262E+000
 0.464710E+000
 0.467480E+000
 0.470631E+000
 0.474235E+000
 0.478383E+000
 0.483190E+000
 0.488803E+000
 0.495412E+000
 0.503264E+000
 0.512690E+000
 0.524139E+000
 0.538228E+000
 0.555829E+000
 0.578206E+000
 0.607236E+000
 0.645805E+000
 0.698616E+000
 0.773699E+000
 0.444068E+000
 0.444663E+000
 0.445309E+000
 0.446011E+000
 0.446777E+000
 0.447613E+000
 0.448529E+000
 0.449535E+000
 0.450643E+000
 0.451867E+000
 0.453225E+000
 0.454736E+000
 0.456423E+000
 0.458318E+000
 0.460452E+000
 0.462870E+000
 0.465623E+000
 0.468776E+000
 0.472411E+000
 0.476629E+000
 0.481562E+000
 0.487380E+000
 0.494308E+000
 0.502642E+000
 0.512791E+000
 0.525316E+000
 0.541013E+000
 0.561046E+000
 0.587155E+000
 0.622021E+000
 0.670061E+000
 0.739050E+000
 0.442408E+000
 0.442914E+000
 0.443463E+000
 0.444060E+000
 0.444712E+000
 0.445425E+000
 0.446206E+000
 0.447065E+000
 0.448011E+000
 0.449058E+000
 0.450219E+000
 0.451513E+000
 0.452960E+000
 0.454584E+000
 0.456418E+000
 0.458496E+000
 0.460866E+000
 0.463582E+000
 0.466718E+000
 0.470364E+000
 0.474633E+000
 0.479678E+000
 0.485697E+000
 0.492954E+000
 0.501813E+000
 0.512778E+000
 0.526563E+000
 0.544221E+000
 0.567348E+000
 0.598391E+000
 0.641411E+000
 0.703822E+000
 0.440860E+000
 0.441281E+000
 0.441739E+000
 0.442238E+000
 0.442782E+000
 0.443378E+000
 0.444031E+000
 0.444750E+000
 0.445543E+000
 0.446421E+000
 0.447396E+000
 0.448483E+000
 0.449699E+000
 0.451067E+000
 0.452610E+000
 0.454364E+000
 0.456363E+000
 0.458661E+000
 0.461314E+000
 0.464404E+000
 0.468030E+000
 0.472320E+000
 0.477450E+000
 0.483648E+000
 0.491232E+000
 0.500648E+000
 0.512524E+000
 0.527787E+000
 0.547878E+000
 0.575000E+000
 0.612771E+000
 0.668106E+000
 0.439423E+000
 0.439764E+000
 0.440136E+000
 0.440541E+000
 0.440984E+000
 0.441470E+000
 0.442002E+000
 0.442589E+000
 0.443237E+000
 0.443955E+000
 0.444753E+000
 0.445643E+000
 0.446640E+000
 0.447762E+000
 0.449031E+000
 0.450471E+000
 0.452120E+000
 0.454010E+000
 0.456205E+000
 0.458755E+000
 0.461759E+000
 0.465316E+000
 0.469578E+000
 0.474742E+000
 0.481071E+000
 0.488952E+000
 0.498932E+000
 0.511791E+000
 0.528800E+000
 0.551923E+000
 0.584246E+000
 0.631998E+000
 0.438092E+000
 0.438359E+000
 0.438650E+000
 0.438967E+000
 0.439316E+000
 0.439697E+000
 0.440117E+000
 0.440579E+000
 0.441090E+000
 0.441657E+000
 0.442287E+000
 0.442992E+000
 0.443781E+000
 0.444671E+000
 0.445676E+000
 0.446822E+000
 0.448129E+000
 0.449640E+000
 0.451381E+000
 0.453428E+000
 0.455817E+000
 0.458678E+000
 0.462087E+000
 0.466246E+000
 0.471349E+000
 0.477713E+000
 0.485812E+000
 0.496280E+000
 0.510161E+000
 0.529221E+000
 0.555948E+000
 0.595596E+000
 0.436864E+000
 0.437061E+000
 0.437277E+000
 0.437513E+000
 0.437772E+000
 0.438057E+000
 0.438370E+000
 0.438715E+000
 0.439098E+000
 0.439523E+000
 0.439995E+000
 0.440524E+000
 0.441118E+000
 0.441787E+000
 0.442545E+000
 0.443407E+000
 0.444397E+000
 0.445534E+000
 0.446860E+000
 0.448397E+000
 0.450231E+000
 0.452379E+000
 0.455010E+000
 0.458147E+000
 0.462087E+000
 0.466944E+000
 0.473185E+000
 0.481289E+000
 0.492014E+000
 0.506931E+000
 0.527995E+000
 0.559008E+000
 0.435736E+000
 0.435868E+000
 0.436013E+000
 0.436173E+000
 0.436349E+000
 0.436543E+000
 0.436757E+000
 0.436993E+000
 0.437255E+000
 0.437547E+000
 0.437871E+000
 0.438235E+000
 0.438644E+000
 0.439105E+000
 0.439629E+000
 0.440225E+000
 0.440910E+000
 0.441699E+000
 0.442616E+000
 0.443692E+000
 0.444953E+000
 0.446476E+000
 0.448274E+000
 0.450527E+000
 0.453212E+000
 0.456727E+000
 0.461013E+000
 0.466873E+000
 0.474400E+000
 0.485075E+000
 0.500492E+000
 0.522395E+000
 0.434702E+000
 0.434773E+000
 0.434853E+000
 0.434942E+000
 0.435041E+000
 0.435150E+000
 0.435271E+000
 0.435406E+000
 0.435556E+000
 0.435723E+000
 0.435909E+000
 0.436118E+000
 0.436354E+000
 0.436620E+000
 0.436922E+000
 0.437268E+000
 0.437664E+000
 0.438124E+000
 0.438655E+000
 0.439283E+000
 0.440019E+000
 0.440903E+000
 0.441968E+000
 0.443261E+000
 0.444887E+000
 0.446873E+000
 0.449537E+000
 0.452797E+000
 0.457610E+000
 0.463476E+000
 0.473628E+000
 0.485938E+000
 0.433759E+000
 0.433772E+000
 0.433791E+000
 0.433814E+000
 0.433842E+000
 0.433873E+000
 0.433908E+000
 0.433948E+000
 0.433994E+000
 0.434044E+000
 0.434102E+000
 0.434166E+000
 0.434240E+000
 0.434323E+000
 0.434418E+000
 0.434527E+000
 0.434653E+000
 0.434798E+000
 0.434970E+000
 0.435166E+000
 0.435407E+000
 0.435681E+000
 0.436035E+000
 0.436431E+000
 0.436976E+000
 0.437583E+000
 0.438477E+000
 0.439483E+000
 0.441100E+000
 0.442972E+000
 0.446372E+000
 0.451188E+000
 0.432867E+000
 0.432829E+000
 0.432792E+000
 0.432755E+000
 0.432716E+000
 0.432674E+000
 0.432628E+000
 0.432580E+000
 0.432526E+000
 0.432468E+000
 0.432404E+000
 0.432333E+000
 0.432254E+000
 0.432165E+000
 0.432065E+000
 0.431953E+000
 0.431822E+000
 0.431675E+000
 0.431498E+000
 0.431300E+000
 0.431050E+000
 0.430777E+000
 0.430404E+000
 0.430012E+000
 0.429421E+000
 0.428830E+000
 0.427829E+000
 0.426878E+000
 0.425008E+000
 0.423399E+000
 0.419299E+000
 0.417344E+000
 0.431904E+000
 0.431816E+000
 0.431722E+000
 0.431620E+000
 0.431511E+000
 0.431391E+000
 0.431261E+000
 0.431118E+000
 0.430960E+000
 0.430786E+000
 0.430593E+000
 0.430378E+000
 0.430137E+000
 0.429866E+000
 0.429560E+000
 0.429209E+000
 0.428811E+000
 0.428345E+000
 0.427814E+000
 0.427175E+000
 0.426446E+000
 0.425534E+000
 0.424492E+000
 0.423136E+000
 0.421562E+000
 0.419446E+000
 0.416885E+000
 0.413375E+000
 0.408754E+000
 0.402487E+000
 0.392696E+000
 0.381348E+000
 0.430856E+000
 0.430710E+000
 0.430553E+000
 0.430382E+000
 0.430196E+000
 0.429993E+000
 0.429771E+000
 0.429527E+000
 0.429257E+000
 0.428959E+000
 0.428628E+000
 0.428259E+000
 0.427844E+000
 0.427379E+000
 0.426850E+000
 0.426251E+000
 0.425560E+000
 0.424772E+000
 0.423843E+000
 0.422775E+000
 0.421488E+000
 0.419986E+000
 0.418139E+000
 0.415921E+000
 0.413155E+000
 0.409676E+000
 0.405290E+000
 0.399410E+000
 0.391839E+000
 0.380942E+000
 0.365921E+000
 0.344066E+000
 0.429715E+000
 0.429507E+000
 0.429281E+000
 0.429035E+000
 0.428767E+000
 0.428474E+000
 0.428153E+000
 0.427800E+000
 0.427411E+000
 0.426980E+000
 0.426501E+000
 0.425966E+000
 0.425368E+000
 0.424694E+000
 0.423933E+000
 0.423064E+000
 0.422075E+000
 0.420927E+000
 0.419606E+000
 0.418051E+000
 0.416228E+000
 0.414051E+000
 0.411430E+000
 0.408258E+000
 0.404309E+000
 0.399422E+000
 0.393122E+000
 0.384994E+000
 0.374166E+000
 0.359149E+000
 0.338322E+000
 0.306917E+000
 0.428478E+000
 0.428201E+000
 0.427901E+000
 0.427574E+000
 0.427218E+000
 0.426828E+000
 0.426401E+000
 0.425932E+000
 0.425414E+000
 0.424842E+000
 0.424205E+000
 0.423496E+000
 0.422701E+000
 0.421808E+000
 0.420797E+000
 0.419650E+000
 0.418334E+000
 0.416825E+000
 0.415073E+000
 0.413028E+000
 0.410624E+000
 0.407760E+000
 0.404336E+000
 0.400159E+000
 0.395039E+000
 0.388637E+000
 0.380495E+000
 0.369982E+000
 0.355994E+000
 0.336882E+000
 0.310223E+000
 0.269942E+000
 0.427138E+000
 0.426788E+000
 0.426408E+000
 0.425994E+000
 0.425543E+000
 0.425051E+000
 0.424511E+000
 0.423917E+000
 0.423263E+000
 0.422540E+000
 0.421737E+000
 0.420841E+000
 0.419840E+000
 0.418713E+000
 0.417441E+000
 0.415995E+000
 0.414344E+000
 0.412447E+000
 0.410250E+000
 0.407692E+000
 0.404680E+000
 0.401115E+000
 0.396838E+000
 0.391658E+000
 0.385305E+000
 0.377388E+000
 0.367368E+000
 0.354448E+000
 0.337341E+000
 0.314168E+000
 0.281765E+000
 0.233254E+000
 0.425692E+000
 0.425263E+000
 0.424797E+000
 0.424291E+000
 0.423740E+000
 0.423137E+000
 0.422477E+000
 0.421752E+000
 0.420953E+000
 0.420070E+000
 0.419090E+000
 0.417998E+000
 0.416777E+000
 0.415406E+000
 0.413858E+000
 0.412101E+000
 0.410096E+000
 0.407794E+000
 0.405136E+000
 0.402038E+000
 0.398406E+000
 0.394104E+000
 0.388960E+000
 0.382744E+000
 0.375134E+000
 0.365682E+000
 0.353763E+000
 0.338431E+000
 0.318250E+000
 0.291053E+000
 0.253087E+000
 0.196930E+000
 0.424136E+000
 0.423623E+000
 0.423067E+000
 0.422462E+000
 0.421803E+000
 0.421084E+000
 0.420297E+000
 0.419433E+000
 0.418481E+000
 0.417429E+000
 0.416262E+000
 0.414964E+000
 0.413513E+000
 0.411884E+000
 0.410047E+000
 0.407965E+000
 0.405590E+000
 0.402869E+000
 0.399727E+000
 0.396075E+000
 0.391796E+000
 0.386740E+000
 0.380706E+000
 0.373429E+000
 0.364543E+000
 0.353541E+000
 0.339708E+000
 0.321977E+000
 0.298760E+000
 0.267608E+000
 0.224305E+000
 0.161050E+000
 0.422469E+000
 0.421867E+000
 0.421214E+000
 0.420505E+000
 0.419733E+000
 0.418891E+000
 0.417969E+000
 0.416958E+000
 0.415844E+000
 0.414615E+000
 0.413253E+000
 0.411738E+000
 0.410046E+000
 0.408148E+000
 0.406009E+000
 0.403587E+000
 0.400829E+000
 0.397671E+000
 0.394030E+000
 0.389804E+000
 0.384862E+000
 0.379031E+000
 0.372088E+000
 0.363732E+000
 0.353554E+000
 0.340991E+000
 0.325241E+000
 0.305132E+000
 0.278926E+000
 0.243915E+000
 0.195528E+000
 0.125695E+000
 0.420688E+000
 0.419992E+000
 0.419238E+000
 0.418419E+000
 0.417527E+000
 0.416556E+000
 0.415493E+000
 0.414327E+000
 0.413045E+000
 0.411630E+000
 0.410063E+000
 0.408321E+000
 0.406377E+000
 0.404199E+000
 0.401747E+000
 0.398972E+000
 0.395817E+000
 0.392208E+000
 0.388053E+000
 0.383238E+000
 0.377614E+000
 0.370993E+000
 0.363124E+000
 0.353674E+000
 0.342195E+000
 0.328065E+000
 0.310407E+000
 0.287950E+000
 0.258812E+000
 0.220064E+000
 0.166863E+000
 0.909471E-001
 0.418796E+000
 0.418000E+000
 0.417139E+000
 0.416204E+000
 0.415188E+000
 0.414080E+000
 0.412870E+000
 0.411543E+000
 0.410084E+000
 0.408475E+000
 0.406695E+000
 0.404717E+000
 0.402512E+000
 0.400043E+000
 0.397267E+000
 0.394128E+000
 0.390563E+000
 0.386490E+000
 0.381807E+000
 0.376389E+000
 0.370071E+000
 0.362646E+000
 0.353839E+000
 0.343287E+000
 0.330500E+000
 0.314806E+000
 0.295256E+000
 0.270489E+000
 0.238492E+000
 0.196148E+000
 0.138411E+000
 0.568911E-001
 0.416792E+000
 0.415893E+000
 0.414920E+000
 0.413865E+000
 0.412718E+000
 0.411469E+000
 0.410104E+000
 0.408609E+000
 0.406967E+000
 0.405157E+000
 0.403155E+000
 0.400934E+000
 0.398459E+000
 0.395690E+000
 0.392579E+000
 0.389066E+000
 0.385080E+000
 0.380532E+000
 0.375311E+000
 0.369277E+000
 0.362255E+000
 0.354015E+000
 0.344262E+000
 0.332603E+000
 0.318511E+000
 0.301263E+000
 0.279848E+000
 0.252819E+000
 0.218047E+000
 0.172266E+000
 0.110277E+000
 0.236130E-001
 0.414682E+000
 0.413674E+000
 0.412585E+000
 0.411405E+000
 0.410122E+000
 0.408726E+000
 0.407202E+000
 0.405534E+000
 0.403702E+000
 0.401684E+000
 0.399454E+000
 0.396981E+000
 0.394228E+000
 0.391151E+000
 0.387697E+000
 0.383802E+000
 0.379386E+000
 0.374354E+000
 0.368585E+000
 0.361928E+000
 0.354193E+000
 0.345134E+000
 0.334432E+000
 0.321668E+000
 0.306277E+000
 0.287493E+000
 0.264247E+000
 0.235015E+000
 0.197568E+000
 0.148519E+000
 0.825638E-001
-0.880022E-002
 0.412471E+000
 0.411351E+000
 0.410142E+000
 0.408832E+000
 0.407410E+000
 0.405862E+000
 0.404173E+000
 0.402326E+000
 0.400299E+000
 0.398068E+000
 0.395604E+000
 0.392873E+000
 0.389836E+000
 0.386444E+000
 0.382640E+000
 0.378355E+000
 0.373503E+000
 0.367980E+000
 0.361657E+000
 0.354372E+000
 0.345921E+000
 0.336040E+000
 0.324392E+000
 0.310529E+000
 0.293855E+000
 0.273561E+000
 0.248526E+000
 0.217160E+000
 0.177149E+000
 0.125013E+000
 0.553759E-001
-0.402613E-001
 0.410167E+000
 0.408932E+000
 0.407599E+000
 0.406156E+000
 0.404591E+000
 0.402888E+000
 0.401031E+000
 0.399000E+000
 0.396773E+000
 0.394324E+000
 0.391621E+000
 0.388628E+000
 0.385301E+000
 0.381590E+000
 0.377432E+000
 0.372751E+000
 0.367459E+000
 0.361441E+000
 0.354562E+000
 0.346647E+000
 0.337479E+000
 0.326781E+000
 0.314193E+000
 0.299244E+000
 0.281308E+000
 0.259538E+000
 0.232767E+000
 0.199345E+000
 0.156890E+000
 0.101854E+000
 0.288182E-001
-0.706830E-001
 0.407781E+000
 0.406430E+000
 0.404970E+000
 0.403391E+000
 0.401679E+000
 0.399818E+000
 0.397789E+000
 0.395573E+000
 0.393143E+000
 0.390472E+000
 0.387527E+000
 0.384268E+000
 0.380649E+000
 0.376615E+000
 0.372099E+000
 0.367022E+000
 0.361286E+000
 0.354774E+000
 0.347338E+000
 0.338795E+000
 0.328916E+000
 0.317408E+000
 0.303893E+000
 0.287877E+000
 0.268708E+000
 0.245504E+000
 0.217056E+000
 0.181667E+000
 0.136898E+000
 0.791527E-001
 0.299611E-002
-0.999792E-001
 0.405329E+000
 0.403857E+000
 0.402270E+000
 0.400554E+000
 0.398693E+000
 0.396672E+000
 0.394470E+000
 0.392065E+000
 0.389430E+000
 0.386536E+000
 0.383347E+000
 0.379821E+000
 0.375908E+000
 0.371550E+000
 0.366676E+000
 0.361202E+000
 0.355025E+000
 0.348020E+000
 0.340031E+000
 0.330868E+000
 0.320286E+000
 0.307981E+000
 0.293557E+000
 0.276500E+000
 0.256133E+000
 0.231544E+000
 0.201489E+000
 0.164228E+000
 0.117282E+000
 0.570211E-001
-0.219852E-001
-0.128065E+000
 0.402825E+000
 0.401234E+000
 0.399518E+000
 0.397663E+000
 0.395654E+000
 0.393471E+000
 0.391095E+000
 0.388501E+000
 0.385661E+000
 0.382544E+000
 0.379111E+000
 0.375317E+000
 0.371111E+000
 0.366431E+000
 0.361201E+000
 0.355334E+000
 0.348720E+000
 0.341227E+000
 0.332694E+000
 0.322919E+000
 0.311650E+000
 0.298566E+000
 0.283257E+000
 0.265191E+000
 0.243669E+000
 0.217751E+000
 0.186163E+000
 0.147135E+000
 0.981524E-001
 0.355713E-001
-0.460214E-001
-0.154856E+000
 0.400291E+000
 0.398580E+000
 0.396736E+000
 0.394743E+000
 0.392585E+000
 0.390242E+000
 0.387692E+000
 0.384910E+000
 0.381867E+000
 0.378527E+000
 0.374852E+000
 0.370794E+000
 0.366298E+000
 0.361299E+000
 0.355719E+000
 0.349464E+000
 0.342420E+000
 0.334450E+000
 0.325385E+000
 0.315013E+000
 0.303074E+000
 0.289234E+000
 0.273071E+000
 0.254034E+000
 0.231405E+000
 0.204222E+000
 0.171185E+000
 0.130497E+000
 0.796246E-001
 0.149161E-001
-0.690092E-001
-0.180273E+000
 0.397750E+000
 0.395920E+000
 0.393949E+000
 0.391820E+000
 0.389515E+000
 0.387014E+000
 0.384293E+000
 0.381326E+000
 0.378081E+000
 0.374523E+000
 0.370610E+000
 0.366292E+000
 0.361512E+000
 0.356201E+000
 0.350277E+000
 0.343643E+000
 0.336181E+000
 0.327747E+000
 0.318165E+000
 0.307217E+000
 0.294631E+000
 0.280065E+000
 0.263082E+000
 0.243118E+000
 0.219437E+000
 0.191058E+000
 0.156661E+000
 0.114428E+000
 0.618127E-001
-0.483283E-002
-0.908477E-001
-0.204236E+000
 0.395227E+000
 0.393282E+000
 0.391186E+000
 0.388924E+000
 0.386475E+000
 0.383819E+000
 0.380931E+000
 0.377783E+000
 0.374342E+000
 0.370571E+000
 0.366426E+000
 0.361855E+000
 0.356799E+000
 0.351185E+000
 0.344929E+000
 0.337929E+000
 0.330063E+000
 0.321182E+000
 0.311103E+000
 0.299601E+000
 0.286397E+000
 0.271139E+000
 0.253377E+000
 0.232536E+000
 0.207864E+000
 0.178365E+000
 0.142701E+000
 0.990411E-001
 0.448311E-001
-0.235652E-001
-0.111438E+000
-0.226671E+000
 0.392751E+000
 0.390694E+000
 0.388479E+000
 0.386087E+000
 0.383499E+000
 0.380694E+000
 0.377644E+000
 0.374321E+000
 0.370691E+000
 0.366714E+000
 0.362346E+000
 0.357532E+000
 0.352210E+000
 0.346306E+000
 0.339731E+000
 0.332382E+000
 0.324129E+000
 0.314821E+000
 0.304270E+000
 0.292243E+000
 0.278454E+000
 0.262542E+000
 0.244048E+000
 0.222385E+000
 0.196788E+000
 0.166248E+000
 0.129416E+000
 0.844491E-001
 0.287924E-001
-0.411736E-001
-0.130687E+000
-0.247507E+000
 0.390354E+000
 0.388190E+000
 0.385860E+000
 0.383345E+000
 0.380624E+000
 0.377675E+000
 0.374472E+000
 0.370982E+000
 0.367171E+000
 0.362999E+000
 0.358418E+000
 0.353373E+000
 0.347799E+000
 0.341619E+000
 0.334743E+000
 0.327062E+000
 0.318446E+000
 0.308736E+000
 0.297740E+000
 0.285221E+000
 0.270884E+000
 0.254361E+000
 0.235186E+000
 0.212760E+000
 0.186310E+000
 0.154815E+000
 0.116915E+000
 0.707632E-001
 0.138063E-001
-0.575546E-001
-0.148502E+000
-0.266677E+000
 0.388067E+000
 0.385802E+000
 0.383364E+000
 0.380733E+000
 0.377888E+000
 0.374805E+000
 0.371455E+000
 0.367809E+000
 0.363829E+000
 0.359473E+000
 0.354693E+000
 0.349431E+000
 0.343621E+000
 0.337183E+000
 0.330026E+000
 0.322036E+000
 0.313080E+000
 0.302997E+000
 0.291588E+000
 0.278613E+000
 0.263770E+000
 0.246685E+000
 0.226884E+000
 0.203760E+000
 0.176531E+000
 0.144169E+000
 0.105306E+000
 0.580913E-001
-0.216608E-004
-0.726095E-001
-0.164800E+000
-0.284117E+000
 0.385923E+000
 0.383566E+000
 0.381028E+000
 0.378290E+000
 0.375329E+000
 0.372121E+000
 0.368638E+000
 0.364846E+000
 0.360709E+000
 0.356184E+000
 0.351219E+000
 0.345758E+000
 0.339730E+000
 0.333056E+000
 0.325639E+000
 0.317366E+000
 0.308099E+000
 0.297674E+000
 0.285889E+000
 0.272498E+000
 0.257195E+000
 0.239599E+000
 0.219232E+000
 0.195479E+000
 0.167550E+000
 0.134412E+000
 0.946907E-001
 0.465362E-001
-0.125917E-001
-0.862459E-001
-0.179500E+000
-0.299772E+000
 0.383957E+000
 0.381516E+000
 0.378888E+000
 0.376052E+000
 0.372986E+000
 0.369665E+000
 0.366060E+000
 0.362137E+000
 0.357858E+000
 0.353179E+000
 0.348048E+000
 0.342406E+000
 0.336182E+000
 0.329294E+000
 0.321644E+000
 0.313116E+000
 0.303570E+000
 0.292838E+000
 0.280715E+000
 0.266952E+000
 0.251238E+000
 0.233188E+000
 0.212317E+000
 0.188007E+000
 0.159460E+000
 0.125639E+000
 0.851669E-001
 0.361941E-001
-0.238111E-001
-0.983781E-001
-0.192531E+000
-0.313587E+000
 0.382201E+000
 0.379686E+000
 0.376977E+000
 0.374055E+000
 0.370897E+000
 0.367476E+000
 0.363763E+000
 0.359724E+000
 0.355320E+000
 0.350505E+000
 0.345228E+000
 0.339426E+000
 0.333029E+000
 0.325953E+000
 0.318098E+000
 0.309346E+000
 0.299554E+000
 0.288554E+000
 0.276136E+000
 0.262047E+000
 0.245975E+000
 0.227530E+000
 0.206222E+000
 0.181428E+000
 0.152348E+000
 0.117939E+000
 0.768236E-001
 0.271531E-001
-0.335952E-001
-0.108929E+000
-0.203827E+000
-0.325518E+000
 0.380684E+000
 0.378106E+000
 0.375329E+000
 0.372333E+000
 0.369096E+000
 0.365589E+000
 0.361784E+000
 0.357646E+000
 0.353134E+000
 0.348204E+000
 0.342801E+000
 0.336863E+000
 0.330319E+000
 0.323083E+000
 0.315053E+000
 0.306110E+000
 0.296110E+000
 0.284881E+000
 0.272213E+000
 0.257849E+000
 0.241474E+000
 0.222695E+000
 0.201019E+000
 0.175819E+000
 0.146292E+000
 0.111392E+000
 0.697408E-001
 0.194918E-001
-0.418690E-001
-0.117830E+000
-0.213330E+000
-0.335523E+000
 0.379435E+000
 0.376805E+000
 0.373972E+000
 0.370916E+000
 0.367614E+000
 0.364038E+000
 0.360157E+000
 0.355938E+000
 0.351339E+000
 0.346313E+000
 0.340808E+000
 0.334760E+000
 0.328095E+000
 0.320728E+000
 0.312556E+000
 0.303458E+000
 0.293289E+000
 0.281875E+000
 0.269003E+000
 0.254417E+000
 0.237797E+000
 0.218748E+000
 0.196774E+000
 0.171247E+000
 0.141361E+000
 0.106067E+000
 0.639877E-001
 0.132781E-001
-0.485682E-001
-0.125023E+000
-0.220992E+000
-0.343569E+000
 0.378476E+000
 0.375807E+000
 0.372932E+000
 0.369830E+000
 0.366478E+000
 0.362848E+000
 0.358911E+000
 0.354629E+000
 0.349963E+000
 0.344866E+000
 0.339283E+000
 0.333150E+000
 0.326394E+000
 0.318927E+000
 0.310647E+000
 0.301431E+000
 0.291134E+000
 0.279579E+000
 0.266553E+000
 0.251798E+000
 0.234992E+000
 0.215739E+000
 0.193541E+000
 0.167768E+000
 0.137611E+000
 0.102022E+000
 0.596213E-001
 0.856771E-002
-0.536398E-001
-0.130460E+000
-0.226774E+000
-0.349628E+000
 0.377827E+000
 0.375131E+000
 0.372227E+000
 0.369094E+000
 0.365709E+000
 0.362043E+000
 0.358067E+000
 0.353743E+000
 0.349032E+000
 0.343886E+000
 0.338250E+000
 0.332061E+000
 0.325243E+000
 0.317710E+000
 0.309357E+000
 0.300062E+000
 0.289678E+000
 0.278028E+000
 0.264899E+000
 0.250030E+000
 0.233100E+000
 0.213710E+000
 0.191362E+000
 0.165424E+000
 0.135086E+000
 0.992996E-001
 0.566855E-001
 0.540328E-002
-0.570437E-001
-0.134105E+000
-0.230645E+000
-0.353678E+000
 0.377499E+000
 0.374789E+000
 0.371871E+000
 0.368723E+000
 0.365320E+000
 0.361637E+000
 0.357641E+000
 0.353296E+000
 0.348563E+000
 0.343392E+000
 0.337730E+000
 0.331512E+000
 0.324663E+000
 0.317096E+000
 0.308706E+000
 0.299371E+000
 0.288944E+000
 0.277246E+000
 0.264066E+000
 0.249140E+000
 0.232147E+000
 0.212689E+000
 0.190265E+000
 0.164244E+000
 0.133816E+000
 0.979310E-001
 0.552101E-001
 0.381378E-002
-0.587525E-001
-0.135934E+000
-0.232586E+000
-0.355707E+000
 0.377499E+000
 0.374789E+000
 0.371871E+000
 0.368723E+000
 0.365320E+000
 0.361637E+000
 0.357641E+000
 0.353296E+000
 0.348563E+000
 0.343392E+000
 0.337730E+000
 0.331512E+000
 0.324663E+000
 0.317096E+000
 0.308706E+000
 0.299371E+000
 0.288944E+000
 0.277246E+000
 0.264066E+000
 0.249140E+000
 0.232147E+000
 0.212689E+000
 0.190265E+000
 0.164244E+000
 0.133816E+000
 0.979310E-001
 0.552101E-001
 0.381378E-002
-0.587525E-001
-0.135934E+000
-0.232586E+000
-0.355707E+000
 0.377827E+000
 0.375131E+000
 0.372227E+000
 0.369094E+000
 0.365709E+000
 0.362043E+000
 0.358067E+000
 0.353743E+000
 0.349032E+000
 0.343886E+000
 0.338250E+000
 0.332061E+000
 0.325243E+000
 0.317710E+000
 0.309357E+000
 0.300062E+000
 0.289678E+000
 0.278028E+000
 0.264899E+000
 0.250030E+000
 0.233100E+000
 0.213710E+000
 0.191362E+000
 0.165424E+000
 0.135086E+000
 0.992996E-001
 0.566855E-001
 0.540328E-002
-0.570437E-001
-0.134105E+000
-0.230645E+000
-0.353678E+000
 0.378476E+000
 0.375807E+000
 0.372932E+000
 0.369830E+000
 0.366478E+000
 0.362848E+000
 0.358911E+000
 0.354629E+000
 0.349963E+000
 0.344866E+000
 0.339283E+000
 0.333150E+000
 0.326394E+000
 0.318927E+000
 0.310647E+000
 0.301431E+000
 0.291134E+000
 0.279579E+000
 0.266553E+000
 0.251798E+000
 0.234992E+000
 0.215739E+000
 0.193541E+000
 0.167768E+000
 0.137611E+000
 0.102022E+000
 0.596213E-001
 0.856771E-002
-0.536398E-001
-0.130460E+000
-0.226774E+000
-0.349628E+000
 0.379435E+000
 0.376805E+000
 0.373972E+000
 0.370916E+000
 0.367614E+000
 0.364038E+000
 0.360157E+000
 0.355938E+000
 0.351339E+000
 0.346313E+000
 0.340808E+000
 0.334760E+000
 0.328095E+000
 0.320728E+000
 0.312556E+000
 0.303458E+000
 0.293289E+000
 0.281875E+000
 0.269003E+000
 0.254417E+000
 0.237797E+000
 0.218748E+000
 0.196774E+000
 0.171247E+000
 0.141361E+000
 0.106067E+000
 0.639877E-001
 0.132781E-001
-0.485682E-001
-0.125023E+000
-0.220992E+000
-0.343569E+000
 0.380684E+000
 0.378106E+000
 0.375329E+000
 0.372333E+000
 0.369096E+000
 0.365589E+000
 0.361784E+000
 0.357646E+000
 0.353134E+000
 0.348204E+000
 0.342801E+000
 0.336863E+000
 0.330319E+000
 0.323083E+000
 0.315053E+000
 0.306110E+000
 0.296110E+000
 0.284881E+000
 0.272213E+000
 0.257849E+000
 0.241474E+000
 0.222695E+000
 0.201019E+000
 0.175819E+000
 0.146292E+000
 0.111392E+000
 0.697408E-001
 0.194918E-001
-0.418690E-001
-0.117830E+000
-0.213330E+000
-0.335523E+000
 0.382201E+000
 0.379686E+000
 0.376977E+000
 0.374055E+000
 0.370897E+000
 0.367476E+000
 0.363763E+000
 0.359724E+000
 0.355320E+000
 0.350505E+000
 0.345228E+000
 0.339426E+000
 0.333029E+000
 0.325953E+000
 0.318098E+000
 0.309346E+000
 0.299554E+000
 0.288554E+000
 0.276136E+000
 0.262047E+000
 0.245975E+000
 0.227530E+000
 0.206222E+000
 0.181428E+000
 0.152348E+000
 0.117939E+000
 0.768236E-001
 0.271531E-001
-0.335952E-001
-0.108929E+000
-0.203827E+000
-0.325518E+000
 0.383957E+000
 0.381516E+000
 0.378888E+000
 0.376052E+000
 0.372986E+000
 0.369665E+000
 0.366060E+000
 0.362137E+000
 0.357858E+000
 0.353179E+000
 0.348048E+000
 0.342406E+000
 0.336182E+000
 0.329294E+000
 0.321644E+000
 0.313116E+000
 0.303570E+000
 0.292838E+000
 0.280715E+000
 0.266952E+000
 0.251238E+000
 0.233188E+000
 0.212317E+000
 0.188007E+000
 0.159460E+000
 0.125639E+000
 0.851669E-001
 0.361941E-001
-0.238111E-001
-0.983781E-001
-0.192531E+000
-0.313587E+000
 0.385923E+000
 0.383566E+000
 0.381028E+000
 0.378290E+000
 0.375329E+000
 0.372121E+000
 0.368638E+000
 0.364846E+000
 0.360709E+000
 0.356184E+000
 0.351219E+000
 0.345758E+000
 0.339730E+000
 0.333056E+000
 0.325639E+000
 0.317366E+000
 0.308099E+000
 0.297674E+000
 0.285889E+000
 0.272498E+000
 0.257195E+000
 0.239599E+000
 0.219232E+000
 0.195479E+000
 0.167550E+000
 0.134412E+000
 0.946907E-001
 0.465362E-001
-0.125917E-001
-0.862459E-001
-0.179500E+000
-0.299772E+000
 0.388067E+000
 0.385802E+000
 0.383364E+000
 0.380733E+000
 0.377888E+000
 0.374805E+000
 0.371455E+000
 0.367809E+000
 0.363829E+000
 0.359473E+000
 0.354693E+000
 0.349431E+000
 0.343621E+000
 0.337183E+000
 0.330026E+000
 0.322036E+000
 0.313080E+000
 0.302997E+000
 0.291588E+000
 0.278613E+000
 0.263770E+000
 0.246685E+000
 0.226884E+000
 0.203760E+000
 0.176531E+000
 0.144169E+000
 0.105306E+000
 0.580913E-001
-0.216608E-004
-0.726095E-001
-0.164800E+000
-0.284117E+000
 0.390354E+000
 0.388190E+000
 0.385860E+000
 0.383345E+000
 0.380624E+000
 0.377675E+000
 0.374472E+000
 0.370982E+000
 0.367171E+000
 0.362999E+000
 0.358418E+000
 0.353373E+000
 0.347799E+000
 0.341619E+000
 0.334743E+000
 0.327062E+000
 0.318446E+000
 0.308736E+000
 0.297740E+000
 0.285221E+000
 0.270884E+000
 0.254361E+000
 0.235186E+000
 0.212760E+000
 0.186310E+000
 0.154815E+000
 0.116915E+000
 0.707632E-001
 0.138063E-001
-0.575546E-001
-0.148502E+000
-0.266677E+000
 0.392751E+000
 0.390694E+000
 0.388479E+000
 0.386087E+000
 0.383499E+000
 0.380694E+000
 0.377644E+000
 0.374321E+000
 0.370691E+000
 0.366714E+000
 0.362346E+000
 0.357532E+000
 0.352210E+000
 0.346306E+000
 0.339731E+000
 0.332382E+000
 0.324129E+000
 0.314821E+000
 0.304270E+000
 0.292243E+000
 0.278454E+000
 0.262542E+000
 0.244048E+000
 0.222385E+000
 0.196788E+000
 0.166248E+000
 0.129416E+000
 0.844491E-001
 0.287924E-001
-0.411736E-001
-0.130687E+000
-0.247507E+000
 0.395227E+000
 0.393282E+000
 0.391186E+000
 0.388924E+000
 0.386475E+000
 0.383819E+000
 0.380931E+000
 0.377783E+000
 0.374342E+000
 0.370571E+000
 0.366426E+000
 0.361855E+000
 0.356799E+000
 0.351185E+000
 0.344929E+000
 0.337929E+000
 0.330063E+000
 0.321182E+000
 0.311103E+000
 0.299601E+000
 0.286397E+000
 0.271139E+000
 0.253377E+000
 0.232536E+000
 0.207864E+000
 0.178365E+000
 0.142701E+000
 0.990411E-001
 0.448311E-001
-0.235652E-001
-0.111438E+000
-0.226671E+000
 0.397750E+000
 0.395920E+000
 0.393949E+000
 0.391820E+000
 0.389515E+000
 0.387014E+000
 0.384293E+000
 0.381326E+000
 0.378081E+000
 0.374523E+000
 0.370610E+000
 0.366292E+000
 0.361512E+000
 0.356201E+000
 0.350277E+000
 0.343643E+000
 0.336181E+000
 0.327747E+000
 0.318165E+000
 0.307217E+000
 0.294631E+000
 0.280065E+000
 0.263082E+000
 0.243118E+000
 0.219437E+000
 0.191058E+000
 0.156661E+000
 0.114428E+000
 0.618127E-001
-0.483283E-002
-0.908477E-001
-0.204236E+000
 0.400291E+000
 0.398580E+000
 0.396736E+000
 0.394743E+000
 0.392585E+000
 0.390242E+000
 0.387692E+000
 0.384910E+000
 0.381867E+000
 0.378527E+000
 0.374852E+000
 0.370794E+000
 0.366298E+000
 0.361299E+000
 0.355719E+000
 0.349464E+000
 0.342420E+000
 0.334450E+000
 0.325385E+000
 0.315013E+000
 0.303074E+000
 0.289234E+000
 0.273071E+000
 0.254034E+000
 0.231405E+000
 0.204222E+000
 0.171185E+000
 0.130497E+000
 0.796246E-001
 0.149161E-001
-0.690092E-001
-0.180273E+000
 0.402825E+000
 0.401234E+000
 0.399518E+000
 0.397663E+000
 0.395654E+000
 0.393471E+000
 0.391095E+000
 0.388501E+000
 0.385661E+000
 0.382544E+000
 0.379111E+000
 0.375317E+000
 0.371111E+000
 0.366431E+000
 0.361201E+000
 0.355334E+000
 0.348720E+000
 0.341227E+000
 0.332694E+000
 0.322919E+000
 0.311650E+000
 0.298566E+000
 0.283257E+000
 0.265191E+000
 0.243669E+000
 0.217751E+000
 0.186163E+000
 0.147135E+000
 0.981524E-001
 0.355713E-001
-0.460214E-001
-0.154856E+000
 0.405329E+000
 0.403857E+000
 0.402270E+000
 0.400554E+000
 0.398693E+000
 0.396672E+000
 0.394470E+000
 0.392065E+000
 0.389430E+000
 0.386536E+000
 0.383347E+000
 0.379821E+000
 0.375908E+000
 0.371550E+000
 0.366676E+000
 0.361202E+000
 0.355025E+000
 0.348020E+000
 0.340031E+000
 0.330868E+000
 0.320286E+000
 0.307981E+000
 0.293557E+000
 0.276500E+000
 0.256133E+000
 0.231544E+000
 0.201489E+000
 0.164228E+000
 0.117282E+000
 0.570211E-001
-0.219852E-001
-0.128065E+000
 0.407781E+000
 0.406430E+000
 0.404970E+000
 0.403391E+000
 0.401679E+000
 0.399818E+000
 0.397789E+000
 0.395573E+000
 0.393143E+000
 0.390472E+000
 0.387527E+000
 0.384268E+000
 0.380649E+000
 0.376615E+000
 0.372099E+000
 0.367022E+000
 0.361286E+000
 0.354774E+000
 0.347338E+000
 0.338795E+000
 0.328916E+000
 0.317408E+000
 0.303893E+000
 0.287877E+000
 0.268708E+000
 0.245504E+000
 0.217056E+000
 0.181667E+000
 0.136898E+000
 0.791527E-001
 0.299611E-002
-0.999792E-001
 0.410167E+000
 0.408932E+000
 0.407599E+000
 0.406156E+000
 0.404591E+000
 0.402888E+000
 0.401031E+000
 0.399000E+000
 0.396773E+000
 0.394324E+000
 0.391621E+000
 0.388628E+000
 0.385301E+000
 0.381590E+000
 0.377432E+000
 0.372751E+000
 0.367459E+000
 0.361441E+000
 0.354562E+000
 0.346647E+000
 0.337479E+000
 0.326781E+000
 0.314193E+000
 0.299244E+000
 0.281308E+000
 0.259538E+000
 0.232767E+000
 0.199345E+000
 0.156890E+000
 0.101854E+000
 0.288182E-001
-0.706830E-001
 0.412471E+000
 0.411351E+000
 0.410142E+000
 0.408832E+000
 0.407410E+000
 0.405862E+000
 0.404173E+000
 0.402326E+000
 0.400299E+000
 0.398068E+000
 0.395604E+000
 0.392873E+000
 0.389836E+000
 0.386444E+000
 0.382640E+000
 0.378355E+000
 0.373503E+000
 0.367980E+000
 0.361657E+000
 0.354372E+000
 0.345921E+000
 0.336040E+000
 0.324392E+000
 0.310529E+000
 0.293855E+000
 0.273561E+000
 0.248526E+000
 0.217160E+000
 0.177149E+000
 0.125013E+000
 0.553759E-001
-0.402613E-001
 0.414682E+000
 0.413674E+000
 0.412585E+000
 0.411405E+000
 0.410122E+000
 0.408726E+000
 0.407202E+000
 0.405534E+000
 0.403702E+000
 0.401684E+000
 0.399454E+000
 0.396981E+000
 0.394228E+000
 0.391151E+000
 0.387697E+000
 0.383802E+000
 0.379386E+000
 0.374354E+000
 0.368585E+000
 0.361928E+000
 0.354193E+000
 0.345134E+000
 0.334432E+000
 0.321668E+000
 0.306277E+000
 0.287493E+000
 0.264247E+000
 0.235015E+000
 0.197568E+000
 0.148519E+000
 0.825638E-001
-0.880022E-002
 0.416792E+000
 0.415893E+000
 0.414920E+000
 0.413865E+000
 0.412718E+000
 0.411469E+000
 0.410104E+000
 0.408609E+000
 0.406967E+000
 0.405157E+000
 0.403155E+000
 0.400934E+000
 0.398459E+000
 0.395690E+000
 0.392579E+000
 0.389066E+000
 0.385080E+000
 0.380532E+000
 0.375311E+000
 0.369277E+000
 0.362255E+000
 0.354015E+000
 0.344262E+000
 0.332603E+000
 0.318511E+000
 0.301263E+000
 0.279848E+000
 0.252819E+000
 0.218047E+000
 0.172266E+000
 0.110277E+000
 0.236130E-001
 0.418796E+000
 0.418000E+000
 0.417139E+000
 0.416204E+000
 0.415188E+000
 0.414080E+000
 0.412870E+000
 0.411543E+000
 0.410084E+000
 0.408475E+000
 0.406695E+000
 0.404717E+000
 0.402512E+000
 0.400043E+000
 0.397267E+000
 0.394128E+000
 0.390563E+000
 0.386490E+000
 0.381807E+000
 0.376389E+000
 0.370071E+000
 0.362646E+000
 0.353839E+000
 0.343287E+000
 0.330500E+000
 0.314806E+000
 0.295256E+000
 0.270489E+000
 0.238492E+000
 0.196148E+000
 0.138411E+000
 0.568911E-001
 0.420688E+000
 0.419992E+000
 0.419238E+000
 0.418419E+000
 0.417527E+000
 0.416556E+000
 0.415493E+000
 0.414327E+000
 0.413045E+000
 0.411630E+000
 0.410063E+000
 0.408321E+000
 0.406377E+000
 0.404199E+000
 0.401747E+000
 0.398972E+000
 0.395817E+000
 0.392208E+000
 0.388053E+000
 0.383238E+000
 0.377614E+000
 0.370993E+000
 0.363124E+000
 0.353674E+000
 0.342195E+000
 0.328065E+000
 0.310407E+000
 0.287950E+000
 0.258812E+000
 0.220064E+000
 0.166863E+000
 0.909471E-001
 0.422469E+000
 0.421867E+000
 0.421214E+000
 0.420505E+000
 0.419733E+000
 0.418891E+000
 0.417969E+000
 0.416958E+000
 0.415844E+000
 0.414615E+000
 0.413253E+000
 0.411738E+000
 0.410046E+000
 0.408148E+000
 0.406009E+000
 0.403587E+000
 0.400829E+000
 0.397671E+000
 0.394030E+000
 0.389804E+000
 0.384862E+000
 0.379031E+000
 0.372088E+000
 0.363732E+000
 0.353554E+000
 0.340991E+000
 0.325241E+000
 0.305132E+000
 0.278926E+000
 0.243915E+000
 0.195528E+000
 0.125695E+000
 0.424136E+000
 0.423623E+000
 0.423067E+000
 0.422462E+000
 0.421803E+000
 0.421084E+000
 0.420297E+000
 0.419433E+000
 0.418481E+000
 0.417429E+000
 0.416262E+000
 0.414964E+000
 0.413513E+000
 0.411884E+000
 0.410047E+000
 0.407965E+000
 0.405590E+000
 0.402869E+000
 0.399727E+000
 0.396075E+000
 0.391796E+000
 0.386740E+000
 0.380706E+000
 0.373429E+000
 0.364543E+000
 0.353541E+000
 0.339708E+000
 0.321977E+000
 0.298760E+000
 0.267608E+000
 0.224305E+000
 0.161050E+000
 0.425692E+000
 0.425263E+000
 0.424797E+000
 0.424291E+000
 0.423740E+000
 0.423137E+000
 0.422477E+000
 0.421752E+000
 0.420953E+000
 0.420070E+000
 0.419090E+000
 0.417998E+000
 0.416777E+000
 0.415406E+000
 0.413858E+000
 0.412101E+000
 0.410096E+000
 0.407794E+000
 0.405136E+000
 0.402038E+000
 0.398406E+000
 0.394104E+000
 0.388960E+000
 0.382744E+000
 0.375134E+000
 0.365682E+000
 0.353763E+000
 0.338431E+000
 0.318250E+000
 0.291053E+000
 0.253087E+000
 0.196930E+000
 0.427138E+000
 0.426788E+000
 0.426408E+000
 0.425994E+000
 0.425543E+000
 0.425051E+000
 0.424511E+000
 0.423917E+000
 0.423263E+000
 0.422540E+000
 0.421737E+000
 0.420841E+000
 0.419840E+000
 0.418713E+000
 0.417441E+000
 0.415995E+000
 0.414344E+000
 0.412447E+000
 0.410250E+000
 0.407692E+000
 0.404680E+000
 0.401115E+000
 0.396838E+000
 0.391658E+000
 0.385305E+000
 0.377388E+000
 0.367368E+000
 0.354448E+000
 0.337341E+000
 0.314168E+000
 0.281765E+000
 0.233254E+000
 0.428478E+000
 0.428201E+000
 0.427901E+000
 0.427574E+000
 0.427218E+000
 0.426828E+000
 0.426401E+000
 0.425932E+000
 0.425414E+000
 0.424842E+000
 0.424205E+000
 0.423496E+000
 0.422701E+000
 0.421808E+000
 0.420797E+000
 0.419650E+000
 0.418334E+000
 0.416825E+000
 0.415073E+000
 0.413028E+000
 0.410624E+000
 0.407760E+000
 0.404336E+000
 0.400159E+000
 0.395039E+000
 0.388637E+000
 0.380495E+000
 0.369982E+000
 0.355994E+000
 0.336882E+000
 0.310223E+000
 0.269942E+000
 0.429715E+000
 0.429507E+000
 0.429281E+000
 0.429035E+000
 0.428767E+000
 0.428474E+000
 0.428153E+000
 0.427800E+000
 0.427411E+000
 0.426980E+000
 0.426501E+000
 0.425966E+000
 0.425368E+000
 0.424694E+000
 0.423933E+000
 0.423064E+000
 0.422075E+000
 0.420927E+000
 0.419606E+000
 0.418051E+000
 0.416228E+000
 0.414051E+000
 0.411430E+000
 0.408258E+000
 0.404309E+000
 0.399422E+000
 0.393122E+000
 0.384994E+000
 0.374166E+000
 0.359149E+000
 0.338322E+000
 0.306917E+000
 0.430856E+000
 0.430710E+000
 0.430553E+000
 0.430382E+000
 0.430196E+000
 0.429993E+000
 0.429771E+000
 0.429527E+000
 0.429257E+000
 0.428959E+000
 0.428628E+000
 0.428259E+000
 0.427844E+000
 0.427379E+000
 0.426850E+000
 0.426251E+000
 0.425560E+000
 0.424772E+000
 0.423843E+000
 0.422775E+000
 0.421488E+000
 0.419986E+000
 0.418139E+000
 0.415921E+000
 0.413155E+000
 0.409676E+000
 0.405290E+000
 0.399410E+000
 0.391839E+000
 0.380942E+000
 0.365921E+000
 0.344066E+000
 0.431904E+000
 0.431816E+000
 0.431722E+000
 0.431620E+000
 0.431511E+000
 0.431391E+000
 0.431261E+000
 0.431118E+000
 0.430960E+000
 0.430786E+000
 0.430593E+000
 0.430378E+000
 0.430137E+000
 0.429866E+000
 0.429560E+000
 0.429209E+000
 0.428811E+000
 0.428345E+000
 0.427814E+000
 0.427175E+000
 0.426446E+000
 0.425534E+000
 0.424492E+000
 0.423136E+000
 0.421562E+000
 0.419446E+000
 0.416885E+000
 0.413375E+000
 0.408754E+000
 0.402487E+000
 0.392696E+000
 0.381348E+000
 0.432867E+000
 0.432829E+000
 0.432792E+000
 0.432755E+000
 0.432716E+000
 0.432674E+000
 0.432628E+000
 0.432580E+000
 0.432526E+000
 0.432468E+000
 0.432404E+000
 0.432333E+000
 0.432254E+000
 0.432165E+000
 0.432065E+000
 0.431953E+000
 0.431822E+000
 0.431675E+000
 0.431498E+000
 0.431300E+000
 0.431050E+000
 0.430777E+000
 0.430404E+000
 0.430012E+000
 0.429421E+000
 0.428830E+000
 0.427829E+000
 0.426878E+000
 0.425008E+000
 0.423399E+000
 0.419299E+000
 0.417344E+000
SCALARS von_Mises FLOAT     1
LOOKUP_TABLE default
 0.942015E+000
 0.944762E+000
 0.947731E+000
 0.950941E+000
 0.954415E+000
 0.958181E+000
 0.962269E+000
 0.966716E+000
 0.971563E+000
 0.976856E+000
 0.982649E+000
 0.989003E+000
 0.995987E+000
 0.100368E+001
 0.101218E+001
 0.102158E+001
 0.103199E+001
 0.104355E+001
 0.105638E+001
 0.107062E+001
 0.108639E+001
 0.110379E+001
 0.112280E+001
 0.114329E+001
 0.116465E+001
 0.118586E+001
 0.120413E+001
 0.121512E+001
 0.120812E+001
 0.116623E+001
 0.105696E+001
 0.897210E+000
 0.944325E+000
 0.947177E+000
 0.950255E+000
 0.953581E+000
 0.957178E+000
 0.961075E+000
 0.965303E+000
 0.969899E+000
 0.974904E+000
 0.980365E+000
 0.986338E+000
 0.992882E+000
 0.100007E+001
 0.100798E+001
 0.101670E+001
 0.102633E+001
 0.103700E+001
 0.104880E+001
 0.106189E+001
 0.107638E+001
 0.109241E+001
 0.111001E+001
 0.112924E+001
 0.114977E+001
 0.117130E+001
 0.119224E+001
 0.121065E+001
 0.122118E+001
 0.121487E+001
 0.117567E+001
 0.107575E+001
 0.963623E+000
 0.946506E+000
 0.949455E+000
 0.952634E+000
 0.956066E+000
 0.959776E+000
 0.963791E+000
 0.968144E+000
 0.972873E+000
 0.978019E+000
 0.983630E+000
 0.989759E+000
 0.996470E+000
 0.100383E+001
 0.101192E+001
 0.102084E+001
 0.103067E+001
 0.104153E+001
 0.105355E+001
 0.106683E+001
 0.108152E+001
 0.109769E+001
 0.111547E+001
 0.113474E+001
 0.115538E+001
 0.117675E+001
 0.119762E+001
 0.121584E+001
 0.122604E+001
 0.122095E+001
 0.118380E+001
 0.109771E+001
 0.102797E+001
 0.948525E+000
 0.951559E+000
 0.954828E+000
 0.958354E+000
 0.962162E+000
 0.966281E+000
 0.970743E+000
 0.975587E+000
 0.980854E+000
 0.986591E+000
 0.992854E+000
 0.999704E+000
 0.100721E+001
 0.101545E+001
 0.102452E+001
 0.103450E+001
 0.104552E+001
 0.105768E+001
 0.107111E+001
 0.108591E+001
 0.110220E+001
 0.112002E+001
 0.113930E+001
 0.115989E+001
 0.118105E+001
 0.120186E+001
 0.121955E+001
 0.123011E+001
 0.122552E+001
 0.119230E+001
 0.112069E+001
 0.109260E+001
 0.950339E+000
 0.953447E+000
 0.956792E+000
 0.960397E+000
 0.964288E+000
 0.968494E+000
 0.973047E+000
 0.977984E+000
 0.983349E+000
 0.989189E+000
 0.995557E+000
 0.100252E+001
 0.101013E+001
 0.101849E+001
 0.102766E+001
 0.103776E+001
 0.104888E+001
 0.106113E+001
 0.107464E+001
 0.108949E+001
 0.110581E+001
 0.112359E+001
 0.114283E+001
 0.116320E+001
 0.118423E+001
 0.120466E+001
 0.122216E+001
 0.123284E+001
 0.122924E+001
 0.120086E+001
 0.114485E+001
 0.115744E+001
 0.951905E+000
 0.955072E+000
 0.958478E+000
 0.962146E+000
 0.966102E+000
 0.970374E+000
 0.974996E+000
 0.980005E+000
 0.985443E+000
 0.991356E+000
 0.997800E+000
 0.100483E+001
 0.101252E+001
 0.102095E+001
 0.103019E+001
 0.104035E+001
 0.105152E+001
 0.106381E+001
 0.107732E+001
 0.109217E+001
 0.110842E+001
 0.112612E+001
 0.114517E+001
 0.116534E+001
 0.118608E+001
 0.120616E+001
 0.122350E+001
 0.123435E+001
 0.123224E+001
 0.120951E+001
 0.117024E+001
 0.122236E+001
 0.953176E+000
 0.956385E+000
 0.959835E+000
 0.963547E+000
 0.967547E+000
 0.971864E+000
 0.976532E+000
 0.981586E+000
 0.987068E+000
 0.993025E+000
 0.999511E+000
 0.100658E+001
 0.101431E+001
 0.102276E+001
 0.103203E+001
 0.104219E+001
 0.105335E+001
 0.106561E+001
 0.107908E+001
 0.109384E+001
 0.110997E+001
 0.112748E+001
 0.114630E+001
 0.116619E+001
 0.118657E+001
 0.120633E+001
 0.122352E+001
 0.123471E+001
 0.123461E+001
 0.121832E+001
 0.119688E+001
 0.128720E+001
 0.954099E+000
 0.957334E+000
 0.960807E+000
 0.964542E+000
 0.968564E+000
 0.972903E+000
 0.977589E+000
 0.982660E+000
 0.988157E+000
 0.994125E+000
 0.100062E+001
 0.100769E+001
 0.101541E+001
 0.102384E+001
 0.103308E+001
 0.104320E+001
 0.105429E+001
 0.106647E+001
 0.107981E+001
 0.109442E+001
 0.111035E+001
 0.112761E+001
 0.114613E+001
 0.116567E+001
 0.118567E+001
 0.120511E+001
 0.122222E+001
 0.123401E+001
 0.123644E+001
 0.122740E+001
 0.122475E+001
 0.135174E+001
 0.954624E+000
 0.957863E+000
 0.961339E+000
 0.965074E+000
 0.969094E+000
 0.973427E+000
 0.978104E+000
 0.983162E+000
 0.988640E+000
 0.994583E+000
 0.100104E+001
 0.100807E+001
 0.101574E+001
 0.102411E+001
 0.103327E+001
 0.104328E+001
 0.105426E+001
 0.106628E+001
 0.107944E+001
 0.109382E+001
 0.110949E+001
 0.112644E+001
 0.114460E+001
 0.116373E+001
 0.118334E+001
 0.120250E+001
 0.121964E+001
 0.123232E+001
 0.123780E+001
 0.123689E+001
 0.125381E+001
 0.141579E+001
 0.954696E+000
 0.957918E+000
 0.961373E+000
 0.965084E+000
 0.969075E+000
 0.973374E+000
 0.978011E+000
 0.983023E+000
 0.988447E+000
 0.994328E+000
 0.100071E+001
 0.100766E+001
 0.101523E+001
 0.102349E+001
 0.103251E+001
 0.104237E+001
 0.105316E+001
 0.106497E+001
 0.107788E+001
 0.109198E+001
 0.110731E+001
 0.112388E+001
 0.114163E+001
 0.116034E+001
 0.117956E+001
 0.119850E+001
 0.121583E+001
 0.122974E+001
 0.123882E+001
 0.124687E+001
 0.128394E+001
 0.147913E+001
 0.954263E+000
 0.957444E+000
 0.960854E+000
 0.964513E+000
 0.968446E+000
 0.972681E+000
 0.977246E+000
 0.982177E+000
 0.987511E+000
 0.993290E+000
 0.999563E+000
 0.100638E+001
 0.101380E+001
 0.102190E+001
 0.103073E+001
 0.104038E+001
 0.105093E+001
 0.106246E+001
 0.107507E+001
 0.108881E+001
 0.110375E+001
 0.111990E+001
 0.113720E+001
 0.115547E+001
 0.117433E+001
 0.119312E+001
 0.121084E+001
 0.122634E+001
 0.123962E+001
 0.125744E+001
 0.131503E+001
 0.154157E+001
 0.953274E+000
 0.956389E+000
 0.959726E+000
 0.963306E+000
 0.967152E+000
 0.971290E+000
 0.975749E+000
 0.980563E+000
 0.985768E+000
 0.991405E+000
 0.997520E+000
 0.100416E+001
 0.101139E+001
 0.101927E+001
 0.102786E+001
 0.103724E+001
 0.104749E+001
 0.105870E+001
 0.107093E+001
 0.108427E+001
 0.109877E+001
 0.111446E+001
 0.113128E+001
 0.114911E+001
 0.116765E+001
 0.118642E+001
 0.120476E+001
 0.122223E+001
 0.124031E+001
 0.126866E+001
 0.134691E+001
 0.160290E+001
 0.951681E+000
 0.954704E+000
 0.957941E+000
 0.961412E+000
 0.965139E+000
 0.969147E+000
 0.973466E+000
 0.978125E+000
 0.983162E+000
 0.988615E+000
 0.994528E+000
 0.100095E+001
 0.100794E+001
 0.101555E+001
 0.102384E+001
 0.103290E+001
 0.104280E+001
 0.105362E+001
 0.106543E+001
 0.107831E+001
 0.109233E+001
 0.110752E+001
 0.112386E+001
 0.114127E+001
 0.115956E+001
 0.117845E+001
 0.119766E+001
 0.121753E+001
 0.124101E+001
 0.128056E+001
 0.137941E+001
 0.166292E+001
 0.949444E+000
 0.952348E+000
 0.955455E+000
 0.958786E+000
 0.962362E+000
 0.966207E+000
 0.970349E+000
 0.974817E+000
 0.979645E+000
 0.984872E+000
 0.990540E+000
 0.996695E+000
 0.100339E+001
 0.101068E+001
 0.101864E+001
 0.102732E+001
 0.103681E+001
 0.104719E+001
 0.105853E+001
 0.107091E+001
 0.108442E+001
 0.109908E+001
 0.111495E+001
 0.113198E+001
 0.115012E+001
 0.116929E+001
 0.118967E+001
 0.121237E+001
 0.124184E+001
 0.129313E+001
 0.141233E+001
 0.172142E+001
 0.946530E+000
 0.949286E+000
 0.952235E+000
 0.955396E+000
 0.958788E+000
 0.962435E+000
 0.966364E+000
 0.970602E+000
 0.975183E+000
 0.980143E+000
 0.985521E+000
 0.991364E+000
 0.997722E+000
 0.100465E+001
 0.101221E+001
 0.102047E+001
 0.102951E+001
 0.103940E+001
 0.105022E+001
 0.106208E+001
 0.107504E+001
 0.108918E+001
 0.110459E+001
 0.112130E+001
 0.113939E+001
 0.115906E+001
 0.118090E+001
 0.120686E+001
 0.124288E+001
 0.130635E+001
 0.144544E+001
 0.177822E+001
 0.942918E+000
 0.945499E+000
 0.948261E+000
 0.951219E+000
 0.954396E+000
 0.957812E+000
 0.961492E+000
 0.965463E+000
 0.969758E+000
 0.974410E+000
 0.979458E+000
 0.984945E+000
 0.990920E+000
 0.997438E+000
 0.100456E+001
 0.101235E+001
 0.102089E+001
 0.103025E+001
 0.104053E+001
 0.105183E+001
 0.106423E+001
 0.107787E+001
 0.109284E+001
 0.110931E+001
 0.112749E+001
 0.114786E+001
 0.117148E+001
 0.120115E+001
 0.124422E+001
 0.132016E+001
 0.147853E+001
 0.183312E+001
 0.938603E+000
 0.940981E+000
 0.943526E+000
 0.946253E+000
 0.949182E+000
 0.952334E+000
 0.955731E+000
 0.959400E+000
 0.963371E+000
 0.967677E+000
 0.972354E+000
 0.977445E+000
 0.982997E+000
 0.989063E+000
 0.995704E+000
 0.100299E+001
 0.101099E+001
 0.101979E+001
 0.102950E+001
 0.104022E+001
 0.105207E+001
 0.106521E+001
 0.107980E+001
 0.109612E+001
 0.111455E+001
 0.113584E+001
 0.116157E+001
 0.119535E+001
 0.124590E+001
 0.133445E+001
 0.151135E+001
 0.188593E+001
 0.933596E+000
 0.935745E+000
 0.938045E+000
 0.940512E+000
 0.943164E+000
 0.946020E+000
 0.949103E+000
 0.952437E+000
 0.956050E+000
 0.959974E+000
 0.964244E+000
 0.968902E+000
 0.973993E+000
 0.979570E+000
 0.985693E+000
 0.992433E+000
 0.999867E+000
 0.100809E+001
 0.101720E+001
 0.102734E+001
 0.103865E+001
 0.105132E+001
 0.106560E+001
 0.108187E+001
 0.110070E+001
 0.112315E+001
 0.115131E+001
 0.118960E+001
 0.124797E+001
 0.134912E+001
 0.154366E+001
 0.193646E+001
 0.927929E+000
 0.929825E+000
 0.931855E+000
 0.934036E+000
 0.936384E+000
 0.938916E+000
 0.941655E+000
 0.944622E+000
 0.947846E+000
 0.951357E+000
 0.955188E+000
 0.959380E+000
 0.963978E+000
 0.969034E+000
 0.974611E+000
 0.980780E+000
 0.987624E+000
 0.995243E+000
 0.100376E+001
 0.101332E+001
 0.102410E+001
 0.103635E+001
 0.105040E+001
 0.106673E+001
 0.108614E+001
 0.110999E+001
 0.114086E+001
 0.118399E+001
 0.125043E+001
 0.136402E+001
 0.157521E+001
 0.198453E+001
 0.921659E+000
 0.923279E+000
 0.925018E+000
 0.926889E+000
 0.928909E+000
 0.931093E+000
 0.933462E+000
 0.936038E+000
 0.938846E+000
 0.941916E+000
 0.945281E+000
 0.948980E+000
 0.953059E+000
 0.957570E+000
 0.962577E+000
 0.968155E+000
 0.974393E+000
 0.981403E+000
 0.989318E+000
 0.998311E+000
 0.100860E+001
 0.102048E+001
 0.103438E+001
 0.105091E+001
 0.107106E+001
 0.109653E+001
 0.113039E+001
 0.117863E+001
 0.125326E+001
 0.137898E+001
 0.160576E+001
 0.202998E+001
 0.914868E+000
 0.916195E+000
 0.917623E+000
 0.919166E+000
 0.920837E+000
 0.922654E+000
 0.924633E+000
 0.926796E+000
 0.929168E+000
 0.931776E+000
 0.934654E+000
 0.937840E+000
 0.941380E+000
 0.945328E+000
 0.949750E+000
 0.954726E+000
 0.960353E+000
 0.966753E+000
 0.974079E+000
 0.982529E+000
 0.992364E+000
 0.100394E+001
 0.101777E+001
 0.103462E+001
 0.105568E+001
 0.108298E+001
 0.112006E+001
 0.117359E+001
 0.125642E+001
 0.139383E+001
 0.163506E+001
 0.207264E+001
 0.907666E+000
 0.908686E+000
 0.909790E+000
 0.910990E+000
 0.912300E+000
 0.913733E+000
 0.915308E+000
 0.917045E+000
 0.918965E+000
 0.921098E+000
 0.923475E+000
 0.926136E+000
 0.929125E+000
 0.932501E+000
 0.936332E+000
 0.940704E+000
 0.945722E+000
 0.951522E+000
 0.958277E+000
 0.966216E+000
 0.975643E+000
 0.986983E+000
 0.100084E+001
 0.101813E+001
 0.104025E+001
 0.106954E+001
 0.111002E+001
 0.116895E+001
 0.125984E+001
 0.140838E+001
 0.166288E+001
 0.211234E+001
 0.900190E+000
 0.900895E+000
 0.901667E+000
 0.902516E+000
 0.903456E+000
 0.904500E+000
 0.905663E+000
 0.906965E+000
 0.908428E+000
 0.910079E+000
 0.911951E+000
 0.914081E+000
 0.916519E+000
 0.919323E+000
 0.922566E+000
 0.926340E+000
 0.930761E+000
 0.935980E+000
 0.942192E+000
 0.949658E+000
 0.958729E+000
 0.969899E+000
 0.983874E+000
 0.100170E+001
 0.102502E+001
 0.105645E+001
 0.110042E+001
 0.116473E+001
 0.126345E+001
 0.142241E+001
 0.168899E+001
 0.214895E+001
 0.892604E+000
 0.892991E+000
 0.893430E+000
 0.893928E+000
 0.894498E+000
 0.895151E+000
 0.895903E+000
 0.896772E+000
 0.897780E+000
 0.898953E+000
 0.900322E+000
 0.901929E+000
 0.903823E+000
 0.906065E+000
 0.908733E+000
 0.911926E+000
 0.915773E+000
 0.920439E+000
 0.926143E+000
 0.933179E+000
 0.941950E+000
 0.953017E+000
 0.967188E+000
 0.985657E+000
 0.101026E+001
 0.104390E+001
 0.109140E+001
 0.116099E+001
 0.126715E+001
 0.143575E+001
 0.171316E+001
 0.218231E+001
 0.885093E+000
 0.885170E+000
 0.885280E+000
 0.885435E+000
 0.885642E+000
 0.885914E+000
 0.886264E+000
 0.886711E+000
 0.887274E+000
 0.887981E+000
 0.888864E+000
 0.889964E+000
 0.891331E+000
 0.893032E+000
 0.895149E+000
 0.897790E+000
 0.901093E+000
 0.905242E+000
 0.910480E+000
 0.917136E+000
 0.925661E+000
 0.936688E+000
 0.951121E+000
 0.970296E+000
 0.996236E+000
 0.103211E+001
 0.108307E+001
 0.115772E+001
 0.127083E+001
 0.144818E+001
 0.173521E+001
 0.221231E+001
 0.877863E+000
 0.877641E+000
 0.877439E+000
 0.877265E+000
 0.877126E+000
 0.877034E+000
 0.877002E+000
 0.877046E+000
 0.877188E+000
 0.877453E+000
 0.877874E+000
 0.878494E+000
 0.879366E+000
 0.880558E+000
 0.882159E+000
 0.884285E+000
 0.887086E+000
 0.890763E+000
 0.895583E+000
 0.901909E+000
 0.910241E+000
 0.921279E+000
 0.936024E+000
 0.955941E+000
 0.983229E+000
 0.102129E+001
 0.107556E+001
 0.115493E+001
 0.127437E+001
 0.145953E+001
 0.175493E+001
 0.223882E+001
 0.871127E+000
 0.870629E+000
 0.870137E+000
 0.869658E+000
 0.869200E+000
 0.868771E+000
 0.868386E+000
 0.868059E+000
 0.867812E+000
 0.867669E+000
 0.867666E+000
 0.867846E+000
 0.868263E+000
 0.868990E+000
 0.870122E+000
 0.871781E+000
 0.874130E+000
 0.877386E+000
 0.881841E+000
 0.887889E+000
 0.896077E+000
 0.907168E+000
 0.922251E+000
 0.942908E+000
 0.971498E+000
 0.101163E+001
 0.106895E+001
 0.115260E+001
 0.127767E+001
 0.146962E+001
 0.177216E+001
 0.226175E+001
 0.865102E+000
 0.864357E+000
 0.863607E+000
 0.862857E+000
 0.862113E+000
 0.861386E+000
 0.860686E+000
 0.860030E+000
 0.859437E+000
 0.858933E+000
 0.858554E+000
 0.858344E+000
 0.858360E+000
 0.858678E+000
 0.859397E+000
 0.860648E+000
 0.862605E+000
 0.865499E+000
 0.869644E+000
 0.875466E+000
 0.883551E+000
 0.894721E+000
 0.910142E+000
 0.931502E+000
 0.961292E+000
 0.100328E+001
 0.106332E+001
 0.115071E+001
 0.128061E+001
 0.147829E+001
 0.178676E+001
 0.228099E+001
 0.859991E+000
 0.859038E+000
 0.858069E+000
 0.857090E+000
 0.856106E+000
 0.855126E+000
 0.854161E+000
 0.853226E+000
 0.852342E+000
 0.851534E+000
 0.850839E+000
 0.850300E+000
 0.849979E+000
 0.849954E+000
 0.850328E+000
 0.851240E+000
 0.852872E+000
 0.855469E+000
 0.859364E+000
 0.865008E+000
 0.873025E+000
 0.884284E+000
 0.900018E+000
 0.922000E+000
 0.952832E+000
 0.996419E+000
 0.105875E+001
 0.114924E+001
 0.128309E+001
 0.148539E+001
 0.179859E+001
 0.229648E+001
 0.855979E+000
 0.854862E+000
 0.853722E+000
 0.852564E+000
 0.851391E+000
 0.850213E+000
 0.849041E+000
 0.847888E+000
 0.846776E+000
 0.845731E+000
 0.844788E+000
 0.843994E+000
 0.843410E+000
 0.843117E+000
 0.843224E+000
 0.843873E+000
 0.845254E+000
 0.847624E+000
 0.851329E+000
 0.856843E+000
 0.864818E+000
 0.876161E+000
 0.892156E+000
 0.914644E+000
 0.946310E+000
 0.991156E+000
 0.105527E+001
 0.114817E+001
 0.128504E+001
 0.149083E+001
 0.180756E+001
 0.230816E+001
 0.853215E+000
 0.851985E+000
 0.850728E+000
 0.849446E+000
 0.848144E+000
 0.846830E+000
 0.845515E+000
 0.844212E+000
 0.842944E+000
 0.841735E+000
 0.840622E+000
 0.839653E+000
 0.838889E+000
 0.838413E+000
 0.838337E+000
 0.838806E+000
 0.840017E+000
 0.842233E+000
 0.845812E+000
 0.851241E+000
 0.859191E+000
 0.870599E+000
 0.886782E+000
 0.909627E+000
 0.941874E+000
 0.987592E+000
 0.105294E+001
 0.114746E+001
 0.128637E+001
 0.149450E+001
 0.181358E+001
 0.231596E+001
 0.851806E+000
 0.850519E+000
 0.849201E+000
 0.847856E+000
 0.846488E+000
 0.845105E+000
 0.843717E+000
 0.842338E+000
 0.840990E+000
 0.839698E+000
 0.838499E+000
 0.837440E+000
 0.836584E+000
 0.836016E+000
 0.835847E+000
 0.836225E+000
 0.837349E+000
 0.839488E+000
 0.843003E+000
 0.848390E+000
 0.856330E+000
 0.867773E+000
 0.884055E+000
 0.907083E+000
 0.939630E+000
 0.985793E+000
 0.105176E+001
 0.114712E+001
 0.128705E+001
 0.149635E+001
 0.181661E+001
 0.231988E+001
 0.851806E+000
 0.850519E+000
 0.849201E+000
 0.847856E+000
 0.846488E+000
 0.845105E+000
 0.843717E+000
 0.842338E+000
 0.840990E+000
 0.839698E+000
 0.838499E+000
 0.837440E+000
 0.836584E+000
 0.836016E+000
 0.835847E+000
 0.836225E+000
 0.837349E+000
 0.839488E+000
 0.843003E+000
 0.848390E+000
 0.856330E+000
 0.867773E+000
 0.884055E+000
 0.907083E+000
 0.939630E+000
 0.985793E+000
 0.105176E+001
 0.114712E+001
 0.128705E+001
 0.149635E+001
 0.181661E+001
 0.231988E+001
 0.853215E+000
 0.851985E+000
 0.850728E+000
 0.849446E+000
 0.848144E+000
 0.846830E+000
 0.845515E+000
 0.844212E+000
 0.842944E+000
 0.841735E+000
 0.840622E+000
 0.839653E+000
 0.838889E+000
 0.838413E+000
 0.838337E+000
 0.838806E+000
 0.840017E+000
 0.842233E+000
 0.845812E+000
 0.851241E+000
 0.859191E+000
 0.870599E+000
 0.886782E+000
 0.909627E+000
 0.941874E+000
 0.987592E+000
 0.105294E+001
 0.114746E+001
 0.128637E+001
 0.149450E+001
 0.181358E+001
 0.231596E+001
 0.855979E+000
 0.854862E+000
 0.853722E+000
 0.852564E+000
 0.851391E+000
 0.850213E+000
 0.849041E+000
 0.847888E+000
 0.846776E+000
 0.845731E+000
 0.844788E+000
 0.843994E+000
 0.843410E+000
 0.843117E+000
 0.843224E+000
 0.843873E+000
 0.845254E+000
 0.847624E+000
 0.851329E+000
 0.856843E+000
 0.864818E+000
 0.876161E+000
 0.892156E+000
 0.914644E+000
 0.946310E+000
 0.991156E+000
 0.105527E+001
 0.114817E+001
 0.128504E+001
 0.149083E+001
 0.180756E+001
 0.230816E+001
 0.859991E+000
 0.859038E+000
 0.858069E+000
 0.857090E+000
 0.856106E+000
 0.855126E+000
 0.854161E+000
 0.853226E+000
 0.852342E+000
 0.851534E+000
 0.850839E+000
 0.850300E+000
 0.849979E+000
 0.849954E+000
 0.850328E+000
 0.851240E+000
 0.852872E+000
 0.855469E+000
 0.859364E+000
 0.865008E+000
 0.873025E+000
 0.884284E+000
 0.900018E+000
 0.922000E+000
 0.952832E+000
 0.996419E+000
 0.105875E+001
 0.114924E+001
 0.128309E+001
 0.148539E+001
 0.179859E+001
 0.229648E+001
 0.865102E+000
 0.864357E+000
 0.863607E+000
 0.862857E+000
 0.862113E+000
 0.861386E+000
 0.860686E+000
 0.860030E+000
 0.859437E+000
 0.858933E+000
 0.858554E+000
 0.858344E+000
 0.858360E+000
 0.858678E+000
 0.859397E+000
 0.860648E+000
 0.862605E+000
 0.865499E+000
 0.869644E+000
 0.875466E+000
 0.883551E+000
 0.894721E+000
 0.910142E+000
 0.931502E+000
 0.961292E+000
 0.100328E+001
 0.106332E+001
 0.115071E+001
 0.128061E+001
 0.147829E+001
 0.178676E+001
 0.228099E+001
 0.871127E+000
 0.870629E+000
 0.870137E+000
 0.869658E+000
 0.869200E+000
 0.868771E+000
 0.868386E+000
 0.868059E+000
 0.867812E+000
 0.867669E+000
 0.867666E+000
 0.867846E+000
 0.868263E+000
 0.868990E+000
 0.870122E+000
 0.871781E+000
 0.874130E+000
 0.877386E+000
 0.881841E+000
 0.887889E+000
 0.896077E+000
 0.907168E+000
 0.922251E+000
 0.942908E+000
 0.971498E+000
 0.101163E+001
 0.106895E+001
 0.115260E+001
 0.127767E+001
 0.146962E+001
 0.177216E+001
 0.226175E+001
 0.877863E+000
 0.877641E+000
 0.877439E+000
 0.877265E+000
 0.877126E+000
 0.877034E+000
 0.877002E+000
 0.877046E+000
 0.877188E+000
 0.877453E+000
 0.877874E+000
 0.878494E+000
 0.879366E+000
 0.880558E+000
 0.882159E+000
 0.884285E+000
 0.887086E+000
 0.890763E+000
 0.895583E+000
 0.901909E+000
 0.910241E+000
 0.921279E+000
 0.936024E+000
 0.955941E+000
 0.983229E+000
 0.102129E+001
 0.107556E+001
 0.115493E+001
 0.127437E+001
 0.145953E+001
 0.175493E+001
 0.223882E+001
 0.885093E+000
 0.885170E+000
 0.885280E+000
 0.885435E+000
 0.885642E+000
 0.885914E+000
 0.886264E+000
 0.886711E+000
 0.887274E+000
 0.887981E+000
 0.888864E+000
 0.889964E+000
 0.891331E+000
 0.893032E+000
 0.895149E+000
 0.897790E+000
 0.901093E+000
 0.905242E+000
 0.910480E+000
 0.917136E+000
 0.925661E+000
 0.936688E+000
 0.951121E+000
 0.970296E+000
 0.996236E+000
 0.103211E+001
 0.108307E+001
 0.115772E+001
 0.127083E+001
 0.144818E+001
 0.173521E+001
 0.221231E+001
 0.892604E+000
 0.892991E+000
 0.893430E+000
 0.893928E+000
 0.894498E+000
 0.895151E+000
 0.895903E+000
 0.896772E+000
 0.897780E+000
 0.898953E+000
 0.900322E+000
 0.901929E+000
 0.903823E+000
 0.906065E+000
 0.908733E+000
 0.911926E+000
 0.915773E+000
 0.920439E+000
 0.926143E+000
 0.933179E+000
 0.941950E+000
 0.953017E+000
 0.967188E+000
 0.985657E+000
 0.101026E+001
 0.104390E+001
 0.109140E+001
 0.116099E+001
 0.126715E+001
 0.143575E+001
 0.171316E+001
 0.218231E+001
 0.900190E+000
 0.900895E+000
 0.901667E+000
 0.902516E+000
 0.903456E+000
 0.904500E+000
 0.905663E+000
 0.906965E+000
 0.908428E+000
 0.910079E+000
 0.911951E+000
 0.914081E+000
 0.916519E+000
 0.919323E+000
 0.922566E+000
 0.926340E+000
 0.930761E+000
 0.935980E+000
 0.942192E+000
 0.949658E+000
 0.958729E+000
 0.969899E+000
 0.983874E+000
 0.100170E+001
 0.102502E+001
 0.105645E+001
 0.110042E+001
 0.116473E+001
 0.126345E+001
 0.142241E+001
 0.168899E+001
 0.214895E+001
 0.907666E+000
 0.908686E+000
 0.909790E+000
 0.910990E+000
 0.912300E+000
 0.913733E+000
 0.915308E+000
 0.917045E+000
 0.918965E+000
 0.921098E+000
 0.923475E+000
 0.926136E+000
 0.929125E+000
 0.932501E+000
 0.936332E+000
 0.940704E+000
 0.945722E+000
 0.951522E+000
 0.958277E+000
 0.966216E+000
 0.975643E+000
 0.986983E+000
 0.100084E+001
 0.101813E+001
 0.104025E+001
 0.106954E+001
 0.111002E+001
 0.116895E+001
 0.125984E+001
 0.140838E+001
 0.166288E+001
 0.211234E+001
 0.914868E+000
 0.916195E+000
 0.917623E+000
 0.919166E+000
 0.920837E+000
 0.922654E+000
 0.924633E+000
 0.926796E+000
 0.929168E+000
 0.931776E+000
 0.934654E+000
 0.937840E+000
 0.941380E+000
 0.945328E+000
 0.949750E+000
 0.954726E+000
 0.960353E+000
 0.966753E+000
 0.974079E+000
 0.982529E+000
 0.992364E+000
 0.100394E+001
 0.101777E+001
 0.103462E+001
 0.105568E+001
 0.108298E+001
 0.112006E+001
 0.117359E+001
 0.125642E+001
 0.139383E+001
 0.163506E+001
 0.207264E+001
 0.921659E+000
 0.923279E+000
 0.925018E+000
 0.926889E+000
 0.928909E+000
 0.931093E+000
 0.933462E+000
 0.936038E+000
 0.938846E+000
 0.941916E+000
 0.945281E+000
 0.948980E+000
 0.953059E+000
 0.957570E+000
 0.962577E+000
 0.968155E+000
 0.974393E+000
 0.981403E+000
 0.989318E+000
 0.998311E+000
 0.100860E+001
 0.102048E+001
 0.103438E+001
 0.105091E+001
 0.107106E+001
 0.109653E+001
 0.113039E+001
 0.117863E+001
 0.125326E+001
 0.137898E+001
 0.160576E+001
 0.202998E+001
 0.927929E+000
 0.929825E+000
 0.931855E+000
 0.934036E+000
 0.936384E+000
 0.938916E+000
 0.941655E+000
 0.944622E+000
 0.947846E+000
 0.951357E+000
 0.955188E+000
 0.959380E+000
 0.963978E+000
 0.969034E+000
 0.974611E+000
 0.980780E+000
 0.987624E+000
 0.995243E+000
 0.100376E+001
 0.101332E+001
 0.102410E+001
 0.103635E+001
 0.105040E+001
 0.106673E+001
 0.108614E+001
 0.110999E+001
 0.114086E+001
 0.118399E+001
 0.125043E+001
 0.136402E+001
 0.157521E+001
 0.198453E+001
 0.933596E+000
 0.935745E+000
 0.938045E+000
 0.940512E+000
 0.943164E+000
 0.946020E+000
 0.949103E+000
 0.952437E+000
 0.956050E+000
 0.959974E+000
 0.964244E+000
 0.968902E+000
 0.973993E+000
 0.979570E+000
 0.985693E+000
 0.992433E+000
 0.999867E+000
 0.100809E+001
 0.101720E+001
 0.102734E+001
 0.103865E+001
 0.105132E+001
 0.106560E+001
 0.108187E+001
 0.110070E+001
 0.112315E+001
 0.115131E+001
 0.118960E+001
 0.124797E+001
 0.134912E+001
 0.154366E+001
 0.193646E+001
 0.938603E+000
 0.940981E+000
 0.943526E+000
 0.946253E+000
 0.949182E+000
 0.952334E+000
 0.955731E+000
 0.959400E+000
 0.963371E+000
 0.967677E+000
 0.972354E+000
 0.977445E+000
 0.982997E+000
 0.989063E+000
 0.995704E+000
 0.100299E+001
 0.101099E+001
 0.101979E+001
 0.102950E+001
 0.104022E+001
 0.105207E+001
 0.106521E+001
 0.107980E+001
 0.109612E+001
 0.111455E+001
 0.113584E+001
 0.116157E+001
 0.119535E+001
 0.124590E+001
 0.133445E+001
 0.151135E+001
 0.188593E+001
 0.942918E+000
 0.945499E+000
 0.948261E+000
 0.951219E+000
 0.954396E+000
 0.957812E+000
 0.961492E+000
 0.965463E+000
 0.969758E+000
 0.974410E+000
 0.979458E+000
 0.984945E+000
 0.990920E+000
 0.997438E+000
 0.100456E+001
 0.101235E+001
 0.102089E+001
 0.103025E+001
 0.104053E+001
 0.105183E+001
 0.106423E+001
 0.107787E+001
 0.109284E+001
 0.110931E+001
 0.112749E+001
 0.114786E+001
 0.117148E+001
 0.120115E+001
 0.124422E+001
 0.132016E+001
 0.147853E+001
 0.183312E+001
 0.946530E+000
 0.949286E+000
 0.952235E+000
 0.955396E+000
 0.958788E+000
 0.962435E+000
 0.966364E+000
 0.970602E+000
 0.975183E+000
 0.980143E+000
 0.985521E+000
 0.991364E+000
 0.997722E+000
 0.100465E+001
 0.101221E+001
 0.102047E+001
 0.102951E+001
 0.103940E+001
 0.105022E+001
 0.106208E+001
 0.107504E+001
 0.108918E+001
 0.110459E+001
 0.112130E+001
 0.113939E+001
 0.115906E+001
 0.118090E+001
 0.120686E+001
 0.124288E+001
 0.130635E+001
 0.144544E+001
 0.177822E+001
 0.949444E+000
 0.952348E+000
 0.955455E+000
 0.958786E+000
 0.962362E+000
 0.966207E+000
 0.970349E+000
 0.974817E+000
 0.979645E+000
 0.984872E+000
 0.990540E+000
 0.996695E+000
 0.100339E+001
 0.101068E+001
 0.101864E+001
 0.102732E+001
 0.103681E+001
 0.104719E+001
 0.105853E+001
 0.107091E+001
 0.108442E+001
 0.109908E+001
 0.111495E+001
 0.113198E+001
 0.115012E+001
 0.116929E+001
 0.118967E+001
 0.121237E+001
 0.124184E+001
 0.129313E+001
 0.141233E+001
 0.172142E+001
 0.951681E+000
 0.954704E+000
 0.957941E+000
 0.961412E+000
 0.965139E+000
 0.969147E+000
 0.973466E+000
 0.978125E+000
 0.983162E+000
 0.988615E+000
 0.994528E+000
 0.100095E+001
 0.100794E+001
 0.101555E+001
 0.102384E+001
 0.103290E+001
 0.104280E+001
 0.105362E+001
 0.106543E+001
 0.107831E+001
 0.109233E+001
 0.110752E+001
 0.112386E+001
 0.114127E+001
 0.115956E+001
 0.117845E+001
 0.119766E+001
 0.121753E+001
 0.124101E+001
 0.128056E+001
 0.137941E+001
 0.166292E+001
 0.953274E+000
 0.956389E+000
 0.959726E+000
 0.963306E+000
 0.967152E+000
 0.971290E+000
 0.975749E+000
 0.980563E+000
 0.985768E+000
 0.991405E+000
 0.997520E+000
 0.100416E+001
 0.101139E+001
 0.101927E+001
 0.102786E+001
 0.103724E+001
 0.104749E+001
 0.105870E+001
 0.107093E+001
 0.108427E+001
 0.109877E+001
 0.111446E+001
 0.113128E+001
 0.114911E+001
 0.116765E+001
 0.118642E+001
 0.120476E+001
 0.122223E+001
 0.124031E+001
 0.126866E+001
 0.134691E+001
 0.160290E+001
 0.954263E+000
 0.957444E+000
 0.960854E+000
 0.964513E+000
 0.968446E+000
 0.972681E+000
 0.977246E+000
 0.982177E+000
 0.987511E+000
 0.993290E+000
 0.999563E+000
 0.100638E+001
 0.101380E+001
 0.102190E+001
 0.103073E+001
 0.104038E+001
 0.105093E+001
 0.106246E+001
 0.107507E+001
 0.108881E+001
 0.110375E+001
 0.111990E+001
 0.113720E+001
 0.115547E+001
 0.117433E+001
 0.119312E+001
 0.121084E+001
 0.122634E+001
 0.123962E+001
 0.125744E+001
 0.131503E+001
 0.154157E+001
 0.954696E+000
 0.957918E+000
 0.961373E+000
 0.965084E+000
 0.969075E+000
 0.973374E+000
 0.978011E+000
 0.983023E+000
 0.988447E+000
 0.994328E+000
 0.100071E+001
 0.100766E+001
 0.101523E+001
 0.102349E+001
 0.103251E+001
 0.104237E+001
 0.105316E+001
 0.106497E+001
 0.107788E+001
 0.109198E+001
 0.110731E+001
 0.112388E+001
 0.114163E+001
 0.116034E+001
 0.117956E+001
 0.119850E+001
 0.121583E+001
 0.122974E+001
 0.123882E+001
 0.124687E+001
 0.128394E+001
 0.147913E+001
 0.954624E+000
 0.957863E+000
 0.961339E+000
 0.965074E+000
 0.969094E+000
 0.973427E+000
 0.978104E+000
 0.983162E+000
 0.988640E+000
 0.994583E+000
 0.100104E+001
 0.100807E+001
 0.101574E+001
 0.102411E+001
 0.103327E+001
 0.104328E+001
 0.105426E+001
 0.106628E+001
 0.107944E+001
 0.109382E+001
 0.110949E+001
 0.112644E+001
 0.114460E+001
 0.116373E+001
 0.118334E+001
 0.120250E+001
 0.121964E+001
 0.123232E+001
 0.123780E+001
 0.123689E+001
 0.125381E+001
 0.141579E+001
 0.954099E+000
 0.957334E+000
 0.960807E+000
 0.964542E+000
 0.968564E+000
 0.972903E+000
 0.977589E+000
 0.982660E+000
 0.988157E+000
 0.994125E+000
 0.100062E+001
 0.100769E+001
 0.101541E+001
 0.102384E+001
 0.103308E+001
 0.104320E+001
 0.105429E+001
 0.106647E+001
 0.107981E+001
 0.109442E+001
 0.111035E+001
 0.112761E+001
 0.114613E+001
 0.116567E+001
 0.118567E+001
 0.120511E+001
 0.122222E+001
 0.123401E+001
 0.123644E+001
 0.122740E+001
 0.122475E+001
 0.135174E+001
 0.953176E+000
 0.956385E+000
 0.959835E+000
 0.963547E+000
 0.967547E+000
 0.971864E+000
 0.976532E+000
 0.981586E+000
 0.987068E+000
 0.993025E+000
 0.999511E+000
 0.100658E+001
 0.101431E+001
 0.102276E+001
 0.103203E+001
 0.104219E+001
 0.105335E+001
 0.106561E+001
 0.107908E+001
 0.109384E+001
 0.110997E+001
 0.112748E+001
 0.114630E+001
 0.116619E+001
 0.118657E+001
 0.120633E+001
 0.122352E+001
 0.123471E+001
 0.123461E+001
 0.121832E+001
 0.119688E+001
 0.128720E+001
 0.951905E+000
 0.955072E+000
 0.958478E+000
 0.962146E+000
 0.966102E+000
 0.970374E+000
 0.974996E+000
 0.980005E+000
 0.985443E+000
 0.991356E+000
 0.997800E+000
 0.100483E+001
 0.101252E+001
 0.102095E+001
 0.103019E+001
 0.104035E+001
 0.105152E+001
 0.106381E+001
 0.107732E+001
 0.109217E+001
 0.110842E+001
 0.112612E+001
 0.114517E+001
 0.116534E+001
 0.118608E+001
 0.120616E+001
 0.122350E+001
 0.123435E+001
 0.123224E+001
 0.120951E+001
 0.117024E+001
 0.122236E+001
 0.950339E+000
 0.953447E+000
 0.956792E+000
 0.960397E+000
 0.964288E+000
 0.968494E+000
 0.973047E+000
 0.977984E+000
 0.983349E+000
 0.989189E+000
 0.995557E+000
 0.100252E+001
 0.101013E+001
 0.101849E+001
 0.102766E+001
 0.103776E+001
 0.104888E+001
 0.106113E+001
 0.107464E+001
 0.108949E+001
 0.110581E+001
 0.112359E+001
 0.114283E+001
 0.116320E+001
 0.118423E+001
 0.120466E+001
 0.122216E+001
 0.123284E+001
 0.122924E+001
 0.120086E+001
 0.114485E+001
 0.115744E+001
 0.948525E+000
 0.951559E+000
 0.954828E+000
 0.958354E+000
 0.962162E+000
 0.966281E+000
 0.970743E+000
 0.975587E+000
 0.980854E+000
 0.986591E+000
 0.992854E+000
 0.999704E+000
 0.100721E+001
 0.101545E+001
 0.102452E+001
 0.103450E+001
 0.104552E+001
 0.105768E+001
 0.107111E+001
 0.108591E+001
 0.110220E+001
 0.112002E+001
 0.113930E+001
 0.115989E+001
 0.118105E+001
 0.120186E+001
 0.121955E+001
 0.123011E+001
 0.122552E+001
 0.119230E+001
 0.112069E+001
 0.109260E+001
 0.946506E+000
 0.949455E+000
 0.952634E+000
 0.956066E+000
 0.959776E+000
 0.963791E+000
 0.968144E+000
 0.972873E+000
 0.978019E+000
 0.983630E+000
 0.989759E+000
 0.996470E+000
 0.100383E+001
 0.101192E+001
 0.102084E+001
 0.103067E+001
 0.104153E+001
 0.105355E+001
 0.106683E+001
 0.108152E+001
 0.109769E+001
 0.111547E+001
 0.113474E+001
 0.115538E+001
 0.117675E+001
 0.119762E+001
 0.121584E+001
 0.122604E+001
 0.122095E+001
 0.118380E+001
 0.109771E+001
 0.102797E+001
 0.944325E+000
 0.947177E+000
 0.950255E+000
 0.953581E+000
 0.957178E+000
 0.961075E+000
 0.965303E+000
 0.969899E+000
 0.974904E+000
 0.980365E+000
 0.986338E+000
 0.992882E+000
 0.100007E+001
 0.100798E+001
 0.101670E+001
 0.102633E+001
 0.103700E+001
 0.104880E+001
 0.106189E+001
 0.107638E+001
 0.109241E+001
 0.111001E+001
 0.112924E+001
 0.114977E+001
 0.117130E+001
 0.119224E+001
 0.121065E+001
 0.122118E+001
 0.121487E+001
 0.117567E+001
 0.107575E+001
 0.963623E+000
 0.942015E+000
 0.944762E+000
 0.947731E+000
 0.950941E+000
 0.954415E+000
 0.958181E+000
 0.962269E+000
 0.966716E+000
 0.971563E+000
 0.976856E+000
 0.982649E+000
 0.989003E+000
 0.995987E+000
 0.100368E+001
 0.101218E+001
 0.102158E+001
 0.103199E+001
 0.104355E+001
 0.105638E+001
 0.107062E+001
 0.108639E+001
 0.110379E+001
 0.112280E+001
 0.114329E+001
 0.116465E+001
 0.118586E+001
 0.120413E+001
 0.121512E+001
 0.120812E+001
 0.116623E+001
 0.105696E+001
 0.897210E+000
 0.941139E+000
 0.943852E+000
 0.946777E+000
 0.949937E+000
 0.953356E+000
 0.957062E+000
 0.961086E+000
 0.965463E+000
 0.970233E+000
 0.975442E+000
 0.981143E+000
 0.987397E+000
 0.994273E+000
 0.100185E+001
 0.101021E+001
 0.101946E+001
 0.102972E+001
 0.104109E+001
 0.105373E+001
 0.106774E+001
 0.108327E+001
 0.110037E+001
 0.111908E+001
 0.113913E+001
 0.116010E+001
 0.118059E+001
 0.119826E+001
 0.120769E+001
 0.119911E+001
 0.115200E+001
 0.103380E+001
 0.829931E+000
 0.941603E+000
 0.944329E+000
 0.947267E+000
 0.950440E+000
 0.953870E+000
 0.957584E+000
 0.961615E+000
 0.965995E+000
 0.970767E+000
 0.975973E+000
 0.981668E+000
 0.987909E+000
 0.994764E+000
 0.100231E+001
 0.101063E+001
 0.101982E+001
 0.103000E+001
 0.104127E+001
 0.105375E+001
 0.106758E+001
 0.108284E+001
 0.109960E+001
 0.111782E+001
 0.113721E+001
 0.115730E+001
 0.117646E+001
 0.119244E+001
 0.119909E+001
 0.118674E+001
 0.113337E+001
 0.100271E+001
 0.764787E+000
 0.941789E+000
 0.944512E+000
 0.947446E+000
 0.950612E+000
 0.954033E+000
 0.957735E+000
 0.961749E+000
 0.966109E+000
 0.970855E+000
 0.976030E+000
 0.981685E+000
 0.987878E+000
 0.994675E+000
 0.100215E+001
 0.101038E+001
 0.101946E+001
 0.102950E+001
 0.104060E+001
 0.105287E+001
 0.106643E+001
 0.108132E+001
 0.109766E+001
 0.111524E+001
 0.113395E+001
 0.115286E+001
 0.117079E+001
 0.118463E+001
 0.118867E+001
 0.117233E+001
 0.111253E+001
 0.970383E+000
 0.702073E+000
 0.941648E+000
 0.944351E+000
 0.947262E+000
 0.950400E+000
 0.953790E+000
 0.957456E+000
 0.961428E+000
 0.965741E+000
 0.970431E+000
 0.975542E+000
 0.981123E+000
 0.987229E+000
 0.993924E+000
 0.100128E+001
 0.100937E+001
 0.101829E+001
 0.102813E+001
 0.103898E+001
 0.105097E+001
 0.106416E+001
 0.107864E+001
 0.109438E+001
 0.111132E+001
 0.112907E+001
 0.114686E+001
 0.116326E+001
 0.117490E+001
 0.117635E+001
 0.115560E+001
 0.109000E+001
 0.936784E+000
 0.640258E+000
 0.941129E+000
 0.943792E+000
 0.946658E+000
 0.949748E+000
 0.953081E+000
 0.956686E+000
 0.960588E+000
 0.964822E+000
 0.969423E+000
 0.974435E+000
 0.979903E+000
 0.985881E+000
 0.992429E+000
 0.999615E+000
 0.100751E+001
 0.101621E+001
 0.102578E+001
 0.103633E+001
 0.104794E+001
 0.106069E+001
 0.107463E+001
 0.108972E+001
 0.110585E+001
 0.112256E+001
 0.113913E+001
 0.115376E+001
 0.116331E+001
 0.116179E+001
 0.113686E+001
 0.106562E+001
 0.902022E+000
 0.579839E+000
 0.940177E+000
 0.942779E+000
 0.945578E+000
 0.948592E+000
 0.951844E+000
 0.955357E+000
 0.959159E+000
 0.963281E+000
 0.967758E+000
 0.972630E+000
 0.977943E+000
 0.983747E+000
 0.990099E+000
 0.997061E+000
 0.100471E+001
 0.101311E+001
 0.102235E+001
 0.103251E+001
 0.104367E+001
 0.105589E+001
 0.106919E+001
 0.108354E+001
 0.109873E+001
 0.111434E+001
 0.112947E+001
 0.114232E+001
 0.114963E+001
 0.114503E+001
 0.111610E+001
 0.103935E+001
 0.866382E+000
 0.521276E+000
 0.938736E+000
 0.941253E+000
 0.943958E+000
 0.946871E+000
 0.950011E+000
 0.953402E+000
 0.957069E+000
 0.961042E+000
 0.965356E+000
 0.970047E+000
 0.975159E+000
 0.980739E+000
 0.986841E+000
 0.993524E+000
 0.100085E+001
 0.100890E+001
 0.101773E+001
 0.102743E+001
 0.103805E+001
 0.104965E+001
 0.106222E+001
 0.107570E+001
 0.108987E+001
 0.110424E+001
 0.111783E+001
 0.112881E+001
 0.113377E+001
 0.112609E+001
 0.109330E+001
 0.101128E+001
 0.830152E+000
 0.465247E+000
 0.936746E+000
 0.939151E+000
 0.941736E+000
 0.944517E+000
 0.947513E+000
 0.950747E+000
 0.954242E+000
 0.958028E+000
 0.962136E+000
 0.966600E+000
 0.971463E+000
 0.976766E+000
 0.982562E+000
 0.988904E+000
 0.995851E+000
 0.100347E+001
 0.101182E+001
 0.102097E+001
 0.103096E+001
 0.104184E+001
 0.105359E+001
 0.106610E+001
 0.107913E+001
 0.109215E+001
 0.110413E+001
 0.111315E+001
 0.111567E+001
 0.110495E+001
 0.106844E+001
 0.981507E+000
 0.793629E+000
 0.412674E+000
 0.934146E+000
 0.936412E+000
 0.938845E+000
 0.941462E+000
 0.944280E+000
 0.947320E+000
 0.950604E+000
 0.954160E+000
 0.958016E+000
 0.962206E+000
 0.966766E+000
 0.971737E+000
 0.977166E+000
 0.983102E+000
 0.989599E+000
 0.996713E+000
 0.100450E+001
 0.101302E+001
 0.102230E+001
 0.103237E+001
 0.104319E+001
 0.105463E+001
 0.106642E+001
 0.107799E+001
 0.108825E+001
 0.109524E+001
 0.109529E+001
 0.108161E+001
 0.104153E+001
 0.950196E+000
 0.757120E+000
 0.364828E+000
 0.930876E+000
 0.932972E+000
 0.935221E+000
 0.937639E+000
 0.940241E+000
 0.943047E+000
 0.946078E+000
 0.949359E+000
 0.952915E+000
 0.956778E+000
 0.960981E+000
 0.965561E+000
 0.970560E+000
 0.976023E+000
 0.981997E+000
 0.988532E+000
 0.995676E+000
 0.100347E+001
 0.101195E+001
 0.102111E+001
 0.103090E+001
 0.104118E+001
 0.105163E+001
 0.106166E+001
 0.107013E+001
 0.107503E+001
 0.107260E+001
 0.105605E+001
 0.101263E+001
 0.917513E+000
 0.720938E+000
 0.323439E+000
 0.926876E+000
 0.928769E+000
 0.930799E+000
 0.932980E+000
 0.935328E+000
 0.937858E+000
 0.940591E+000
 0.943548E+000
 0.946754E+000
 0.950235E+000
 0.954023E+000
 0.958150E+000
 0.962654E+000
 0.967572E+000
 0.972949E+000
 0.978825E+000
 0.985241E+000
 0.992229E+000
 0.999809E+000
 0.100797E+001
 0.101664E+001
 0.102565E+001
 0.103467E+001
 0.104307E+001
 0.104969E+001
 0.105246E+001
 0.104759E+001
 0.102828E+001
 0.981807E+000
 0.883639E+000
 0.685408E+000
 0.290727E+000
 0.922090E+000
 0.923745E+000
 0.925519E+000
 0.927425E+000
 0.929475E+000
 0.931686E+000
 0.934073E+000
 0.936657E+000
 0.939458E+000
 0.942502E+000
 0.945814E+000
 0.949423E+000
 0.953362E+000
 0.957665E+000
 0.962366E+000
 0.967502E+000
 0.973104E+000
 0.979197E+000
 0.985786E+000
 0.992847E+000
 0.100030E+001
 0.100795E+001
 0.101546E+001
 0.102216E+001
 0.102688E+001
 0.102750E+001
 0.102026E+001
 0.998344E+000
 0.949168E+000
 0.848765E+000
 0.650871E+000
 0.269136E+000
 0.916468E+000
 0.917848E+000
 0.919327E+000
 0.920916E+000
 0.922626E+000
 0.924470E+000
 0.926463E+000
 0.928621E+000
 0.930963E+000
 0.933509E+000
 0.936282E+000
 0.939308E+000
 0.942612E+000
 0.946223E+000
 0.950172E+000
 0.954485E+000
 0.959187E+000
 0.964292E+000
 0.969799E+000
 0.975670E+000
 0.981810E+000
 0.988022E+000
 0.993936E+000
 0.998879E+000
 0.100166E+001
 0.100015E+001
 0.990603E+000
 0.966284E+000
 0.914828E+000
 0.813091E+000
 0.617678E+000
 0.260546E+000
 0.909966E+000
 0.911034E+000
 0.912178E+000
 0.913408E+000
 0.914732E+000
 0.916161E+000
 0.917709E+000
 0.919387E+000
 0.921212E+000
 0.923201E+000
 0.925371E+000
 0.927744E+000
 0.930342E+000
 0.933186E+000
 0.936301E+000
 0.939707E+000
 0.943422E+000
 0.947452E+000
 0.951784E+000
 0.956373E+000
 0.961114E+000
 0.965800E+000
 0.970049E+000
 0.973182E+000
 0.973998E+000
 0.970394E+000
 0.958659E+000
 0.932174E+000
 0.878919E+000
 0.776823E+000
 0.586186E+000
 0.265219E+000
 0.902554E+000
 0.903271E+000
 0.904039E+000
 0.904865E+000
 0.905758E+000
 0.906724E+000
 0.907774E+000
 0.908918E+000
 0.910168E+000
 0.911537E+000
 0.913040E+000
 0.914691E+000
 0.916509E+000
 0.918509E+000
 0.920710E+000
 0.923126E+000
 0.925766E+000
 0.928630E+000
 0.931697E+000
 0.934916E+000
 0.938172E+000
 0.941254E+000
 0.943776E+000
 0.945059E+000
 0.943913E+000
 0.938264E+000
 0.924478E+000
 0.896106E+000
 0.841587E+000
 0.740174E+000
 0.556752E+000
 0.281432E+000
 0.894218E+000
 0.894543E+000
 0.894894E+000
 0.895273E+000
 0.895687E+000
 0.896141E+000
 0.896641E+000
 0.897195E+000
 0.897812E+000
 0.898499E+000
 0.899268E+000
 0.900129E+000
 0.901093E+000
 0.902172E+000
 0.903378E+000
 0.904719E+000
 0.906198E+000
 0.907807E+000
 0.909522E+000
 0.911283E+000
 0.912973E+000
 0.914379E+000
 0.915118E+000
 0.914521E+000
 0.911424E+000
 0.903804E+000
 0.888131E+000
 0.858189E+000
 0.802988E+000
 0.703361E+000
 0.529722E+000
 0.306282E+000
 0.884960E+000
 0.884855E+000
 0.884746E+000
 0.884635E+000
 0.884524E+000
 0.884417E+000
 0.884316E+000
 0.884225E+000
 0.884150E+000
 0.884094E+000
 0.884063E+000
 0.884064E+000
 0.884102E+000
 0.884184E+000
 0.884315E+000
 0.884497E+000
 0.884729E+000
 0.884997E+000
 0.885271E+000
 0.885489E+000
 0.885535E+000
 0.885198E+000
 0.884105E+000
 0.881609E+000
 0.876585E+000
 0.867084E+000
 0.849714E+000
 0.818552E+000
 0.763290E+000
 0.666608E+000
 0.505410E+000
 0.336803E+000
 0.874808E+000
 0.874235E+000
 0.873627E+000
 0.872982E+000
 0.872302E+000
 0.871585E+000
 0.870832E+000
 0.870044E+000
 0.869219E+000
 0.868360E+000
 0.867466E+000
 0.866539E+000
 0.865580E+000
 0.864589E+000
 0.863565E+000
 0.862507E+000
 0.861407E+000
 0.860248E+000
 0.858996E+000
 0.857589E+000
 0.855915E+000
 0.853770E+000
 0.850802E+000
 0.846395E+000
 0.839478E+000
 0.828199E+000
 0.809342E+000
 0.777337E+000
 0.722671E+000
 0.630142E+000
 0.484078E+000
 0.370569E+000
 0.863817E+000
 0.862740E+000
 0.861594E+000
 0.860376E+000
 0.859083E+000
 0.857712E+000
 0.856260E+000
 0.854722E+000
 0.853094E+000
 0.851374E+000
 0.849555E+000
 0.847636E+000
 0.845609E+000
 0.843472E+000
 0.841219E+000
 0.838840E+000
 0.836326E+000
 0.833654E+000
 0.830793E+000
 0.827680E+000
 0.824211E+000
 0.820198E+000
 0.815313E+000
 0.808986E+000
 0.800218E+000
 0.787276E+000
 0.767158E+000
 0.734706E+000
 0.681320E+000
 0.594195E+000
 0.465912E+000
 0.405790E+000
 0.852075E+000
 0.850460E+000
 0.848742E+000
 0.846914E+000
 0.844970E+000
 0.842903E+000
 0.840707E+000
 0.838373E+000
 0.835892E+000
 0.833256E+000
 0.830456E+000
 0.827482E+000
 0.824324E+000
 0.820972E+000
 0.817414E+000
 0.813639E+000
 0.809630E+000
 0.805365E+000
 0.800811E+000
 0.795912E+000
 0.790574E+000
 0.784630E+000
 0.777789E+000
 0.769534E+000
 0.758957E+000
 0.744473E+000
 0.723328E+000
 0.690839E+000
 0.639438E+000
 0.559003E+000
 0.450998E+000
 0.441188E+000
 0.839703E+000
 0.837523E+000
 0.835203E+000
 0.832733E+000
 0.830104E+000
 0.827306E+000
 0.824327E+000
 0.821155E+000
 0.817777E+000
 0.814178E+000
 0.810345E+000
 0.806261E+000
 0.801912E+000
 0.797281E+000
 0.792351E+000
 0.787106E+000
 0.781526E+000
 0.775588E+000
 0.769260E+000
 0.762496E+000
 0.755214E+000
 0.747276E+000
 0.738433E+000
 0.728238E+000
 0.715893E+000
 0.699983E+000
 0.678046E+000
 0.645938E+000
 0.597239E+000
 0.524806E+000
 0.439303E+000
 0.475848E+000
 0.826864E+000
 0.824097E+000
 0.821152E+000
 0.818015E+000
 0.814675E+000
 0.811117E+000
 0.807325E+000
 0.803281E+000
 0.798968E+000
 0.794367E+000
 0.789457E+000
 0.784216E+000
 0.778624E+000
 0.772657E+000
 0.766295E+000
 0.759514E+000
 0.752292E+000
 0.744606E+000
 0.736426E+000
 0.727716E+000
 0.718413E+000
 0.708411E+000
 0.697515E+000
 0.685359E+000
 0.671274E+000
 0.654045E+000
 0.631543E+000
 0.600229E+000
 0.554959E+000
 0.491852E+000
 0.430672E+000
 0.509099E+000
 0.813761E+000
 0.810392E+000
 0.806807E+000
 0.802988E+000
 0.798919E+000
 0.794581E+000
 0.789954E+000
 0.785016E+000
 0.779743E+000
 0.774110E+000
 0.768090E+000
 0.761656E+000
 0.754780E+000
 0.747433E+000
 0.739586E+000
 0.731213E+000
 0.722287E+000
 0.712783E+000
 0.702677E+000
 0.691941E+000
 0.680537E+000
 0.668396E+000
 0.655382E+000
 0.641228E+000
 0.625412E+000
 0.606950E+000
 0.584092E+000
 0.553975E+000
 0.512865E+000
 0.460393E+000
 0.424825E+000
 0.540440E+000
 0.800634E+000
 0.796661E+000
 0.792430E+000
 0.787924E+000
 0.783120E+000
 0.777996E+000
 0.772526E+000
 0.766682E+000
 0.760436E+000
 0.753756E+000
 0.746609E+000
 0.738961E+000
 0.730776E+000
 0.722017E+000
 0.712650E+000
 0.702642E+000
 0.691961E+000
 0.680580E+000
 0.668480E+000
 0.655644E+000
 0.642057E+000
 0.627691E+000
 0.612480E+000
 0.596268E+000
 0.578702E+000
 0.559063E+000
 0.536027E+000
 0.507487E+000
 0.471262E+000
 0.430695E+000
 0.421389E+000
 0.569484E+000
 0.787763E+000
 0.783193E+000
 0.778326E+000
 0.773140E+000
 0.767610E+000
 0.761707E+000
 0.755400E+000
 0.748658E+000
 0.741444E+000
 0.733720E+000
 0.725447E+000
 0.716582E+000
 0.707082E+000
 0.696902E+000
 0.686000E+000
 0.674333E+000
 0.661865E+000
 0.648566E+000
 0.634418E+000
 0.619415E+000
 0.603564E+000
 0.586882E+000
 0.569381E+000
 0.551023E+000
 0.531650E+000
 0.510844E+000
 0.487765E+000
 0.461149E+000
 0.430523E+000
 0.403039E+000
 0.419918E+000
 0.595926E+000
 0.775458E+000
 0.770313E+000
 0.764833E+000
 0.758991E+000
 0.752758E+000
 0.746101E+000
 0.738984E+000
 0.731369E+000
 0.723213E+000
 0.714471E+000
 0.705097E+000
 0.695039E+000
 0.684245E+000
 0.672661E+000
 0.660235E+000
 0.646916E+000
 0.632658E+000
 0.617426E+000
 0.601201E+000
 0.583982E+000
 0.565800E+000
 0.546714E+000
 0.526813E+000
 0.506195E+000
 0.484913E+000
 0.462894E+000
 0.439846E+000
 0.415458E+000
 0.391113E+000
 0.377722E+000
 0.419937E+000
 0.619523E+000
 0.764050E+000
 0.758366E+000
 0.752312E+000
 0.745857E+000
 0.738965E+000
 0.731599E+000
 0.723719E+000
 0.715280E+000
 0.706233E+000
 0.696526E+000
 0.686104E+000
 0.674908E+000
 0.662875E+000
 0.649941E+000
 0.636042E+000
 0.621115E+000
 0.605105E+000
 0.587967E+000
 0.569675E+000
 0.550232E+000
 0.529680E+000
 0.508120E+000
 0.485716E+000
 0.462701E+000
 0.439367E+000
 0.416021E+000
 0.393004E+000
 0.371083E+000
 0.353643E+000
 0.355063E+000
 0.420971E+000
 0.640078E+000
 0.753875E+000
 0.747707E+000
 0.741137E+000
 0.734127E+000
 0.726640E+000
 0.718634E+000
 0.710062E+000
 0.700875E+000
 0.691017E+000
 0.680429E+000
 0.669048E+000
 0.656805E+000
 0.643628E+000
 0.629441E+000
 0.614169E+000
 0.597734E+000
 0.580067E+000
 0.561110E+000
 0.540826E+000
 0.519210E+000
 0.496314E+000
 0.472261E+000
 0.447284E+000
 0.421750E+000
 0.396193E+000
 0.371347E+000
 0.348273E+000
 0.328968E+000
 0.318931E+000
 0.335402E+000
 0.422573E+000
 0.657431E+000
 0.745261E+000
 0.738680E+000
 0.731668E+000
 0.724185E+000
 0.716188E+000
 0.707632E+000
 0.698466E+000
 0.688633E+000
 0.678075E+000
 0.666724E+000
 0.654509E+000
 0.641354E+000
 0.627175E+000
 0.611887E+000
 0.595398E+000
 0.577620E+000
 0.558465E+000
 0.537859E+000
 0.515747E+000
 0.492112E+000
 0.466998E+000
 0.440541E+000
 0.413019E+000
 0.384913E+000
 0.356995E+000
 0.330451E+000
 0.307150E+000
 0.290476E+000
 0.288078E+000
 0.319090E+000
 0.424351E+000
 0.671459E+000
 0.738504E+000
 0.731598E+000
 0.724236E+000
 0.716378E+000
 0.707977E+000
 0.698985E+000
 0.689345E+000
 0.678999E+000
 0.667881E+000
 0.655919E+000
 0.643036E+000
 0.629145E+000
 0.614157E+000
 0.597973E+000
 0.580492E+000
 0.561609E+000
 0.541223E+000
 0.519238E+000
 0.495581E+000
 0.470215E+000
 0.443166E+000
 0.414565E+000
 0.384710E+000
 0.354163E+000
 0.323898E+000
 0.295536E+000
 0.271803E+000
 0.257576E+000
 0.262522E+000
 0.306472E+000
 0.425978E+000
 0.682062E+000
 0.733852E+000
 0.726719E+000
 0.719116E+000
 0.710997E+000
 0.702316E+000
 0.693020E+000
 0.683051E+000
 0.672347E+000
 0.660838E+000
 0.648449E+000
 0.635096E+000
 0.620689E+000
 0.605129E+000
 0.588311E+000
 0.570124E+000
 0.550452E+000
 0.529178E+000
 0.506193E+000
 0.481405E+000
 0.454754E+000
 0.426247E+000
 0.395998E+000
 0.364304E+000
 0.331765E+000
 0.299494E+000
 0.269465E+000
 0.245183E+000
 0.232928E+000
 0.243981E+000
 0.297857E+000
 0.427204E+000
 0.689169E+000
 0.731479E+000
 0.724231E+000
 0.716504E+000
 0.708252E+000
 0.699427E+000
 0.689975E+000
 0.679838E+000
 0.668949E+000
 0.657240E+000
 0.644630E+000
 0.631035E+000
 0.616360E+000
 0.600505E+000
 0.583358E+000
 0.564803E+000
 0.544718E+000
 0.522978E+000
 0.499466E+000
 0.474076E+000
 0.446737E+000
 0.417441E+000
 0.386286E+000
 0.353561E+000
 0.319878E+000
 0.286413E+000
 0.255340E+000
 0.230646E+000
 0.219521E+000
 0.234155E+000
 0.293485E+000
 0.427859E+000
 0.692735E+000
 0.731479E+000
 0.724231E+000
 0.716504E+000
 0.708252E+000
 0.699427E+000
 0.689975E+000
 0.679838E+000
 0.668949E+000
 0.657240E+000
 0.644630E+000
 0.631035E+000
 0.616360E+000
 0.600505E+000
 0.583358E+000
 0.564803E+000
 0.544718E+000
 0.522978E+000
 0.499466E+000
 0.474076E+000
 0.446737E+000
 0.417441E+000
 0.386286E+000
 0.353561E+000
 0.319878E+000
 0.286413E+000
 0.255340E+000
 0.230646E+000
 0.219521E+000
 0.234155E+000
 0.293485E+000
 0.427859E+000
 0.692735E+000
 0.733852E+000
 0.726719E+000
 0.719116E+000
 0.710997E+000
 0.702316E+000
 0.693020E+000
 0.683051E+000
 0.672347E+000
 0.660838E+000
 0.648449E+000
 0.635096E+000
 0.620689E+000
 0.605129E+000
 0.588311E+000
 0.570124E+000
 0.550452E+000
 0.529178E+000
 0.506193E+000
 0.481405E+000
 0.454754E+000
 0.426247E+000
 0.395998E+000
 0.364304E+000
 0.331765E+000
 0.299494E+000
 0.269465E+000
 0.245183E+000
 0.232928E+000
 0.243981E+000
 0.297857E+000
 0.427204E+000
 0.689169E+000
 0.738504E+000
 0.731598E+000
 0.724236E+000
 0.716378E+000
 0.707977E+000
 0.698985E+000
 0.689345E+000
 0.678999E+000
 0.667881E+000
 0.655919E+000
 0.643036E+000
 0.629145E+000
 0.614157E+000
 0.597973E+000
 0.580492E+000
 0.561609E+000
 0.541223E+000
 0.519238E+000
 0.495581E+000
 0.470215E+000
 0.443166E+000
 0.414565E+000
 0.384710E+000
 0.354163E+000
 0.323898E+000
 0.295536E+000
 0.271803E+000
 0.257576E+000
 0.262522E+000
 0.306472E+000
 0.425978E+000
 0.682062E+000
 0.745261E+000
 0.738680E+000
 0.731668E+000
 0.724185E+000
 0.716188E+000
 0.707632E+000
 0.698466E+000
 0.688633E+000
 0.678075E+000
 0.666724E+000
 0.654509E+000
 0.641354E+000
 0.627175E+000
 0.611887E+000
 0.595398E+000
 0.577620E+000
 0.558465E+000
 0.537859E+000
 0.515747E+000
 0.492112E+000
 0.466998E+000
 0.440541E+000
 0.413019E+000
 0.384913E+000
 0.356995E+000
 0.330451E+000
 0.307150E+000
 0.290476E+000
 0.288078E+000
 0.319090E+000
 0.424351E+000
 0.671459E+000
 0.753875E+000
 0.747707E+000
 0.741137E+000
 0.734127E+000
 0.726640E+000
 0.718634E+000
 0.710062E+000
 0.700875E+000
 0.691017E+000
 0.680429E+000
 0.669048E+000
 0.656805E+000
 0.643628E+000
 0.629441E+000
 0.614169E+000
 0.597734E+000
 0.580067E+000
 0.561110E+000
 0.540826E+000
 0.519210E+000
 0.496314E+000
 0.472261E+000
 0.447284E+000
 0.421750E+000
 0.396193E+000
 0.371347E+000
 0.348273E+000
 0.328968E+000
 0.318931E+000
 0.335402E+000
 0.422573E+000
 0.657431E+000
 0.764050E+000
 0.758366E+000
 0.752312E+000
 0.745857E+000
 0.738965E+000
 0.731599E+000
 0.723719E+000
 0.715280E+000
 0.706233E+000
 0.696526E+000
 0.686104E+000
 0.674908E+000
 0.662875E+000
 0.649941E+000
 0.636042E+000
 0.621115E+000
 0.605105E+000
 0.587967E+000
 0.569675E+000
 0.550232E+000
 0.529680E+000
 0.508120E+000
 0.485716E+000
 0.462701E+000
 0.439367E+000
 0.416021E+000
 0.393004E+000
 0.371083E+000
 0.353643E+000
 0.355063E+000
 0.420971E+000
 0.640078E+000
 0.775458E+000
 0.770313E+000
 0.764833E+000
 0.758991E+000
 0.752758E+000
 0.746101E+000
 0.738984E+000
 0.731369E+000
 0.723213E+000
 0.714471E+000
 0.705097E+000
 0.695039E+000
 0.684245E+000
 0.672661E+000
 0.660235E+000
 0.646916E+000
 0.632658E+000
 0.617426E+000
 0.601201E+000
 0.583982E+000
 0.565800E+000
 0.546714E+000
 0.526813E+000
 0.506195E+000
 0.484913E+000
 0.462894E+000
 0.439846E+000
 0.415458E+000
 0.391113E+000
 0.377722E+000
 0.419937E+000
 0.619523E+000
 0.787763E+000
 0.783193E+000
 0.778326E+000
 0.773140E+000
 0.767610E+000
 0.761707E+000
 0.755400E+000
 0.748658E+000
 0.741444E+000
 0.733720E+000
 0.725447E+000
 0.716582E+000
 0.707082E+000
 0.696902E+000
 0.686000E+000
 0.674333E+000
 0.661865E+000
 0.648566E+000
 0.634418E+000
 0.619415E+000
 0.603564E+000
 0.586882E+000
 0.569381E+000
 0.551023E+000
 0.531650E+000
 0.510844E+000
 0.487765E+000
 0.461149E+000
 0.430523E+000
 0.403039E+000
 0.419918E+000
 0.595926E+000
 0.800634E+000
 0.796661E+000
 0.792430E+000
 0.787924E+000
 0.783120E+000
 0.777996E+000
 0.772526E+000
 0.766682E+000
 0.760436E+000
 0.753756E+000
 0.746609E+000
 0.738961E+000
 0.730776E+000
 0.722017E+000
 0.712650E+000
 0.702642E+000
 0.691961E+000
 0.680580E+000
 0.668480E+000
 0.655644E+000
 0.642057E+000
 0.627691E+000
 0.612480E+000
 0.596268E+000
 0.578702E+000
 0.559063E+000
 0.536027E+000
 0.507487E+000
 0.471262E+000
 0.430695E+000
 0.421389E+000
 0.569484E+000
 0.813761E+000
 0.810392E+000
 0.806807E+000
 0.802988E+000
 0.798919E+000
 0.794581E+000
 0.789954E+000
 0.785016E+000
 0.779743E+000
 0.774110E+000
 0.768090E+000
 0.761656E+000
 0.754780E+000
 0.747433E+000
 0.739586E+000
 0.731213E+000
 0.722287E+000
 0.712783E+000
 0.702677E+000
 0.691941E+000
 0.680537E+000
 0.668396E+000
 0.655382E+000
 0.641228E+000
 0.625412E+000
 0.606950E+000
 0.584092E+000
 0.553975E+000
 0.512865E+000
 0.460393E+000
 0.424825E+000
 0.540440E+000
 0.826864E+000
 0.824097E+000
 0.821152E+000
 0.818015E+000
 0.814675E+000
 0.811117E+000
 0.807325E+000
 0.803281E+000
 0.798968E+000
 0.794367E+000
 0.789457E+000
 0.784216E+000
 0.778624E+000
 0.772657E+000
 0.766295E+000
 0.759514E+000
 0.752292E+000
 0.744606E+000
 0.736426E+000
 0.727716E+000
 0.718413E+000
 0.708411E+000
 0.697515E+000
 0.685359E+000
 0.671274E+000
 0.654045E+000
 0.631543E+000
 0.600229E+000
 0.554959E+000
 0.491852E+000
 0.430672E+000
 0.509099E+000
 0.839703E+000
 0.837523E+000
 0.835203E+000
 0.832733E+000
 0.830104E+000
 0.827306E+000
 0.824327E+000
 0.821155E+000
 0.817777E+000
 0.814178E+000
 0.810345E+000
 0.806261E+000
 0.801912E+000
 0.797281E+000
 0.792351E+000
 0.787106E+000
 0.781526E+000
 0.775588E+000
 0.769260E+000
 0.762496E+000
 0.755214E+000
 0.747276E+000
 0.738433E+000
 0.728238E+000
 0.715893E+000
 0.699983E+000
 0.678046E+000
 0.645938E+000
 0.597239E+000
 0.524806E+000
 0.439303E+000
 0.475848E+000
 0.852075E+000
 0.850460E+000
 0.848742E+000
 0.846914E+000
 0.844970E+000
 0.842903E+000
 0.840707E+000
 0.838373E+000
 0.835892E+000
 0.833256E+000
 0.830456E+000
 0.827482E+000
 0.824324E+000
 0.820972E+000
 0.817414E+000
 0.813639E+000
 0.809630E+000
 0.805365E+000
 0.800811E+000
 0.795912E+000
 0.790574E+000
 0.784630E+000
 0.777789E+000
 0.769534E+000
 0.758957E+000
 0.744473E+000
 0.723328E+000
 0.690839E+000
 0.639438E+000
 0.559003E+000
 0.450998E+000
 0.441188E+000
 0.863817E+000
 0.862740E+000
 0.861594E+000
 0.860376E+000
 0.859083E+000
 0.857712E+000
 0.856260E+000
 0.854722E+000
 0.853094E+000
 0.851374E+000
 0.849555E+000
 0.847636E+000
 0.845609E+000
 0.843472E+000
 0.841219E+000
 0.838840E+000
 0.836326E+000
 0.833654E+000
 0.830793E+000
 0.827680E+000
 0.824211E+000
 0.820198E+000
 0.815313E+000
 0.808986E+000
 0.800218E+000
 0.787276E+000
 0.767158E+000
 0.734706E+000
 0.681320E+000
 0.594195E+000
 0.465912E+000
 0.405790E+000
 0.874808E+000
 0.874235E+000
 0.873627E+000
 0.872982E+000
 0.872302E+000
 0.871585E+000
 0.870832E+000
 0.870044E+000
 0.869219E+000
 0.868360E+000
 0.867466E+000
 0.866539E+000
 0.865580E+000
 0.864589E+000
 0.863565E+000
 0.862507E+000
 0.861407E+000
 0.860248E+000
 0.858996E+000
 0.857589E+000
 0.855915E+000
 0.853770E+000
 0.850802E+000
 0.846395E+000
 0.839478E+000
 0.828199E+000
 0.809342E+000
 0.777337E+000
 0.722671E+000
 0.630142E+000
 0.484078E+000
 0.370569E+000
 0.884960E+000
 0.884855E+000
 0.884746E+000
 0.884635E+000
 0.884524E+000
 0.884417E+000
 0.884316E+000
 0.884225E+000
 0.884150E+000
 0.884094E+000
 0.884063E+000
 0.884064E+000
 0.884102E+000
 0.884184E+000
 0.884315E+000
 0.884497E+000
 0.884729E+000
 0.884997E+000
 0.885271E+000
 0.885489E+000
 0.885535E+000
 0.885198E+000
 0.884105E+000
 0.881609E+000
 0.876585E+000
 0.867084E+000
 0.849714E+000
 0.818552E+000
 0.763290E+000
 0.666608E+000
 0.505410E+000
 0.336803E+000
 0.894218E+000
 0.894543E+000
 0.894894E+000
 0.895273E+000
 0.895687E+000
 0.896141E+000
 0.896641E+000
 0.897195E+000
 0.897812E+000
 0.898499E+000
 0.899268E+000
 0.900129E+000
 0.901093E+000
 0.902172E+000
 0.903378E+000
 0.904719E+000
 0.906198E+000
 0.907807E+000
 0.909522E+000
 0.911283E+000
 0.912973E+000
 0.914379E+000
 0.915118E+000
 0.914521E+000
 0.911424E+000
 0.903804E+000
 0.888131E+000
 0.858189E+000
 0.802988E+000
 0.703361E+000
 0.529722E+000
 0.306282E+000
 0.902554E+000
 0.903271E+000
 0.904039E+000
 0.904865E+000
 0.905758E+000
 0.906724E+000
 0.907774E+000
 0.908918E+000
 0.910168E+000
 0.911537E+000
 0.913040E+000
 0.914691E+000
 0.916509E+000
 0.918509E+000
 0.920710E+000
 0.923126E+000
 0.925766E+000
 0.928630E+000
 0.931697E+000
 0.934916E+000
 0.938172E+000
 0.941254E+000
 0.943776E+000
 0.945059E+000
 0.943913E+000
 0.938264E+000
 0.924478E+000
 0.896106E+000
 0.841587E+000
 0.740174E+000
 0.556752E+000
 0.281432E+000
 0.909966E+000
 0.911034E+000
 0.912178E+000
 0.913408E+000
 0.914732E+000
 0.916161E+000
 0.917709E+000
 0.919387E+000
 0.921212E+000
 0.923201E+000
 0.925371E+000
 0.927744E+000
 0.930342E+000
 0.933186E+000
 0.936301E+000
 0.939707E+000
 0.943422E+000
 0.947452E+000
 0.951784E+000
 0.956373E+000
 0.961114E+000
 0.965800E+000
 0.970049E+000
 0.973182E+000
 0.973998E+000
 0.970394E+000
 0.958659E+000
 0.932174E+000
 0.878919E+000
 0.776823E+000
 0.586186E+000
 0.265219E+000
 0.916468E+000
 0.917848E+000
 0.919327E+000
 0.920916E+000
 0.922626E+000
 0.924470E+000
 0.926463E+000
 0.928621E+000
 0.930963E+000
 0.933509E+000
 0.936282E+000
 0.939308E+000
 0.942612E+000
 0.946223E+000
 0.950172E+000
 0.954485E+000
 0.959187E+000
 0.964292E+000
 0.969799E+000
 0.975670E+000
 0.981810E+000
 0.988022E+000
 0.993936E+000
 0.998879E+000
 0.100166E+001
 0.100015E+001
 0.990603E+000
 0.966284E+000
 0.914828E+000
 0.813091E+000
 0.617678E+000
 0.260546E+000
 0.922090E+000
 0.923745E+000
 0.925519E+000
 0.927425E+000
 0.929475E+000
 0.931686E+000
 0.934073E+000
 0.936657E+000
 0.939458E+000
 0.942502E+000
 0.945814E+000
 0.949423E+000
 0.953362E+000
 0.957665E+000
 0.962366E+000
 0.967502E+000
 0.973104E+000
 0.979197E+000
 0.985786E+000
 0.992847E+000
 0.100030E+001
 0.100795E+001
 0.101546E+001
 0.102216E+001
 0.102688E+001
 0.102750E+001
 0.102026E+001
 0.998344E+000
 0.949168E+000
 0.848765E+000
 0.650871E+000
 0.269136E+000
 0.926876E+000
 0.928769E+000
 0.930799E+000
 0.932980E+000
 0.935328E+000
 0.937858E+000
 0.940591E+000
 0.943548E+000
 0.946754E+000
 0.950235E+000
 0.954023E+000
 0.958150E+000
 0.962654E+000
 0.967572E+000
 0.972949E+000
 0.978825E+000
 0.985241E+000
 0.992229E+000
 0.999809E+000
 0.100797E+001
 0.101664E+001
 0.102565E+001
 0.103467E+001
 0.104307E+001
 0.104969E+001
 0.105246E+001
 0.104759E+001
 0.102828E+001
 0.981807E+000
 0.883639E+000
 0.685408E+000
 0.290727E+000
 0.930876E+000
 0.932972E+000
 0.935221E+000
 0.937639E+000
 0.940241E+000
 0.943047E+000
 0.946078E+000
 0.949359E+000
 0.952915E+000
 0.956778E+000
 0.960981E+000
 0.965561E+000
 0.970560E+000
 0.976023E+000
 0.981997E+000
 0.988532E+000
 0.995676E+000
 0.100347E+001
 0.101195E+001
 0.102111E+001
 0.103090E+001
 0.104118E+001
 0.105163E+001
 0.106166E+001
 0.107013E+001
 0.107503E+001
 0.107260E+001
 0.105605E+001
 0.101263E+001
 0.917513E+000
 0.720938E+000
 0.323439E+000
 0.934146E+000
 0.936412E+000
 0.938845E+000
 0.941462E+000
 0.944280E+000
 0.947320E+000
 0.950604E+000
 0.954160E+000
 0.958016E+000
 0.962206E+000
 0.966766E+000
 0.971737E+000
 0.977166E+000
 0.983102E+000
 0.989599E+000
 0.996713E+000
 0.100450E+001
 0.101302E+001
 0.102230E+001
 0.103237E+001
 0.104319E+001
 0.105463E+001
 0.106642E+001
 0.107799E+001
 0.108825E+001
 0.109524E+001
 0.109529E+001
 0.108161E+001
 0.104153E+001
 0.950196E+000
 0.757120E+000
 0.364828E+000
 0.936746E+000
 0.939151E+000
 0.941736E+000
 0.944517E+000
 0.947513E+000
 0.950747E+000
 0.954242E+000
 0.958028E+000
 0.962136E+000
 0.966600E+000
 0.971463E+000
 0.976766E+000
 0.982562E+000
 0.988904E+000
 0.995851E+000
 0.100347E+001
 0.101182E+001
 0.102097E+001
 0.103096E+001
 0.104184E+001
 0.105359E+001
 0.106610E+001
 0.107913E+001
 0.109215E+001
 0.110413E+001
 0.111315E+001
 0.111567E+001
 0.110495E+001
 0.106844E+001
 0.981507E+000
 0.793629E+000
 0.412674E+000
 0.938736E+000
 0.941253E+000
 0.943958E+000
 0.946871E+000
 0.950011E+000
 0.953402E+000
 0.957069E+000
 0.961042E+000
 0.965356E+000
 0.970047E+000
 0.975159E+000
 0.980739E+000
 0.986841E+000
 0.993524E+000
 0.100085E+001
 0.100890E+001
 0.101773E+001
 0.102743E+001
 0.103805E+001
 0.104965E+001
 0.106222E+001
 0.107570E+001
 0.108987E+001
 0.110424E+001
 0.111783E+001
 0.112881E+001
 0.113377E+001
 0.112609E+001
 0.109330E+001
 0.101128E+001
 0.830152E+000
 0.465247E+000
 0.940177E+000
 0.942779E+000
 0.945578E+000
 0.948592E+000
 0.951844E+000
 0.955357E+000
 0.959159E+000
 0.963281E+000
 0.967758E+000
 0.972630E+000
 0.977943E+000
 0.983747E+000
 0.990099E+000
 0.997061E+000
 0.100471E+001
 0.101311E+001
 0.102235E+001
 0.103251E+001
 0.104367E+001
 0.105589E+001
 0.106919E+001
 0.108354E+001
 0.109873E+001
 0.111434E+001
 0.112947E+001
 0.114232E+001
 0.114963E+001
 0.114503E+001
 0.111610E+001
 0.103935E+001
 0.866382E+000
 0.521276E+000
 0.941129E+000
 0.943792E+000
 0.946658E+000
 0.949748E+000
 0.953081E+000
 0.956686E+000
 0.960588E+000
 0.964822E+000
 0.969423E+000
 0.974435E+000
 0.979903E+000
 0.985881E+000
 0.992429E+000
 0.999615E+000
 0.100751E+001
 0.101621E+001
 0.102578E+001
 0.103633E+001
 0.104794E+001
 0.106069E+001
 0.107463E+001
 0.108972E+001
 0.110585E+001
 0.112256E+001
 0.113913E+001
 0.115376E+001
 0.116331E+001
 0.116179E+001
 0.113686E+001
 0.106562E+001
 0.902022E+000
 0.579839E+000
 0.941648E+000
 0.944351E+000
 0.947262E+000
 0.950400E+000
 0.953790E+000
 0.957456E+000
 0.961428E+000
 0.965741E+000
 0.970431E+000
 0.975542E+000
 0.981123E+000
 0.987229E+000
 0.993924E+000
 0.100128E+001
 0.100937E+001
 0.101829E+001
 0.102813E+001
 0.103898E+001
 0.105097E+001
 0.106416E+001
 0.107864E+001
 0.109438E+001
 0.111132E+001
 0.112907E+001
 0.114686E+001
 0.116326E+001
 0.117490E+001
 0.117635E+001
 0.115560E+001
 0.109000E+001
 0.936784E+000
 0.640258E+000
 0.941789E+000
 0.944512E+000
 0.947446E+000
 0.950612E+000
 0.954033E+000
 0.957735E+000
 0.961749E+000
 0.966109E+000
 0.970855E+000
 0.976030E+000
 0.981685E+000
 0.987878E+000
 0.994675E+000
 0.100215E+001
 0.101038E+001
 0.101946E+001
 0.102950E+001
 0.104060E+001
 0.105287E+001
 0.106643E+001
 0.108132E+001
 0.109766E+001
 0.111524E+001
 0.113395E+001
 0.115286E+001
 0.117079E+001
 0.118463E+001
 0.118867E+001
 0.117233E+001
 0.111253E+001
 0.970383E+000
 0.702073E+000
 0.941603E+000
 0.944329E+000
 0.947267E+000
 0.950440E+000
 0.953870E+000
 0.957584E+000
 0.961615E+000
 0.965995E+000
 0.970767E+000
 0.975973E+000
 0.981668E+000
 0.987909E+000
 0.994764E+000
 0.100231E+001
 0.101063E+001
 0.101982E+001
 0.103000E+001
 0.104127E+001
 0.105375E+001
 0.106758E+001
 0.108284E+001
 0.109960E+001
 0.111782E+001
 0.113721E+001
 0.115730E+001
 0.117646E+001
 0.119244E+001
 0.119909E+001
 0.118674E+001
 0.113337E+001
 0.100271E+001
 0.764787E+000
 0.941139E+000
 0.943852E+000
 0.946777E+000
 0.949937E+000
 0.953356E+000
 0.957062E+000
 0.961086E+000
 0.965463E+000
 0.970233E+000
 0.975442E+000
 0.981143E+000
 0.987397E+000
 0.994273E+000
 0.100185E+001
 0.101021E+001
 0.101946E+001
 0.102972E+001
 0.104109E+001
 0.105373E+001
 0.106774E+001
 0.108327E+001
 0.110037E+001
 0.111908E+001
 0.113913E+001
 0.116010E+001
 0.118059E+001
 0.119826E+001
 0.120769E+001
 0.119911E+001
 0.115200E+001
 0.103380E+001
 0.829931E+000
 0.942015E+000
 0.944762E+000
 0.947731E+000
 0.950941E+000
 0.954415E+000
 0.958181E+000
 0.962269E+000
 0.966716E+000
 0.971563E+000
 0.976856E+000
 0.982649E+000
 0.989003E+000
 0.995987E+000
 0.100368E+001
 0.101218E+001
 0.102158E+001
 0.103199E+001
 0.104355E+001
 0.105638E+001
 0.107062E+001
 0.108639E+001
 0.110379E+001
 0.112280E+001
 0.114329E+001
 0.116465E+001
 0.118586E+001
 0.120413E+001
 0.121512E+001
 0.120812E+001
 0.116623E+001
 0.105696E+001
 0.897210E+000
 0.944325E+000
 0.947177E+000
 0.950255E+000
 0.953581E+000
 0.957178E+000
 0.961075E+000
 0.965303E+000
 0.969899E+000
 0.974904E+000
 0.980365E+000
 0.986338E+000
 0.992882E+000
 0.100007E+001
 0.100798E+001
 0.101670E+001
 0.102633E+001
 0.103700E+001
 0.104880E+001
 0.106189E+001
 0.107638E+001
 0.109241E+001
 0.111001E+001
 0.112924E+001
 0.114977E+001
 0.117130E+001
 0.119224E+001
 0.121065E+001
 0.122118E+001
 0.121487E+001
 0.117567E+001
 0.107575E+001
 0.963623E+000
 0.946506E+000
 0.949455E+000
 0.952634E+000
 0.956066E+000
 0.959776E+000
 0.963791E+000
 0.968144E+000
 0.972873E+000
 0.978019E+000
 0.983630E+000
 0.989759E+000
 0.996470E+000
 0.100383E+001
 0.101192E+001
 0.102084E+001
 0.103067E+001
 0.104153E+001
 0.105355E+001
 0.106683E+001
 0.108152E+001
 0.109769E+001
 0.111547E+001
 0.113474E+001
 0.115538E+001
 0.117675E+001
 0.119762E+001
 0.121584E+001
 0.122604E+001
 0.122095E+001
 0.118380E+001
 0.109771E+001
 0.102797E+001
 0.948525E+000
 0.951559E+000
 0.954828E+000
 0.958354E+000
 0.962162E+000
 0.966281E+000
 0.970743E+000
 0.975587E+000
 0.980854E+000
 0.986591E+000
 0.992854E+000
 0.999704E+000
 0.100721E+001
 0.101545E+001
 0.102452E+001
 0.103450E+001
 0.104552E+001
 0.105768E+001
 0.107111E+001
 0.108591E+001
 0.110220E+001
 0.112002E+001
 0.113930E+001
 0.115989E+001
 0.118105E+001
 0.120186E+001
 0.121955E+001
 0.123011E+001
 0.122552E+001
 0.119230E+001
 0.112069E+001
 0.109260E+001
 0.950339E+000
 0.953447E+000
 0.956792E+000
 0.960397E+000
 0.964288E+000
 0.968494E+000
 0.973047E+000
 0.977984E+000
 0.983349E+000
 0.989189E+000
 0.995557E+000
 0.100252E+001
 0.101013E+001
 0.101849E+001
 0.102766E+001
 0.103776E+001
 0.104888E+001
 0.106113E+001
 0.107464E+001
 0.108949E+001
 0.110581E+001
 0.112359E+001
 0.114283E+001
 0.116320E+001
 0.118423E+001
 0.120466E+001
 0.122216E+001
 0.123284E+001
 0.122924E+001
 0.120086E+001
 0.114485E+001
 0.115744E+001
 0.951905E+000
 0.955072E+000
 0.958478E+000
 0.962146E+000
 0.966102E+000
 0.970374E+000
 0.974996E+000
 0.980005E+000
 0.985443E+000
 0.991356E+000
 0.997800E+000
 0.100483E+001
 0.101252E+001
 0.102095E+001
 0.103019E+001
 0.104035E+001
 0.105152E+001
 0.106381E+001
 0.107732E+001
 0.109217E+001
 0.110842E+001
 0.112612E+001
 0.114517E+001
 0.116534E+001
 0.118608E+001
 0.120616E+001
 0.122350E+001
 0.123435E+001
 0.123224E+001
 0.120951E+001
 0.117024E+001
 0.122236E+001
 0.953176E+000
 0.956385E+000
 0.959835E+000
 0.963547E+000
 0.967547E+000
 0.971864E+000
 0.976532E+000
 0.981586E+000
 0.987068E+000
 0.993025E+000
 0.999511E+000
 0.100658E+001
 0.101431E+001
 0.102276E+001
 0.103203E+001
 0.104219E+001
 0.105335E+001
 0.106561E+001
 0.107908E+001
 0.109384E+001
 0.110997E+001
 0.112748E+001
 0.114630E+001
 0.116619E+001
 0.118657E+001
 0.120633E+001
 0.122352E+001
 0.123471E+001
 0.123461E+001
 0.121832E+001
 0.119688E+001
 0.128720E+001
 0.954099E+000
 0.957334E+000
 0.960807E+000
 0.964542E+000
 0.968564E+000
 0.972903E+000
 0.977589E+000
 0.982660E+000
 0.988157E+000
 0.994125E+000
 0.100062E+001
 0.100769E+001
 0.101541E+001
 0.102384E+001
 0.103308E+001
 0.104320E+001
 0.105429E+001
 0.106647E+001
 0.107981E+001
 0.109442E+001
 0.111035E+001
 0.112761E+001
 0.114613E+001
 0.116567E+001
 0.118567E+001
 0.120511E+001
 0.122222E+001
 0.123401E+001
 0.123644E+001
 0.122740E+001
 0.122475E+001
 0.135174E+001
 0.954624E+000
 0.957863E+000
 0.961339E+000
 0.965074E+000
 0.969094E+000
 0.973427E+000
 0.978104E+000
 0.983162E+000
 0.988640E+000
 0.994583E+000
 0.100104E+001
 0.100807E+001
 0.101574E+001
 0.102411E+001
 0.103327E+001
 0.104328E+001
 0.105426E+001
 0.106628E+001
 0.107944E+001
 0.109382E+001
 0.110949E+001
 0.112644E+001
 0.114460E+001
 0.116373E+001
 0.118334E+001
 0.120250E+001
 0.121964E+001
 0.123232E+001
 0.123780E+001
 0.123689E+001
 0.125381E+001
 0.141579E+001
 0.954696E+000
 0.957918E+000
 0.961373E+000
 0.965084E+000
 0.969075E+000
 0.973374E+000
 0.978011E+000
 0.983023E+000
 0.988447E+000
 0.994328E+000
 0.100071E+001
 0.100766E+001
 0.101523E+001
 0.102349E+001
 0.103251E+001
 0.104237E+001
 0.105316E+001
 0.106497E+001
 0.107788E+001
 0.109198E+001
 0.110731E+001
 0.112388E+001
 0.114163E+001
 0.116034E+001
 0.117956E+001
 0.119850E+001
 0.121583E+001
 0.122974E+001
 0.123882E+001
 0.124687E+001
 0.128394E+001
 0.147913E+001
 0.954263E+000
 0.957444E+000
 0.960854E+000
 0.964513E+000
 0.968446E+000
 0.972681E+000
 0.977246E+000
 0.982177E+000
 0.987511E+000
 0.993290E+000
 0.999563E+000
 0.100638E+001
 0.101380E+001
 0.102190E+001
 0.103073E+001
 0.104038E+001
 0.105093E+001
 0.106246E+001
 0.107507E+001
 0.108881E+001
 0.110375E+001
 0.111990E+001
 0.113720E+001
 0.115547E+001
 0.117433E+001
 0.119312E+001
 0.121084E+001
 0.122634E+001
 0.123962E+001
 0.125744E+001
 0.131503E+001
 0.154157E+001
 0.953274E+000
 0.956389E+000
 0.959726E+000
 0.963306E+000
 0.967152E+000
 0.971290E+000
 0.975749E+000
 0.980563E+000
 0.985768E+000
 0.991405E+000
 0.997520E+000
 0.100416E+001
 0.101139E+001
 0.101927E+001
 0.102786E+001
 0.103724E+001
 0.104749E+001
 0.105870E+001
 0.107093E+001
 0.108427E+001
 0.109877E+001
 0.111446E+001
 0.113128E+001
 0.114911E+001
 0.116765E+001
 0.118642E+001
 0.120476E+001
 0.122223E+001
 0.124031E+001
 0.126866E+001
 0.134691E+001
 0.160290E+001
 0.951681E+000
 0.954704E+000
 0.957941E+000
 0.961412E+000
 0.965139E+000
 0.969147E+000
 0.973466E+000
 0.978125E+000
 0.983162E+000
 0.988615E+000
 0.994528E+000
 0.100095E+001
 0.100794E+001
 0.101555E+001
 0.102384E+001
 0.103290E+001
 0.104280E+001
 0.105362E+001
 0.106543E+001
 0.107831E+001
 0.109233E+001
 0.110752E+001
 0.112386E+001
 0.114127E+001
 0.115956E+001
 0.117845E+001
 0.119766E+001
 0.121753E+001
 0.124101E+001
 0.128056E+001
 0.137941E+001
 0.166292E+001
 0.949444E+000
 0.952348E+000
 0.955455E+000
 0.958786E+000
 0.962362E+000
 0.966207E+000
 0.970349E+000
 0.974817E+000
 0.979645E+000
 0.984872E+000
 0.990540E+000
 0.996695E+000
 0.100339E+001
 0.101068E+001
 0.101864E+001
 0.102732E+001
 0.103681E+001
 0.104719E+001
 0.105853E+001
 0.107091E+001
 0.108442E+001
 0.109908E+001
 0.111495E+001
 0.113198E+001
 0.115012E+001
 0.116929E+001
 0.118967E+001
 0.121237E+001
 0.124184E+001
 0.129313E+001
 0.141233E+001
 0.172142E+001
 0.946530E+000
 0.949286E+000
 0.952235E+000
 0.955396E+000
 0.958788E+000
 0.962435E+000
 0.966364E+000
 0.970602E+000
 0.975183E+000
 0.980143E+000
 0.985521E+000
 0.991364E+000
 0.997722E+000
 0.100465E+001
 0.101221E+001
 0.102047E+001
 0.102951E+001
 0.103940E+001
 0.105022E+001
 0.106208E+001
 0.107504E+001
 0.108918E+001
 0.110459E+001
 0.112130E+001
 0.113939E+001
 0.115906E+001
 0.118090E+001
 0.120686E+001
 0.124288E+001
 0.130635E+001
 0.144544E+001
 0.177822E+001
 0.942918E+000
 0.945499E+000
 0.948261E+000
 0.951219E+000
 0.954396E+000
 0.957812E+000
 0.961492E+000
 0.965463E+000
 0.969758E+000
 0.974410E+000
 0.979458E+000
 0.984945E+000
 0.990920E+000
 0.997438E+000
 0.100456E+001
 0.101235E+001
 0.102089E+001
 0.103025E+001
 0.104053E+001
 0.105183E+001
 0.106423E+001
 0.107787E+001
 0.109284E+001
 0.110931E+001
 0.112749E+001
 0.114786E+001
 0.117148E+001
 0.120115E+001
 0.124422E+001
 0.132016E+001
 0.147853E+001
 0.183312E+001
 0.938603E+000
 0.940981E+000
 0.943526E+000
 0.946253E+000
 0.949182E+000
 0.952334E+000
 0.955731E+000
 0.959400E+000
 0.963371E+000
 0.967677E+000
 0.972354E+000
 0.977445E+000
 0.982997E+000
 0.989063E+000
 0.995704E+000
 0.100299E+001
 0.101099E+001
 0.101979E+001
 0.102950E+001
 0.104022E+001
 0.105207E+001
 0.106521E+001
 0.107980E+001
 0.109612E+001
 0.111455E+001
 0.113584E+001
 0.116157E+001
 0.119535E+001
 0.124590E+001
 0.133445E+001
 0.151135E+001
 0.188593E+001
 0.933596E+000
 0.935745E+000
 0.938045E+000
 0.940512E+000
 0.943164E+000
 0.946020E+000
 0.949103E+000
 0.952437E+000
 0.956050E+000
 0.959974E+000
 0.964244E+000
 0.968902E+000
 0.973993E+000
 0.979570E+000
 0.985693E+000
 0.992433E+000
 0.999867E+000
 0.100809E+001
 0.101720E+001
 0.102734E+001
 0.103865E+001
 0.105132E+001
 0.106560E+001
 0.108187E+001
 0.110070E+001
 0.112315E+001
 0.115131E+001
 0.118960E+001
 0.124797E+001
 0.134912E+001
 0.154366E+001
 0.193646E+001
 0.927929E+000
 0.929825E+000
 0.931855E+000
 0.934036E+000
 0.936384E+000
 0.938916E+000
 0.941655E+000
 0.944622E+000
 0.947846E+000
 0.951357E+000
 0.955188E+000
 0.959380E+000
 0.963978E+000
 0.969034E+000
 0.974611E+000
 0.980780E+000
 0.987624E+000
 0.995243E+000
 0.100376E+001
 0.101332E+001
 0.102410E+001
 0.103635E+001
 0.105040E+001
 0.106673E+001
 0.108614E+001
 0.110999E+001
 0.114086E+001
 0.118399E+001
 0.125043E+001
 0.136402E+001
 0.157521E+001
 0.198453E+001
 0.921659E+000
 0.923279E+000
 0.925018E+000
 0.926889E+000
 0.928909E+000
 0.931093E+000
 0.933462E+000
 0.936038E+000
 0.938846E+000
 0.941916E+000
 0.945281E+000
 0.948980E+000
 0.953059E+000
 0.957570E+000
 0.962577E+000
 0.968155E+000
 0.974393E+000
 0.981403E+000
 0.989318E+000
 0.998311E+000
 0.100860E+001
 0.102048E+001
 0.103438E+001
 0.105091E+001
 0.107106E+001
 0.109653E+001
 0.113039E+001
 0.117863E+001
 0.125326E+001
 0.137898E+001
 0.160576E+001
 0.202998E+001
 0.914868E+000
 0.916195E+000
 0.917623E+000
 0.919166E+000
 0.920837E+000
 0.922654E+000
 0.924633E+000
 0.926796E+000
 0.929168E+000
 0.931776E+000
 0.934654E+000
 0.937840E+000
 0.941380E+000
 0.945328E+000
 0.949750E+000
 0.954726E+000
 0.960353E+000
 0.966753E+000
 0.974079E+000
 0.982529E+000
 0.992364E+000
 0.100394E+001
 0.101777E+001
 0.103462E+001
 0.105568E+001
 0.108298E+001
 0.112006E+001
 0.117359E+001
 0.125642E+001
 0.139383E+001
 0.163506E+001
 0.207264E+001
 0.907666E+000
 0.908686E+000
 0.909790E+000
 0.910990E+000
 0.912300E+000
 0.913733E+000
 0.915308E+000
 0.917045E+000
 0.918965E+000
 0.921098E+000
 0.923475E+000
 0.926136E+000
 0.929125E+000
 0.932501E+000
 0.936332E+000
 0.940704E+000
 0.945722E+000
 0.951522E+000
 0.958277E+000
 0.966216E+000
 0.975643E+000
 0.986983E+000
 0.100084E+001
 0.101813E+001
 0.104025E+001
 0.106954E+001
 0.111002E+001
 0.116895E+001
 0.125984E+001
 0.140838E+001
 0.166288E+001
 0.211234E+001
 0.900190E+000
 0.900895E+000
 0.901667E+000
 0.902516E+000
 0.903456E+000
 0.904500E+000
 0.905663E+000
 0.906965E+000
 0.908428E+000
 0.910079E+000
 0.911951E+000
 0.914081E+000
 0.916519E+000
 0.919323E+000
 0.922566E+000
 0.926340E+000
 0.930761E+000
 0.935980E+000
 0.942192E+000
 0.949658E+000
 0.958729E+000
 0.969899E+000
 0.983874E+000
 0.100170E+001
 0.102502E+001
 0.105645E+001
 0.110042E+001
 0.116473E+001
 0.126345E+001
 0.142241E+001
 0.168899E+001
 0.214895E+001
 0.892604E+000
 0.892991E+000
 0.893430E+000
 0.893928E+000
 0.894498E+000
 0.895151E+000
 0.895903E+000
 0.896772E+000
 0.897780E+000
 0.898953E+000
 0.900322E+000
 0.901929E+000
 0.903823E+000
 0.906065E+000
 0.908733E+000
 0.911926E+000
 0.915773E+000
 0.920439E+000
 0.926143E+000
 0.933179E+000
 0.941950E+000
 0.953017E+000
 0.967188E+000
 0.985657E+000
 0.101026E+001
 0.104390E+001
 0.109140E+001
 0.116099E+001
 0.126715E+001
 0.143575E+001
 0.171316E+001
 0.218231E+001
 0.885093E+000
 0.885170E+000
 0.885280E+000
 0.885435E+000
 0.885642E+000
 0.885914E+000
 0.886264E+000
 0.886711E+000
 0.887274E+000
 0.887981E+000
 0.888864E+000
 0.889964E+000
 0.891331E+000
 0.893032E+000
 0.895149E+000
 0.897790E+000
 0.901093E+000
 0.905242E+000
 0.910480E+000
 0.917136E+000
 0.925661E+000
 0.936688E+000
 0.951121E+000
 0.970296E+000
 0.996236E+000
 0.103211E+001
 0.108307E+001
 0.115772E+001
 0.127083E+001
 0.144818E+001
 0.173521E+001
 0.221231E+001
 0.877863E+000
 0.877641E+000
 0.877439E+000
 0.877265E+000
 0.877126E+000
 0.877034E+000
 0.877002E+000
 0.877046E+000
 0.877188E+000
 0.877453E+000
 0.877874E+000
 0.878494E+000
 0.879366E+000
 0.880558E+000
 0.882159E+000
 0.884285E+000
 0.887086E+000
 0.890763E+000
 0.895583E+000
 0.901909E+000
 0.910241E+000
 0.921279E+000
 0.936024E+000
 0.955941E+000
 0.983229E+000
 0.102129E+001
 0.107556E+001
 0.115493E+001
 0.127437E+001
 0.145953E+001
 0.175493E+001
 0.223882E+001
 0.871127E+000
 0.870629E+000
 0.870137E+000
 0.869658E+000
 0.869200E+000
 0.868771E+000
 0.868386E+000
 0.868059E+000
 0.867812E+000
 0.867669E+000
 0.867666E+000
 0.867846E+000
 0.868263E+000
 0.868990E+000
 0.870122E+000
 0.871781E+000
 0.874130E+000
 0.877386E+000
 0.881841E+000
 0.887889E+000
 0.896077E+000
 0.907168E+000
 0.922251E+000
 0.942908E+000
 0.971498E+000
 0.101163E+001
 0.106895E+001
 0.115260E+001
 0.127767E+001
 0.146962E+001
 0.177216E+001
 0.226175E+001
 0.865102E+000
 0.864357E+000
 0.863607E+000
 0.862857E+000
 0.862113E+000
 0.861386E+000
 0.860686E+000
 0.860030E+000
 0.859437E+000
 0.858933E+000
 0.858554E+000
 0.858344E+000
 0.858360E+000
 0.858678E+000
 0.859397E+000
 0.860648E+000
 0.862605E+000
 0.865499E+000
 0.869644E+000
 0.875466E+000
 0.883551E+000
 0.894721E+000
 0.910142E+000
 0.931502E+000
 0.961292E+000
 0.100328E+001
 0.106332E+001
 0.115071E+001
 0.128061E+001
 0.147829E+001
 0.178676E+001
 0.228099E+001
 0.859991E+000
 0.859038E+000
 0.858069E+000
 0.857090E+000
 0.856106E+000
 0.855126E+000
 0.854161E+000
 0.853226E+000
 0.852342E+000
 0.851534E+000
 0.850839E+000
 0.850300E+000
 0.849979E+000
 0.849954E+000
 0.850328E+000
 0.851240E+000
 0.852872E+000
 0.855469E+000
 0.859364E+000
 0.865008E+000
 0.873025E+000
 0.884284E+000
 0.900018E+000
 0.922000E+000
 0.952832E+000
 0.996419E+000
 0.105875E+001
 0.114924E+001
 0.128309E+001
 0.148539E+001
 0.179859E+001
 0.229648E+001
 0.855979E+000
 0.854862E+000
 0.853722E+000
 0.852564E+000
 0.851391E+000
 0.850213E+000
 0.849041E+000
 0.847888E+000
 0.846776E+000
 0.845731E+000
 0.844788E+000
 0.843994E+000
 0.843410E+000
 0.843117E+000
 0.843224E+000
 0.843873E+000
 0.845254E+000
 0.847624E+000
 0.851329E+000
 0.856843E+000
 0.864818E+000
 0.876161E+000
 0.892156E+000
 0.914644E+000
 0.946310E+000
 0.991156E+000
 0.105527E+001
 0.114817E+001
 0.128504E+001
 0.149083E+001
 0.180756E+001
 0.230816E+001
 0.853215E+000
 0.851985E+000
 0.850728E+000
 0.849446E+000
 0.848144E+000
 0.846830E+000
 0.845515E+000
 0.844212E+000
 0.842944E+000
 0.841735E+000
 0.840622E+000
 0.839653E+000
 0.838889E+000
 0.838413E+000
 0.838337E+000
 0.838806E+000
 0.840017E+000
 0.842233E+000
 0.845812E+000
 0.851241E+000
 0.859191E+000
 0.870599E+000
 0.886782E+000
 0.909627E+000
 0.941874E+000
 0.987592E+000
 0.105294E+001
 0.114746E+001
 0.128637E+001
 0.149450E+001
 0.181358E+001
 0.231596E+001
 0.851806E+000
 0.850519E+000
 0.849201E+000
 0.847856E+000
 0.846488E+000
 0.845105E+000
 0.843717E+000
 0.842338E+000
 0.840990E+000
 0.839698E+000
 0.838499E+000
 0.837440E+000
 0.836584E+000
 0.836016E+000
 0.835847E+000
 0.836225E+000
 0.837349E+000
 0.839488E+000
 0.843003E+000
 0.848390E+000
 0.856330E+000
 0.867773E+000
 0.884055E+000
 0.907083E+000
 0.939630E+000
 0.985793E+000
 0.105176E+001
 0.114712E+001
 0.128705E+001
 0.149635E+001
 0.181661E+001
 0.231988E+001
 0.851806E+000
 0.850519E+000
 0.849201E+000
 0.847856E+000
 0.846488E+000
 0.845105E+000
 0.843717E+000
 0.842338E+000
 0.840990E+000
 0.839698E+000
 0.838499E+000
 0.837440E+000
 0.836584E+000
 0.836016E+000
 0.835847E+000
 0.836225E+000
 0.837349E+000
 0.839488E+000
 0.843003E+000
 0.848390E+000
 0.856330E+000
 0.867773E+000
 0.884055E+000
 0.907083E+000
 0.939630E+000
 0.985793E+000
 0.105176E+001
 0.114712E+001
 0.128705E+001
 0.149635E+001
 0.181661E+001
 0.231988E+001
 0.853215E+000
 0.851985E+000
 0.850728E+000
 0.849446E+000
 0.848144E+000
 0.846830E+000
 0.845515E+000
 0.844212E+000
 0.842944E+000
 0.841735E+000
 0.840622E+000
 0.839653E+000
 0.838889E+000
 0.838413E+000
 0.838337E+000
 0.838806E+000
 0.840017E+000
 0.842233E+000
 0.845812E+000
 0.851241E+000
 0.859191E+000
 0.870599E+000
 0.886782E+000
 0.909627E+000
 0.941874E+000
 0.987592E+000
 0.105294E+001
 0.114746E+001
 0.128637E+001
 0.149450E+001
 0.181358E+001
 0.231596E+001
 0.855979E+000
 0.854862E+000
 0.853722E+000
 0.852564E+000
 0.851391E+000
 0.850213E+000
 0.849041E+000
 0.847888E+000
 0.846776E+000
 0.845731E+000
 0.844788E+000
 0.843994E+000
 0.843410E+000
 0.843117E+000
 0.843224E+000
 0.843873E+000
 0.845254E+000
 0.847624E+000
 0.851329E+000
 0.856843E+000
 0.864818E+000
 0.876161E+000
 0.892156E+000
 0.914644E+000
 0.946310E+000
 0.991156E+000
 0.105527E+001
 0.114817E+001
 0.128504E+001
 0.149083E+001
 0.180756E+001
 0.230816E+001
 0.859991E+000
 0.859038E+000
 0.858069E+000
 0.857090E+000
 0.856106E+000
 0.855126E+000
 0.854161E+000
 0.853226E+000
 0.852342E+000
 0.851534E+000
 0.850839E+000
 0.850300E+000
 0.849979E+000
 0.849954E+000
 0.850328E+000
 0.851240E+000
 0.852872E+000
 0.855469E+000
 0.859364E+000
 0.865008E+000
 0.873025E+000
 0.884284E+000
 0.900018E+000
 0.922000E+000
 0.952832E+000
 0.996419E+000
 0.105875E+001
 0.114924E+001
 0.128309E+001
 0.148539E+001
 0.179859E+001
 0.229648E+001
 0.865102E+000
 0.864357E+000
 0.863607E+000
 0.862857E+000
 0.862113E+000
 0.861386E+000
 0.860686E+000
 0.860030E+000
 0.859437E+000
 0.858933E+000
 0.858554E+000
 0.858344E+000
 0.858360E+000
 0.858678E+000
 0.859397E+000
 0.860648E+000
 0.862605E+000
 0.865499E+000
 0.869644E+000
 0.875466E+000
 0.883551E+000
 0.894721E+000
 0.910142E+000
 0.931502E+000
 0.961292E+000
 0.100328E+001
 0.106332E+001
 0.115071E+001
 0.128061E+001
 0.147829E+001
 0.178676E+001
 0.228099E+001
 0.871127E+000
 0.870629E+000
 0.870137E+000
 0.869658E+000
 0.869200E+000
 0.868771E+000
 0.868386E+000
 0.868059E+000
 0.867812E+000
 0.867669E+000
 0.867666E+000
 0.867846E+000
 0.868263E+000
 0.868990E+000
 0.870122E+000
 0.871781E+000
 0.874130E+000
 0.877386E+000
 0.881841E+000
 0.887889E+000
 0.896077E+000
 0.907168E+000
 0.922251E+000
 0.942908E+000
 0.971498E+000
 0.101163E+001
 0.106895E+001
 0.115260E+001
 0.127767E+001
 0.146962E+001
 0.177216E+001
 0.226175E+001
 0.877863E+000
 0.877641E+000
 0.877439E+000
 0.877265E+000
 0.877126E+000
 0.877034E+000
 0.877002E+000
 0.877046E+000
 0.877188E+000
 0.877453E+000
 0.877874E+000
 0.878494E+000
 0.879366E+000
 0.880558E+000
 0.882159E+000
 0.884285E+000
 0.887086E+000
 0.890763E+000
 0.895583E+000
 0.901909E+000
 0.910241E+000
 0.921279E+000
 0.936024E+000
 0.955941E+000
 0.983229E+000
 0.102129E+001
 0.107556E+001
 0.115493E+001
 0.127437E+001
 0.145953E+001
 0.175493E+001
 0.223882E+001
 0.885093E+000
 0.885170E+000
 0.885280E+000
 0.885435E+000
 0.885642E+000
 0.885914E+000
 0.886264E+000
 0.886711E+000
 0.887274E+000
 0.887981E+000
 0.888864E+000
 0.889964E+000
 0.891331E+000
 0.893032E+000
 0.895149E+000
 0.897790E+000
 0.901093E+000
 0.905242E+000
 0.910480E+000
 0.917136E+000
 0.925661E+000
 0.936688E+000
 0.951121E+000
 0.970296E+000
 0.996236E+000
 0.103211E+001
 0.108307E+001
 0.115772E+001
 0.127083E+001
 0.144818E+001
 0.173521E+001
 0.221231E+001
 0.892604E+000
 0.892991E+000
 0.893430E+000
 0.893928E+000
 0.894498E+000
 0.895151E+000
 0.895903E+000
 0.896772E+000
 0.897780E+000
 0.898953E+000
 0.900322E+000
 0.901929E+000
 0.903823E+000
 0.906065E+000
 0.908733E+000
 0.911926E+000
 0.915773E+000
 0.920439E+000
 0.926143E+000
 0.933179E+000
 0.941950E+000
 0.953017E+000
 0.967188E+000
 0.985657E+000
 0.101026E+001
 0.104390E+001
 0.109140E+001
 0.116099E+001
 0.126715E+001
 0.143575E+001
 0.171316E+001
 0.218231E+001
 0.900190E+000
 0.900895E+000
 0.901667E+000
 0.902516E+000
 0.903456E+000
 0.904500E+000
 0.905663E+000
 0.906965E+000
 0.908428E+000
 0.910079E+000
 0.911951E+000
 0.914081E+000
 0.916519E+000
 0.919323E+000
 0.922566E+000
 0.926340E+000
 0.930761E+000
 0.935980E+000
 0.942192E+000
 0.949658E+000
 0.958729E+000
 0.969899E+000
 0.983874E+000
 0.100170E+001
 0.102502E+001
 0.105645E+001
 0.110042E+001
 0.116473E+001
 0.126345E+001
 0.142241E+001
 0.168899E+001
 0.214895E+001
 0.907666E+000
 0.908686E+000
 0.909790E+000
 0.910990E+000
 0.912300E+000
 0.913733E+000
 0.915308E+000
 0.917045E+000
 0.918965E+000
 0.921098E+000
 0.923475E+000
 0.926136E+000
 0.929125E+000
 0.932501E+000
 0.936332E+000
 0.940704E+000
 0.945722E+000
 0.951522E+000
 0.958277E+000
 0.966216E+000
 0.975643E+000
 0.986983E+000
 0.100084E+001
 0.101813E+001
 0.104025E+001
 0.106954E+001
 0.111002E+001
 0.116895E+001
 0.125984E+001
 0.140838E+001
 0.166288E+001
 0.211234E+001
 0.914868E+000
 0.916195E+000
 0.917623E+000
 0.919166E+000
 0.920837E+000
 0.922654E+000
 0.924633E+000
 0.926796E+000
 0.929168E+000
 0.931776E+000
 0.934654E+000
 0.937840E+000
 0.941380E+000
 0.945328E+000
 0.949750E+000
 0.954726E+000
 0.960353E+000
 0.966753E+000
 0.974079E+000
 0.982529E+000
 0.992364E+000
 0.100394E+001
 0.101777E+001
 0.103462E+001
 0.105568E+001
 0.108298E+001
 0.112006E+001
 0.117359E+001
 0.125642E+001
 0.139383E+001
 0.163506E+001
 0.207264E+001
 0.921659E+000
 0.923279E+000
 0.925018E+000
 0.926889E+000
 0.928909E+000
 0.931093E+000
 0.933462E+000
 0.936038E+000
 0.938846E+000
 0.941916E+000
 0.945281E+000
 0.948980E+000
 0.953059E+000
 0.957570E+000
 0.962577E+000
 0.968155E+000
 0.974393E+000
 0.981403E+000
 0.989318E+000
 0.998311E+000
 0.100860E+001
 0.102048E+001
 0.103438E+001
 0.105091E+001
 0.107106E+001
 0.109653E+001
 0.113039E+001
 0.117863E+001
 0.125326E+001
 0.137898E+001
 0.160576E+001
 0.202998E+001
 0.927929E+000
 0.929825E+000
 0.931855E+000
 0.934036E+000
 0.936384E+000
 0.938916E+000
 0.941655E+000
 0.944622E+000
 0.947846E+000
 0.951357E+000
 0.955188E+000
 0.959380E+000
 0.963978E+000
 0.969034E+000
 0.974611E+000
 0.980780E+000
 0.987624E+000
 0.995243E+000
 0.100376E+001
 0.101332E+001
 0.102410E+001
 0.103635E+001
 0.105040E+001
 0.106673E+001
 0.108614E+001
 0.110999E+001
 0.114086E+001
 0.118399E+001
 0.125043E+001
 0.136402E+001
 0.157521E+001
 0.198453E+001
 0.933596E+000
 0.935745E+000
 0.938045E+000
 0.940512E+000
 0.943164E+000
 0.946020E+000
 0.949103E+000
 0.952437E+000
 0.956050E+000
 0.959974E+000
 0.964244E+000
 0.968902E+000
 0.973993E+000
 0.979570E+000
 0.985693E+000
 0.992433E+000
 0.999867E+000
 0.100809E+001
 0.101720E+001
 0.102734E+001
 0.103865E+001
 0.105132E+001
 0.106560E+001
 0.108187E+001
 0.110070E+001
 0.112315E+001
 0.115131E+001
 0.118960E+001
 0.124797E+001
 0.134912E+001
 0.154366E+001
 0.193646E+001
 0.938603E+000
 0.940981E+000
 0.943526E+000
 0.946253E+000
 0.949182E+000
 0.952334E+000
 0.955731E+000
 0.959400E+000
 0.963371E+000
 0.967677E+000
 0.972354E+000
 0.977445E+000
 0.982997E+000
 0.989063E+000
 0.995704E+000
 0.100299E+001
 0.101099E+001
 0.101979E+001
 0.102950E+001
 0.104022E+001
 0.105207E+001
 0.106521E+001
 0.107980E+001
 0.109612E+001
 0.111455E+001
 0.113584E+001
 0.116157E+001
 0.119535E+001
 0.124590E+001
 0.133445E+001
 0.151135E+001
 0.188593E+001
 0.942918E+000
 0.945499E+000
 0.948261E+000
 0.951219E+000
 0.954396E+000
 0.957812E+000
 0.961492E+000
 0.965463E+000
 0.969758E+000
 0.974410E+000
 0.979458E+000
 0.984945E+000
 0.990920E+000
 0.997438E+000
 0.100456E+001
 0.101235E+001
 0.102089E+001
 0.103025E+001
 0.104053E+001
 0.105183E+001
 0.106423E+001
 0.107787E+001
 0.109284E+001
 0.110931E+001
 0.112749E+001
 0.114786E+001
 0.117148E+001
 0.120115E+001
 0.124422E+001
 0.132016E+001
 0.147853E+001
 0.183312E+001
 0.946530E+000
 0.949286E+000
 0.952235E+000
 0.955396E+000
 0.958788E+000
 0.962435E+000
 0.966364E+000
 0.970602E+000
 0.975183E+000
 0.980143E+000
 0.985521E+000
 0.991364E+000
 0.997722E+000
 0.100465E+001
 0.101221E+001
 0.102047E+001
 0.102951E+001
 0.103940E+001
 0.105022E+001
 0.106208E+001
 0.107504E+001
 0.108918E+001
 0.110459E+001
 0.112130E+001
 0.113939E+001
 0.115906E+001
 0.118090E+001
 0.120686E+001
 0.124288E+001
 0.130635E+001
 0.144544E+001
 0.177822E+001
 0.949444E+000
 0.952348E+000
 0.955455E+000
 0.958786E+000
 0.962362E+000
 0.966207E+000
 0.970349E+000
 0.974817E+000
 0.979645E+000
 0.984872E+000
 0.990540E+000
 0.996695E+000
 0.100339E+001
 0.101068E+001
 0.101864E+001
 0.102732E+001
 0.103681E+001
 0.104719E+001
 0.105853E+001
 0.107091E+001
 0.108442E+001
 0.109908E+001
 0.111495E+001
 0.113198E+001
 0.115012E+001
 0.116929E+001
 0.118967E+001
 0.121237E+001
 0.124184E+001
 0.129313E+001
 0.141233E+001
 0.172142E+001
 0.951681E+000
 0.954704E+000
 0.957941E+000
 0.961412E+000
 0.965139E+000
 0.969147E+000
 0.973466E+000
 0.978125E+000
 0.983162E+000
 0.988615E+000
 0.994528E+000
 0.100095E+001
 0.100794E+001
 0.101555E+001
 0.102384E+001
 0.103290E+001
 0.104280E+001
 0.105362E+001
 0.106543E+001
 0.107831E+001
 0.109233E+001
 0.110752E+001
 0.112386E+001
 0.114127E+001
 0.115956E+001
 0.117845E+001
 0.119766E+001
 0.121753E+001
 0.124101E+001
 0.128056E+001
 0.137941E+001
 0.166292E+001
 0.953274E+000
 0.956389E+000
 0.959726E+000
 0.963306E+000
 0.967152E+000
 0.971290E+000
 0.975749E+000
 0.980563E+000
 0.985768E+000
 0.991405E+000
 0.997520E+000
 0.100416E+001
 0.101139E+001
 0.101927E+001
 0.102786E+001
 0.103724E+001
 0.104749E+001
 0.105870E+001
 0.107093E+001
 0.108427E+001
 0.109877E+001
 0.111446E+001
 0.113128E+001
 0.114911E+001
 0.116765E+001
 0.118642E+001
 0.120476E+001
 0.122223E+001
 0.124031E+001
 0.126866E+001
 0.134691E+001
 0.160290E+001
 0.954263E+000
 0.957444E+000
 0.960854E+000
 0.964513E+000
 0.968446E+000
 0.972681E+000
 0.977246E+000
 0.982177E+000
 0.987511E+000
 0.993290E+000
 0.999563E+000
 0.100638E+001
 0.101380E+001
 0.102190E+001
 0.103073E+001
 0.104038E+001
 0.105093E+001
 0.106246E+001
 0.107507E+001
 0.108881E+001
 0.110375E+001
 0.111990E+001
 0.113720E+001
 0.115547E+001
 0.117433E+001
 0.119312E+001
 0.121084E+001
 0.122634E+001
 0.123962E+001
 0.125744E+001
 0.131503E+001
 0.154157E+001
 0.954696E+000
 0.957918E+000
 0.961373E+000
 0.965084E+000
 0.969075E+000
 0.973374E+000
 0.978011E+000
 0.983023E+000
 0.988447E+000
 0.994328E+000
 0.100071E+001
 0.100766E+001
 0.101523E+001
 0.102349E+001
 0.103251E+001
 0.104237E+001
 0.105316E+001
 0.106497E+001
 0.107788E+001
 0.109198E+001
 0.110731E+001
 0.112388E+001
 0.114163E+001
 0.116034E+001
 0.117956E+001
 0.119850E+001
 0.121583E+001
 0.122974E+001
 0.123882E+001
 0.124687E+001
 0.128394E+001
 0.147913E+001
 0.954624E+000
 0.957863E+000
 0.961339E+000
 0.965074E+000
 0.969094E+000
 0.973427E+000
 0.978104E+000
 0.983162E+000
 0.988640E+000
 0.994583E+000
 0.100104E+001
 0.100807E+001
 0.101574E+001
 0.102411E+001
 0.103327E+001
 0.104328E+001
 0.105426E+001
 0.106628E+001
 0.107944E+001
 0.109382E+001
 0.110949E+001
 0.112644E+001
 0.114460E+001
 0.116373E+001
 0.118334E+001
 0.120250E+001
 0.121964E+001
 0.123232E+001
 0.123780E+001
 0.123689E+001
 0.125381E+001
 0.141579E+001
 0.954099E+000
 0.957334E+000
 0.960807E+000
 0.964542E+000
 0.968564E+000
 0.972903E+000
 0.977589E+000
 0.982660E+000
 0.988157E+000
 0.994125E+000
 0.100062E+001
 0.100769E+001
 0.101541E+001
 0.102384E+001
 0.103308E+001
 0.104320E+001
 0.105429E+001
 0.106647E+001
 0.107981E+001
 0.109442E+001
 0.111035E+001
 0.112761E+001
 0.114613E+001
 0.116567E+001
 0.118567E+001
 0.120511E+001
 0.122222E+001
 0.123401E+001
 0.123644E+001
 0.122740E+001
 0.122475E+001
 0.135174E+001
 0.953176E+000
 0.956385E+000
 0.959835E+000
 0.963547E+000
 0.967547E+000
 0.971864E+000
 0.976532E+000
 0.981586E+000
 0.987068E+000
 0.993025E+000
 0.999511E+000
 0.100658E+001
 0.101431E+001
 0.102276E+001
 0.103203E+001
 0.104219E+001
 0.105335E+001
 0.106561E+001
 0.107908E+001
 0.109384E+001
 0.110997E+001
 0.112748E+001
 0.114630E+001
 0.116619E+001
 0.118657E+001
 0.120633E+001
 0.122352E+001
 0.123471E+001
 0.123461E+001
 0.121832E+001
 0.119688E+001
 0.128720E+001
 0.951905E+000
 0.955072E+000
 0.958478E+000
 0.962146E+000
 0.966102E+000
 0.970374E+000
 0.974996E+000
 0.980005E+000
 0.985443E+000
 0.991356E+000
 0.997800E+000
 0.100483E+001
 0.101252E+001
 0.102095E+001
 0.103019E+001
 0.104035E+001
 0.105152E+001
 0.106381E+001
 0.107732E+001
 0.109217E+001
 0.110842E+001
 0.112612E+001
 0.114517E+001
 0.116534E+001
 0.118608E+001
 0.120616E+001
 0.122350E+001
 0.123435E+001
 0.123224E+001
 0.120951E+001
 0.117024E+001
 0.122236E+001
 0.950339E+000
 0.953447E+000
 0.956792E+000
 0.960397E+000
 0.964288E+000
 0.968494E+000
 0.973047E+000
 0.977984E+000
 0.983349E+000
 0.989189E+000
 0.995557E+000
 0.100252E+001
 0.101013E+001
 0.101849E+001
 0.102766E+001
 0.103776E+001
 0.104888E+001
 0.106113E+001
 0.107464E+001
 0.108949E+001
 0.110581E+001
 0.112359E+001
 0.114283E+001
 0.116320E+001
 0.118423E+001
 0.120466E+001
 0.122216E+001
 0.123284E+001
 0.122924E+001
 0.120086E+001
 0.114485E+001
 0.115744E+001
 0.948525E+000
 0.951559E+000
 0.954828E+000
 0.958354E+000
 0.962162E+000
 0.966281E+000
 0.970743E+000
 0.975587E+000
 0.980854E+000
 0.986591E+000
 0.992854E+000
 0.999704E+000
 0.100721E+001
 0.101545E+001
 0.102452E+001
 0.103450E+001
 0.104552E+001
 0.105768E+001
 0.107111E+001
 0.108591E+001
 0.110220E+001
 0.112002E+001
 0.113930E+001
 0.115989E+001
 0.118105E+001
 0.120186E+001
 0.121955E+001
 0.123011E+001
 0.122552E+001
 0.119230E+001
 0.112069E+001
 0.109260E+001
 0.946506E+000
 0.949455E+000
 0.952634E+000
 0.956066E+000
 0.959776E+000
 0.963791E+000
 0.968144E+000
 0.972873E+000
 0.978019E+000
 0.983630E+000
 0.989759E+000
 0.996470E+000
 0.100383E+001
 0.101192E+001
 0.102084E+001
 0.103067E+001
 0.104153E+001
 0.105355E+001
 0.106683E+001
 0.108152E+001
 0.109769E+001
 0.111547E+001
 0.113474E+001
 0.115538E+001
 0.117675E+001
 0.119762E+001
 0.121584E+001
 0.122604E+001
 0.122095E+001
 0.118380E+001
 0.109771E+001
 0.102797E+001
 0.944325E+000
 0.947177E+000
 0.950255E+000
 0.953581E+000
 0.957178E+000
 0.961075E+000
 0.965303E+000
 0.969899E+000
 0.974904E+000
 0.980365E+000
 0.986338E+000
 0.992882E+000
 0.100007E+001
 0.100798E+001
 0.101670E+001
 0.102633E+001
 0.103700E+001
 0.104880E+001
 0.106189E+001
 0.107638E+001
 0.109241E+001
 0.111001E+001
 0.112924E+001
 0.114977E+001
 0.117130E+001
 0.119224E+001
 0.121065E+001
 0.122118E+001
 0.121487E+001
 0.117567E+001
 0.107575E+001
 0.963623E+000
 0.942015E+000
 0.944762E+000
 0.947731E+000
 0.950941E+000
 0.954415E+000
 0.958181E+000
 0.962269E+000
 0.966716E+000
 0.971563E+000
 0.976856E+000
 0.982649E+000
 0.989003E+000
 0.995987E+000
 0.100368E+001
 0.101218E+001
 0.102158E+001
 0.103199E+001
 0.104355E+001
 0.105638E+001
 0.107062E+001
 0.108639E+001
 0.110379E+001
 0.112280E+001
 0.114329E+001
 0.116465E+001
 0.118586E+001
 0.120413E+001
 0.121512E+001
 0.120812E+001
 0.116623E+001
 0.105696E+001
 0.897210E+000
 0.941139E+000
 0.943852E+000
 0.946777E+000
 0.949937E+000
 0.953356E+000
 0.957062E+000
 0.961086E+000
 0.965463E+000
 0.970233E+000
 0.975442E+000
 0.981143E+000
 0.987397E+000
 0.994273E+000
 0.100185E+001
 0.101021E+001
 0.101946E+001
 0.102972E+001
 0.104109E+001
 0.105373E+001
 0.106774E+001
 0.108327E+001
 0.110037E+001
 0.111908E+001
 0.113913E+001
 0.116010E+001
 0.118059E+001
 0.119826E+001
 0.120769E+001
 0.119911E+001
 0.115200E+001
 0.103380E+001
 0.829931E+000
 0.941603E+000
 0.944329E+000
 0.947267E+000
 0.950440E+000
 0.953870E+000
 0.957584E+000
 0.961615E+000
 0.965995E+000
 0.970767E+000
 0.975973E+000
 0.981668E+000
 0.987909E+000
 0.994764E+000
 0.100231E+001
 0.101063E+001
 0.101982E+001
 0.103000E+001
 0.104127E+001
 0.105375E+001
 0.106758E+001
 0.108284E+001
 0.109960E+001
 0.111782E+001
 0.113721E+001
 0.115730E+001
 0.117646E+001
 0.119244E+001
 0.119909E+001
 0.118674E+001
 0.113337E+001
 0.100271E+001
 0.764787E+000
 0.941789E+000
 0.944512E+000
 0.947446E+000
 0.950612E+000
 0.954033E+000
 0.957735E+000
 0.961749E+000
 0.966109E+000
 0.970855E+000
 0.976030E+000
 0.981685E+000
 0.987878E+000
 0.994675E+000
 0.100215E+001
 0.101038E+001
 0.101946E+001
 0.102950E+001
 0.104060E+001
 0.105287E+001
 0.106643E+001
 0.108132E+001
 0.109766E+001
 0.111524E+001
 0.113395E+001
 0.115286E+001
 0.117079E+001
 0.118463E+001
 0.118867E+001
 0.117233E+001
 0.111253E+001
 0.970383E+000
 0.702073E+000
 0.941648E+000
 0.944351E+000
 0.947262E+000
 0.950400E+000
 0.953790E+000
 0.957456E+000
 0.961428E+000
 0.965741E+000
 0.970431E+000
 0.975542E+000
 0.981123E+000
 0.987229E+000
 0.993924E+000
 0.100128E+001
 0.100937E+001
 0.101829E+001
 0.102813E+001
 0.103898E+001
 0.105097E+001
 0.106416E+001
 0.107864E+001
 0.109438E+001
 0.111132E+001
 0.112907E+001
 0.114686E+001
 0.116326E+001
 0.117490E+001
 0.117635E+001
 0.115560E+001
 0.109000E+001
 0.936784E+000
 0.640258E+000
 0.941129E+000
 0.943792E+000
 0.946658E+000
 0.949748E+000
 0.953081E+000
 0.956686E+000
 0.960588E+000
 0.964822E+000
 0.969423E+000
 0.974435E+000
 0.979903E+000
 0.985881E+000
 0.992429E+000
 0.999615E+000
 0.100751E+001
 0.101621E+001
 0.102578E+001
 0.103633E+001
 0.104794E+001
 0.106069E+001
 0.107463E+001
 0.108972E+001
 0.110585E+001
 0.112256E+001
 0.113913E+001
 0.115376E+001
 0.116331E+001
 0.116179E+001
 0.113686E+001
 0.106562E+001
 0.902022E+000
 0.579839E+000
 0.940177E+000
 0.942779E+000
 0.945578E+000
 0.948592E+000
 0.951844E+000
 0.955357E+000
 0.959159E+000
 0.963281E+000
 0.967758E+000
 0.972630E+000
 0.977943E+000
 0.983747E+000
 0.990099E+000
 0.997061E+000
 0.100471E+001
 0.101311E+001
 0.102235E+001
 0.103251E+001
 0.104367E+001
 0.105589E+001
 0.106919E+001
 0.108354E+001
 0.109873E+001
 0.111434E+001
 0.112947E+001
 0.114232E+001
 0.114963E+001
 0.114503E+001
 0.111610E+001
 0.103935E+001
 0.866382E+000
 0.521276E+000
 0.938736E+000
 0.941253E+000
 0.943958E+000
 0.946871E+000
 0.950011E+000
 0.953402E+000
 0.957069E+000
 0.961042E+000
 0.965356E+000
 0.970047E+000
 0.975159E+000
 0.980739E+000
 0.986841E+000
 0.993524E+000
 0.100085E+001
 0.100890E+001
 0.101773E+001
 0.102743E+001
 0.103805E+001
 0.104965E+001
 0.106222E+001
 0.107570E+001
 0.108987E+001
 0.110424E+001
 0.111783E+001
 0.112881E+001
 0.113377E+001
 0.112609E+001
 0.109330E+001
 0.101128E+001
 0.830152E+000
 0.465247E+000
 0.936746E+000
 0.939151E+000
 0.941736E+000
 0.944517E+000
 0.947513E+000
 0.950747E+000
 0.954242E+000
 0.958028E+000
 0.962136E+000
 0.966600E+000
 0.971463E+000
 0.976766E+000
 0.982562E+000
 0.988904E+000
 0.995851E+000
 0.100347E+001
 0.101182E+001
 0.102097E+001
 0.103096E+001
 0.104184E+001
 0.105359E+001
 0.106610E+001
 0.107913E+001
 0.109215E+001
 0.110413E+001
 0.111315E+001
 0.111567E+001
 0.110495E+001
 0.106844E+001
 0.981507E+000
 0.793629E+000
 0.412674E+000
 0.934146E+000
 0.936412E+000
 0.938845E+000
 0.941462E+000
 0.944280E+000
 0.947320E+000
 0.950604E+000
 0.954160E+000
 0.958016E+000
 0.962206E+000
 0.966766E+000
 0.971737E+000
 0.977166E+000
 0.983102E+000
 0.989599E+000
 0.996713E+000
 0.100450E+001
 0.101302E+001
 0.102230E+001
 0.103237E+001
 0.104319E+001
 0.105463E+001
 0.106642E+001
 0.107799E+001
 0.108825E+001
 0.109524E+001
 0.109529E+001
 0.108161E+001
 0.104153E+001
 0.950196E+000
 0.757120E+000
 0.364828E+000
 0.930876E+000
 0.932972E+000
 0.935221E+000
 0.937639E+000
 0.940241E+000
 0.943047E+000
 0.946078E+000
 0.949359E+000
 0.952915E+000
 0.956778E+000
 0.960981E+000
 0.965561E+000
 0.970560E+000
 0.976023E+000
 0.981997E+000
 0.988532E+000
 0.995676E+000
 0.100347E+001
 0.101195E+001
 0.102111E+001
 0.103090E+001
 0.104118E+001
 0.105163E+001
 0.106166E+001
 0.107013E+001
 0.107503E+001
 0.107260E+001
 0.105605E+001
 0.101263E+001
 0.917513E+000
 0.720938E+000
 0.323439E+000
 0.926876E+000
 0.928769E+000
 0.930799E+000
 0.932980E+000
 0.935328E+000
 0.937858E+000
 0.940591E+000
 0.943548E+000
 0.946754E+000
 0.950235E+000
 0.954023E+000
 0.958150E+000
 0.962654E+000
 0.967572E+000
 0.972949E+000
 0.978825E+000
 0.985241E+000
 0.992229E+000
 0.999809E+000
 0.100797E+001
 0.101664E+001
 0.102565E+001
 0.103467E+001
 0.104307E+001
 0.104969E+001
 0.105246E+001
 0.104759E+001
 0.102828E+001
 0.981807E+000
 0.883639E+000
 0.685408E+000
 0.290727E+000
 0.922090E+000
 0.923745E+000
 0.925519E+000
 0.927425E+000
 0.929475E+000
 0.931686E+000
 0.934073E+000
 0.936657E+000
 0.939458E+000
 0.942502E+000
 0.945814E+000
 0.949423E+000
 0.953362E+000
 0.957665E+000
 0.962366E+000
 0.967502E+000
 0.973104E+000
 0.979197E+000
 0.985786E+000
 0.992847E+000
 0.100030E+001
 0.100795E+001
 0.101546E+001
 0.102216E+001
 0.102688E+001
 0.102750E+001
 0.102026E+001
 0.998344E+000
 0.949168E+000
 0.848765E+000
 0.650871E+000
 0.269136E+000
 0.916468E+000
 0.917848E+000
 0.919327E+000
 0.920916E+000
 0.922626E+000
 0.924470E+000
 0.926463E+000
 0.928621E+000
 0.930963E+000
 0.933509E+000
 0.936282E+000
 0.939308E+000
 0.942612E+000
 0.946223E+000
 0.950172E+000
 0.954485E+000
 0.959187E+000
 0.964292E+000
 0.969799E+000
 0.975670E+000
 0.981810E+000
 0.988022E+000
 0.993936E+000
 0.998879E+000
 0.100166E+001
 0.100015E+001
 0.990603E+000
 0.966284E+000
 0.914828E+000
 0.813091E+000
 0.617678E+000
 0.260546E+000
 0.909966E+000
 0.911034E+000
 0.912178E+000
 0.913408E+000
 0.914732E+000
 0.916161E+000
 0.917709E+000
 0.919387E+000
 0.921212E+000
 0.923201E+000
 0.925371E+000
 0.927744E+000
 0.930342E+000
 0.933186E+000
 0.936301E+000
 0.939707E+000
 0.943422E+000
 0.947452E+000
 0.951784E+000
 0.956373E+000
 0.961114E+000
 0.965800E+000
 0.970049E+000
 0.973182E+000
 0.973998E+000
 0.970394E+000
 0.958659E+000
 0.932174E+000
 0.878919E+000
 0.776823E+000
 0.586186E+000
 0.265219E+000
 0.902554E+000
 0.903271E+000
 0.904039E+000
 0.904865E+000
 0.905758E+000
 0.906724E+000
 0.907774E+000
 0.908918E+000
 0.910168E+000
 0.911537E+000
 0.913040E+000
 0.914691E+000
 0.916509E+000
 0.918509E+000
 0.920710E+000
 0.923126E+000
 0.925766E+000
 0.928630E+000
 0.931697E+000
 0.934916E+000
 0.938172E+000
 0.941254E+000
 0.943776E+000
 0.945059E+000
 0.943913E+000
 0.938264E+000
 0.924478E+000
 0.896106E+000
 0.841587E+000
 0.740174E+000
 0.556752E+000
 0.281432E+000
 0.894218E+000
 0.894543E+000
 0.894894E+000
 0.895273E+000
 0.895687E+000
 0.896141E+000
 0.896641E+000
 0.897195E+000
 0.897812E+000
 0.898499E+000
 0.899268E+000
 0.900129E+000
 0.901093E+000
 0.902172E+000
 0.903378E+000
 0.904719E+000
 0.906198E+000
 0.907807E+000
 0.909522E+000
 0.911283E+000
 0.912973E+000
 0.914379E+000
 0.915118E+000
 0.914521E+000
 0.911424E+000
 0.903804E+000
 0.888131E+000
 0.858189E+000
 0.802988E+000
 0.703361E+000
 0.529722E+000
 0.306282E+000
 0.884960E+000
 0.884855E+000
 0.884746E+000
 0.884635E+000
 0.884524E+000
 0.884417E+000
 0.884316E+000
 0.884225E+000
 0.884150E+000
 0.884094E+000
 0.884063E+000
 0.884064E+000
 0.884102E+000
 0.884184E+000
 0.884315E+000
 0.884497E+000
 0.884729E+000
 0.884997E+000
 0.885271E+000
 0.885489E+000
 0.885535E+000
 0.885198E+000
 0.884105E+000
 0.881609E+000
 0.876585E+000
 0.867084E+000
 0.849714E+000
 0.818552E+000
 0.763290E+000
 0.666608E+000
 0.505410E+000
 0.336803E+000
 0.874808E+000
 0.874235E+000
 0.873627E+000
 0.872982E+000
 0.872302E+000
 0.871585E+000
 0.870832E+000
 0.870044E+000
 0.869219E+000
 0.868360E+000
 0.867466E+000
 0.866539E+000
 0.865580E+000
 0.864589E+000
 0.863565E+000
 0.862507E+000
 0.861407E+000
 0.860248E+000
 0.858996E+000
 0.857589E+000
 0.855915E+000
 0.853770E+000
 0.850802E+000
 0.846395E+000
 0.839478E+000
 0.828199E+000
 0.809342E+000
 0.777337E+000
 0.722671E+000
 0.630142E+000
 0.484078E+000
 0.370569E+000
 0.863817E+000
 0.862740E+000
 0.861594E+000
 0.860376E+000
 0.859083E+000
 0.857712E+000
 0.856260E+000
 0.854722E+000
 0.853094E+000
 0.851374E+000
 0.849555E+000
 0.847636E+000
 0.845609E+000
 0.843472E+000
 0.841219E+000
 0.838840E+000
 0.836326E+000
 0.833654E+000
 0.830793E+000
 0.827680E+000
 0.824211E+000
 0.820198E+000
 0.815313E+000
 0.808986E+000
 0.800218E+000
 0.787276E+000
 0.767158E+000
 0.734706E+000
 0.681320E+000
 0.594195E+000
 0.465912E+000
 0.405790E+000
 0.852075E+000
 0.850460E+000
 0.848742E+000
 0.846914E+000
 0.844970E+000
 0.842903E+000
 0.840707E+000
 0.838373E+000
 0.835892E+000
 0.833256E+000
 0.830456E+000
 0.827482E+000
 0.824324E+000
 0.820972E+000
 0.817414E+000
 0.813639E+000
 0.809630E+000
 0.805365E+000
 0.800811E+000
 0.795912E+000
 0.790574E+000
 0.784630E+000
 0.777789E+000
 0.769534E+000
 0.758957E+000
 0.744473E+000
 0.723328E+000
 0.690839E+000
 0.639438E+000
 0.559003E+000
 0.450998E+000
 0.441188E+000
 0.839703E+000
 0.837523E+000
 0.835203E+000
 0.832733E+000
 0.830104E+000
 0.827306E+000
 0.824327E+000
 0.821155E+000
 0.817777E+000
 0.814178E+000
 0.810345E+000
 0.806261E+000
 0.801912E+000
 0.797281E+000
 0.792351E+000
 0.787106E+000
 0.781526E+000
 0.775588E+000
 0.769260E+000
 0.762496E+000
 0.755214E+000
 0.747276E+000
 0.738433E+000
 0.728238E+000
 0.715893E+000
 0.699983E+000
 0.678046E+000
 0.645938E+000
 0.597239E+000
 0.524806E+000
 0.439303E+000
 0.475848E+000
 0.826864E+000
 0.824097E+000
 0.821152E+000
 0.818015E+000
 0.814675E+000
 0.811117E+000
 0.807325E+000
 0.803281E+000
 0.798968E+000
 0.794367E+000
 0.789457E+000
 0.784216E+000
 0.778624E+000
 0.772657E+000
 0.766295E+000
 0.759514E+000
 0.752292E+000
 0.744606E+000
 0.736426E+000
 0.727716E+000
 0.718413E+000
 0.708411E+000
 0.697515E+000
 0.685359E+000
 0.671274E+000
 0.654045E+000
 0.631543E+000
 0.600229E+000
 0.554959E+000
 0.491852E+000
 0.430672E+000
 0.509099E+000
 0.813761E+000
 0.810392E+000
 0.806807E+000
 0.802988E+000
 0.798919E+000
 0.794581E+000
 0.789954E+000
 0.785016E+000
 0.779743E+000
 0.774110E+000
 0.768090E+000
 0.761656E+000
 0.754780E+000
 0.747433E+000
 0.739586E+000
 0.731213E+000
 0.722287E+000
 0.712783E+000
 0.702677E+000
 0.691941E+000
 0.680537E+000
 0.668396E+000
 0.655382E+000
 0.641228E+000
 0.625412E+000
 0.606950E+000
 0.584092E+000
 0.553975E+000
 0.512865E+000
 0.460393E+000
 0.424825E+000
 0.540440E+000
 0.800634E+000
 0.796661E+000
 0.792430E+000
 0.787924E+000
 0.783120E+000
 0.777996E+000
 0.772526E+000
 0.766682E+000
 0.760436E+000
 0.753756E+000
 0.746609E+000
 0.738961E+000
 0.730776E+000
 0.722017E+000
 0.712650E+000
 0.702642E+000
 0.691961E+000
 0.680580E+000
 0.668480E+000
 0.655644E+000
 0.642057E+000
 0.627691E+000
 0.612480E+000
 0.596268E+000
 0.578702E+000
 0.559063E+000
 0.536027E+000
 0.507487E+000
 0.471262E+000
 0.430695E+000
 0.421389E+000
 0.569484E+000
 0.787763E+000
 0.783193E+000
 0.778326E+000
 0.773140E+000
 0.767610E+000
 0.761707E+000
 0.755400E+000
 0.748658E+000
 0.741444E+000
 0.733720E+000
 0.725447E+000
 0.716582E+000
 0.707082E+000
 0.696902E+000
 0.686000E+000
 0.674333E+000
 0.661865E+000
 0.648566E+000
 0.634418E+000
 0.619415E+000
 0.603564E+000
 0.586882E+000
 0.569381E+000
 0.551023E+000
 0.531650E+000
 0.510844E+000
 0.487765E+000
 0.461149E+000
 0.430523E+000
 0.403039E+000
 0.419918E+000
 0.595926E+000
 0.775458E+000
 0.770313E+000
 0.764833E+000
 0.758991E+000
 0.752758E+000
 0.746101E+000
 0.738984E+000
 0.731369E+000
 0.723213E+000
 0.714471E+000
 0.705097E+000
 0.695039E+000
 0.684245E+000
 0.672661E+000
 0.660235E+000
 0.646916E+000
 0.632658E+000
 0.617426E+000
 0.601201E+000
 0.583982E+000
 0.565800E+000
 0.546714E+000
 0.526813E+000
 0.506195E+000
 0.484913E+000
 0.462894E+000
 0.439846E+000
 0.415458E+000
 0.391113E+000
 0.377722E+000
 0.419937E+000
 0.619523E+000
 0.764050E+000
 0.758366E+000
 0.752312E+000
 0.745857E+000
 0.738965E+000
 0.731599E+000
 0.723719E+000
 0.715280E+000
 0.706233E+000
 0.696526E+000
 0.686104E+000
 0.674908E+000
 0.662875E+000
 0.649941E+000
 0.636042E+000
 0.621115E+000
 0.605105E+000
 0.587967E+000
 0.569675E+000
 0.550232E+000
 0.529680E+000
 0.508120E+000
 0.485716E+000
 0.462701E+000
 0.439367E+000
 0.416021E+000
 0.393004E+000
 0.371083E+000
 0.353643E+000
 0.355063E+000
 0.420971E+000
 0.640078E+000
 0.753875E+000
 0.747707E+000
 0.741137E+000
 0.734127E+000
 0.726640E+000
 0.718634E+000
 0.710062E+000
 0.700875E+000
 0.691017E+000
 0.680429E+000
 0.669048E+000
 0.656805E+000
 0.643628E+000
 0.629441E+000
 0.614169E+000
 0.597734E+000
 0.580067E+000
 0.561110E+000
 0.540826E+000
 0.519210E+000
 0.496314E+000
 0.472261E+000
 0.447284E+000
 0.421750E+000
 0.396193E+000
 0.371347E+000
 0.348273E+000
 0.328968E+000
 0.318931E+000
 0.335402E+000
 0.422573E+000
 0.657431E+000
 0.745261E+000
 0.738680E+000
 0.731668E+000
 0.724185E+000
 0.716188E+000
 0.707632E+000
 0.698466E+000
 0.688633E+000
 0.678075E+000
 0.666724E+000
 0.654509E+000
 0.641354E+000
 0.627175E+000
 0.611887E+000
 0.595398E+000
 0.577620E+000
 0.558465E+000
 0.537859E+000
 0.515747E+000
 0.492112E+000
 0.466998E+000
 0.440541E+000
 0.413019E+000
 0.384913E+000
 0.356995E+000
 0.330451E+000
 0.307150E+000
 0.290476E+000
 0.288078E+000
 0.319090E+000
 0.424351E+000
 0.671459E+000
 0.738504E+000
 0.731598E+000
 0.724236E+000
 0.716378E+000
 0.707977E+000
 0.698985E+000
 0.689345E+000
 0.678999E+000
 0.667881E+000
 0.655919E+000
 0.643036E+000
 0.629145E+000
 0.614157E+000
 0.597973E+000
 0.580492E+000
 0.561609E+000
 0.541223E+000
 0.519238E+000
 0.495581E+000
 0.470215E+000
 0.443166E+000
 0.414565E+000
 0.384710E+000
 0.354163E+000
 0.323898E+000
 0.295536E+000
 0.271803E+000
 0.257576E+000
 0.262522E+000
 0.306472E+000
 0.425978E+000
 0.682062E+000
 0.733852E+000
 0.726719E+000
 0.719116E+000
 0.710997E+000
 0.702316E+000
 0.693020E+000
 0.683051E+000
 0.672347E+000
 0.660838E+000
 0.648449E+000
 0.635096E+000
 0.620689E+000
 0.605129E+000
 0.588311E+000
 0.570124E+000
 0.550452E+000
 0.529178E+000
 0.506193E+000
 0.481405E+000
 0.454754E+000
 0.426247E+000
 0.395998E+000
 0.364304E+000
 0.331765E+000
 0.299494E+000
 0.269465E+000
 0.245183E+000
 0.232928E+000
 0.243981E+000
 0.297857E+000
 0.427204E+000
 0.689169E+000
 0.731479E+000
 0.724231E+000
 0.716504E+000
 0.708252E+000
 0.699427E+000
 0.689975E+000
 0.679838E+000
 0.668949E+000
 0.657240E+000
 0.644630E+000
 0.631035E+000
 0.616360E+000
 0.600505E+000
 0.583358E+000
 0.564803E+000
 0.544718E+000
 0.522978E+000
 0.499466E+000
 0.474076E+000
 0.446737E+000
 0.417441E+000
 0.386286E+000
 0.353561E+000
 0.319878E+000
 0.286413E+000
 0.255340E+000
 0.230646E+000
 0.219521E+000
 0.234155E+000
 0.293485E+000
 0.427859E+000
 0.692735E+000
 0.731479E+000
 0.724231E+000
 0.716504E+000
 0.708252E+000
 0.699427E+000
 0.689975E+000
 0.679838E+000
 0.668949E+000
 0.657240E+000
 0.644630E+000
 0.631035E+000
 0.616360E+000
 0.600505E+000
 0.583358E+000
 0.564803E+000
 0.544718E+000
 0.522978E+000
 0.499466E+000
 0.474076E+000
 0.446737E+000
 0.417441E+000
 0.386286E+000
 0.353561E+000
 0.319878E+000
 0.286413E+000
 0.255340E+000
 0.230646E+000
 0.219521E+000
 0.234155E+000
 0.293485E+000
 0.427859E+000
 0.692735E+000
 0.733852E+000
 0.726719E+000
 0.719116E+000
 0.710997E+000
 0.702316E+000
 0.693020E+000
 0.683051E+000
 0.672347E+000
 0.660838E+000
 0.648449E+000
 0.635096E+000
 0.620689E+000
 0.605129E+000
 0.588311E+000
 0.570124E+000
 0.550452E+000
 0.529178E+000
 0.506193E+000
 0.481405E+000
 0.454754E+000
 0.426247E+000
 0.395998E+000
 0.364304E+000
 0.331765E+000
 0.299494E+000
 0.269465E+000
 0.245183E+000
 0.232928E+000
 0.243981E+000
 0.297857E+000
 0.427204E+000
 0.689169E+000
 0.738504E+000
 0.731598E+000
 0.724236E+000
 0.716378E+000
 0.707977E+000
 0.698985E+000
 0.689345E+000
 0.678999E+000
 0.667881E+000
 0.655919E+000
 0.643036E+000
 0.629145E+000
 0.614157E+000
 0.597973E+000
 0.580492E+000
 0.561609E+000
 0.541223E+000
 0.519238E+000
 0.495581E+000
 0.470215E+000
 0.443166E+000
 0.414565E+000
 0.384710E+000
 0.354163E+000
 0.323898E+000
 0.295536E+000
 0.271803E+000
 0.257576E+000
 0.262522E+000
 0.306472E+000
 0.425978E+000
 0.682062E+000
 0.745261E+000
 0.738680E+000
 0.731668E+000
 0.724185E+000
 0.716188E+000
 0.707632E+000
 0.698466E+000
 0.688633E+000
 0.678075E+000
 0.666724E+000
 0.654509E+000
 0.641354E+000
 0.627175E+000
 0.611887E+000
 0.595398E+000
 0.577620E+000
 0.558465E+000
 0.537859E+000
 0.515747E+000
 0.492112E+000
 0.466998E+000
 0.440541E+000
 0.413019E+000
 0.384913E+000
 0.356995E+000
 0.330451E+000
 0.307150E+000
 0.290476E+000
 0.288078E+000
 0.319090E+000
 0.424351E+000
 0.671459E+000
 0.753875E+000
 0.747707E+000
 0.741137E+000
 0.734127E+000
 0.726640E+000
 0.718634E+000
 0.710062E+000
 0.700875E+000
 0.691017E+000
 0.680429E+000
 0.669048E+000
 0.656805E+000
 0.643628E+000
 0.629441E+000
 0.614169E+000
 0.597734E+000
 0.580067E+000
 0.561110E+000
 0.540826E+000
 0.519210E+000
 0.496314E+000
 0.472261E+000
 0.447284E+000
 0.421750E+000
 0.396193E+000
 0.371347E+000
 0.348273E+000
 0.328968E+000
 0.318931E+000
 0.335402E+000
 0.422573E+000
 0.657431E+000
 0.764050E+000
 0.758366E+000
 0.752312E+000
 0.745857E+000
 0.738965E+000
 0.731599E+000
 0.723719E+000
 0.715280E+000
 0.706233E+000
 0.696526E+000
 0.686104E+000
 0.674908E+000
 0.662875E+000
 0.649941E+000
 0.636042E+000
 0.621115E+000
 0.605105E+000
 0.587967E+000
 0.569675E+000
 0.550232E+000
 0.529680E+000
 0.508120E+000
 0.485716E+000
 0.462701E+000
 0.439367E+000
 0.416021E+000
 0.393004E+000
 0.371083E+000
 0.353643E+000
 0.355063E+000
 0.420971E+000
 0.640078E+000
 0.775458E+000
 0.770313E+000
 0.764833E+000
 0.758991E+000
 0.752758E+000
 0.746101E+000
 0.738984E+000
 0.731369E+000
 0.723213E+000
 0.714471E+000
 0.705097E+000
 0.695039E+000
 0.684245E+000
 0.672661E+000
 0.660235E+000
 0.646916E+000
 0.632658E+000
 0.617426E+000
 0.601201E+000
 0.583982E+000
 0.565800E+000
 0.546714E+000
 0.526813E+000
 0.506195E+000
 0.484913E+000
 0.462894E+000
 0.439846E+000
 0.415458E+000
 0.391113E+000
 0.377722E+000
 0.419937E+000
 0.619523E+000
 0.787763E+000
 0.783193E+000
 0.778326E+000
 0.773140E+000
 0.767610E+000
 0.761707E+000
 0.755400E+000
 0.748658E+000
 0.741444E+000
 0.733720E+000
 0.725447E+000
 0.716582E+000
 0.707082E+000
 0.696902E+000
 0.686000E+000
 0.674333E+000
 0.661865E+000
 0.648566E+000
 0.634418E+000
 0.619415E+000
 0.603564E+000
 0.586882E+000
 0.569381E+000
 0.551023E+000
 0.531650E+000
 0.510844E+000
 0.487765E+000
 0.461149E+000
 0.430523E+000
 0.403039E+000
 0.419918E+000
 0.595926E+000
 0.800634E+000
 0.796661E+000
 0.792430E+000
 0.787924E+000
 0.783120E+000
 0.777996E+000
 0.772526E+000
 0.766682E+000
 0.760436E+000
 0.753756E+000
 0.746609E+000
 0.738961E+000
 0.730776E+000
 0.722017E+000
 0.712650E+000
 0.702642E+000
 0.691961E+000
 0.680580E+000
 0.668480E+000
 0.655644E+000
 0.642057E+000
 0.627691E+000
 0.612480E+000
 0.596268E+000
 0.578702E+000
 0.559063E+000
 0.536027E+000
 0.507487E+000
 0.471262E+000
 0.430695E+000
 0.421389E+000
 0.569484E+000
 0.813761E+000
 0.810392E+000
 0.806807E+000
 0.802988E+000
 0.798919E+000
 0.794581E+000
 0.789954E+000
 0.785016E+000
 0.779743E+000
 0.774110E+000
 0.768090E+000
 0.761656E+000
 0.754780E+000
 0.747433E+000
 0.739586E+000
 0.731213E+000
 0.722287E+000
 0.712783E+000
 0.702677E+000
 0.691941E+000
 0.680537E+000
 0.668396E+000
 0.655382E+000
 0.641228E+000
 0.625412E+000
 0.606950E+000
 0.584092E+000
 0.553975E+000
 0.512865E+000
 0.460393E+000
 0.424825E+000
 0.540440E+000
 0.826864E+000
 0.824097E+000
 0.821152E+000
 0.818015E+000
 0.814675E+000
 0.811117E+000
 0.807325E+000
 0.803281E+000
 0.798968E+000
 0.794367E+000
 0.789457E+000
 0.784216E+000
 0.778624E+000
 0.772657E+000
 0.766295E+000
 0.759514E+000
 0.752292E+000
 0.744606E+000
 0.736426E+000
 0.727716E+000
 0.718413E+000
 0.708411E+000
 0.697515E+000
 0.685359E+000
 0.671274E+000
 0.654045E+000
 0.631543E+000
 0.600229E+000
 0.554959E+000
 0.491852E+000
 0.430672E+000
 0.509099E+000
 0.839703E+000
 0.837523E+000
 0.835203E+000
 0.832733E+000
 0.830104E+000
 0.827306E+000
 0.824327E+000
 0.821155E+000
 0.817777E+000
 0.814178E+000
 0.810345E+000
 0.806261E+000
 0.801912E+000
 0.797281E+000
 0.792351E+000
 0.787106E+000
 0.781526E+000
 0.775588E+000
 0.769260E+000
 0.762496E+000
 0.755214E+000
 0.747276E+000
 0.738433E+000
 0.728238E+000
 0.715893E+000
 0.699983E+000
 0.678046E+000
 0.645938E+000
 0.597239E+000
 0.524806E+000
 0.439303E+000
 0.475848E+000
 0.852075E+000
 0.850460E+000
 0.848742E+000
 0.846914E+000
 0.844970E+000
 0.842903E+000
 0.840707E+000
 0.838373E+000
 0.835892E+000
 0.833256E+000
 0.830456E+000
 0.827482E+000
 0.824324E+000
 0.820972E+000
 0.817414E+000
 0.813639E+000
 0.809630E+000
 0.805365E+000
 0.800811E+000
 0.795912E+000
 0.790574E+000
 0.784630E+000
 0.777789E+000
 0.769534E+000
 0.758957E+000
 0.744473E+000
 0.723328E+000
 0.690839E+000
 0.639438E+000
 0.559003E+000
 0.450998E+000
 0.441188E+000
 0.863817E+000
 0.862740E+000
 0.861594E+000
 0.860376E+000
 0.859083E+000
 0.857712E+000
 0.856260E+000
 0.854722E+000
 0.853094E+000
 0.851374E+000
 0.849555E+000
 0.847636E+000
 0.845609E+000
 0.843472E+000
 0.841219E+000
 0.838840E+000
 0.836326E+000
 0.833654E+000
 0.830793E+000
 0.827680E+000
 0.824211E+000
 0.820198E+000
 0.815313E+000
 0.808986E+000
 0.800218E+000
 0.787276E+000
 0.767158E+000
 0.734706E+000
 0.681320E+000
 0.594195E+000
 0.465912E+000
 0.405790E+000
 0.874808E+000
 0.874235E+000
 0.873627E+000
 0.872982E+000
 0.872302E+000
 0.871585E+000
 0.870832E+000
 0.870044E+000
 0.869219E+000
 0.868360E+000
 0.867466E+000
 0.866539E+000
 0.865580E+000
 0.864589E+000
 0.863565E+000
 0.862507E+000
 0.861407E+000
 0.860248E+000
 0.858996E+000
 0.857589E+000
 0.855915E+000
 0.853770E+000
 0.850802E+000
 0.846395E+000
 0.839478E+000
 0.828199E+000
 0.809342E+000
 0.777337E+000
 0.722671E+000
 0.630142E+000
 0.484078E+000
 0.370569E+000
 0.884960E+000
 0.884855E+000
 0.884746E+000
 0.884635E+000
 0.884524E+000
 0.884417E+000
 0.884316E+000
 0.884225E+000
 0.884150E+000
 0.884094E+000
 0.884063E+000
 0.884064E+000
 0.884102E+000
 0.884184E+000
 0.884315E+000
 0.884497E+000
 0.884729E+000
 0.884997E+000
 0.885271E+000
 0.885489E+000
 0.885535E+000
 0.885198E+000
 0.884105E+000
 0.881609E+000
 0.876585E+000
 0.867084E+000
 0.849714E+000
 0.818552E+000
 0.763290E+000
 0.666608E+000
 0.505410E+000
 0.336803E+000
 0.894218E+000
 0.894543E+000
 0.894894E+000
 0.895273E+000
 0.895687E+000
 0.896141E+000
 0.896641E+000
 0.897195E+000
 0.897812E+000
 0.898499E+000
 0.899268E+000
 0.900129E+000
 0.901093E+000
 0.902172E+000
 0.903378E+000
 0.904719E+000
 0.906198E+000
 0.907807E+000
 0.909522E+000
 0.911283E+000
 0.912973E+000
 0.914379E+000
 0.915118E+000
 0.914521E+000
 0.911424E+000
 0.903804E+000
 0.888131E+000
 0.858189E+000
 0.802988E+000
 0.703361E+000
 0.529722E+000
 0.306282E+000
 0.902554E+000
 0.903271E+000
 0.904039E+000
 0.904865E+000
 0.905758E+000
 0.906724E+000
 0.907774E+000
 0.908918E+000
 0.910168E+000
 0.911537E+000
 0.913040E+000
 0.914691E+000
 0.916509E+000
 0.918509E+000
 0.920710E+000
 0.923126E+000
 0.925766E+000
 0.928630E+000
 0.931697E+000
 0.934916E+000
 0.938172E+000
 0.941254E+000
 0.943776E+000
 0.945059E+000
 0.943913E+000
 0.938264E+000
 0.924478E+000
 0.896106E+000
 0.841587E+000
 0.740174E+000
 0.556752E+000
 0.281432E+000
 0.909966E+000
 0.911034E+000
 0.912178E+000
 0.913408E+000
 0.914732E+000
 0.916161E+000
 0.917709E+000
 0.919387E+000
 0.921212E+000
 0.923201E+000
 0.925371E+000
 0.927744E+000
 0.930342E+000
 0.933186E+000
 0.936301E+000
 0.939707E+000
 0.943422E+000
 0.947452E+000
 0.951784E+000
 0.956373E+000
 0.961114E+000
 0.965800E+000
 0.970049E+000
 0.973182E+000
 0.973998E+000
 0.970394E+000
 0.958659E+000
 0.932174E+000
 0.878919E+000
 0.776823E+000
 0.586186E+000
 0.265219E+000
 0.916468E+000
 0.917848E+000
 0.919327E+000
 0.920916E+000
 0.922626E+000
 0.924470E+000
 0.926463E+000
 0.928621E+000
 0.930963E+000
 0.933509E+000
 0.936282E+000
 0.939308E+000
 0.942612E+000
 0.946223E+000
 0.950172E+000
 0.954485E+000
 0.959187E+000
 0.964292E+000
 0.969799E+000
 0.975670E+000
 0.981810E+000
 0.988022E+000
 0.993936E+000
 0.998879E+000
 0.100166E+001
 0.100015E+001
 0.990603E+000
 0.966284E+000
 0.914828E+000
 0.813091E+000
 0.617678E+000
 0.260546E+000
 0.922090E+000
 0.923745E+000
 0.925519E+000
 0.927425E+000
 0.929475E+000
 0.931686E+000
 0.934073E+000
 0.936657E+000
 0.939458E+000
 0.942502E+000
 0.945814E+000
 0.949423E+000
 0.953362E+000
 0.957665E+000
 0.962366E+000
 0.967502E+000
 0.973104E+000
 0.979197E+000
 0.985786E+000
 0.992847E+000
 0.100030E+001
 0.100795E+001
 0.101546E+001
 0.102216E+001
 0.102688E+001
 0.102750E+001
 0.102026E+001
 0.998344E+000
 0.949168E+000
 0.848765E+000
 0.650871E+000
 0.269136E+000
 0.926876E+000
 0.928769E+000
 0.930799E+000
 0.932980E+000
 0.935328E+000
 0.937858E+000
 0.940591E+000
 0.943548E+000
 0.946754E+000
 0.950235E+000
 0.954023E+000
 0.958150E+000
 0.962654E+000
 0.967572E+000
 0.972949E+000
 0.978825E+000
 0.985241E+000
 0.992229E+000
 0.999809E+000
 0.100797E+001
 0.101664E+001
 0.102565E+001
 0.103467E+001
 0.104307E+001
 0.104969E+001
 0.105246E+001
 0.104759E+001
 0.102828E+001
 0.981807E+000
 0.883639E+000
 0.685408E+000
 0.290727E+000
 0.930876E+000
 0.932972E+000
 0.935221E+000
 0.937639E+000
 0.940241E+000
 0.943047E+000
 0.946078E+000
 0.949359E+000
 0.952915E+000
 0.956778E+000
 0.960981E+000
 0.965561E+000
 0.970560E+000
 0.976023E+000
 0.981997E+000
 0.988532E+000
 0.995676E+000
 0.100347E+001
 0.101195E+001
 0.102111E+001
 0.103090E+001
 0.104118E+001
 0.105163E+001
 0.106166E+001
 0.107013E+001
 0.107503E+001
 0.107260E+001
 0.105605E+001
 0.101263E+001
 0.917513E+000
 0.720938E+000
 0.323439E+000
 0.934146E+000
 0.936412E+000
 0.938845E+000
 0.941462E+000
 0.944280E+000
 0.947320E+000
 0.950604E+000
 0.954160E+000
 0.958016E+000
 0.962206E+000
 0.966766E+000
 0.971737E+000
 0.977166E+000
 0.983102E+000
 0.989599E+000
 0.996713E+000
 0.100450E+001
 0.101302E+001
 0.102230E+001
 0.103237E+001
 0.104319E+001
 0.105463E+001
 0.106642E+001
 0.107799E+001
 0.108825E+001
 0.109524E+001
 0.109529E+001
 0.108161E+001
 0.104153E+001
 0.950196E+000
 0.757120E+000
 0.364828E+000
 0.936746E+000
 0.939151E+000
 0.941736E+000
 0.944517E+000
 0.947513E+000
 0.950747E+000
 0.954242E+000
 0.958028E+000
 0.962136E+000
 0.966600E+000
 0.971463E+000
 0.976766E+000
 0.982562E+000
 0.988904E+000
 0.995851E+000
 0.100347E+001
 0.101182E+001
 0.102097E+001
 0.103096E+001
 0.104184E+001
 0.105359E+001
 0.106610E+001
 0.107913E+001
 0.109215E+001
 0.110413E+001
 0.111315E+001
 0.111567E+001
 0.110495E+001
 0.106844E+001
 0.981507E+000
 0.793629E+000
 0.412674E+000
 0.938736E+000
 0.941253E+000
 0.943958E+000
 0.946871E+000
 0.950011E+000
 0.953402E+000
 0.957069E+000
 0.961042E+000
 0.965356E+000
 0.970047E+000
 0.975159E+000
 0.980739E+000
 0.986841E+000
 0.993524E+000
 0.100085E+001
 0.100890E+001
 0.101773E+001
 0.102743E+001
 0.103805E+001
 0.104965E+001
 0.106222E+001
 0.107570E+001
 0.108987E+001
 0.110424E+001
 0.111783E+001
 0.112881E+001
 0.113377E+001
 0.112609E+001
 0.109330E+001
 0.101128E+001
 0.830152E+000
 0.465247E+000
 0.940177E+000
 0.942779E+000
 0.945578E+000
 0.948592E+000
 0.951844E+000
 0.955357E+000
 0.959159E+000
 0.963281E+000
 0.967758E+000
 0.972630E+000
 0.977943E+000
 0.983747E+000
 0.990099E+000
 0.997061E+000
 0.100471E+001
 0.101311E+001
 0.102235E+001
 0.103251E+001
 0.104367E+001
 0.105589E+001
 0.106919E+001
 0.108354E+001
 0.109873E+001
 0.111434E+001
 0.112947E+001
 0.114232E+001
 0.114963E+001
 0.114503E+001
 0.111610E+001
 0.103935E+001
 0.866382E+000
 0.521276E+000
 0.941129E+000
 0.943792E+000
 0.946658E+000
 0.949748E+000
 0.953081E+000
 0.956686E+000
 0.960588E+000
 0.964822E+000
 0.969423E+000
 0.974435E+000
 0.979903E+000
 0.985881E+000
 0.992429E+000
 0.999615E+000
 0.100751E+001
 0.101621E+001
 0.102578E+001
 0.103633E+001
 0.104794E+001
 0.106069E+001
 0.107463E+001
 0.108972E+001
 0.110585E+001
 0.112256E+001
 0.113913E+001
 0.115376E+001
 0.116331E+001
 0.116179E+001
 0.113686E+001
 0.106562E+001
 0.902022E+000
 0.579839E+000
 0.941648E+000
 0.944351E+000
 0.947262E+000
 0.950400E+000
 0.953790E+000
 0.957456E+000
 0.961428E+000
 0.965741E+000
 0.970431E+000
 0.975542E+000
 0.981123E+000
 0.987229E+000
 0.993924E+000
 0.100128E+001
 0.100937E+001
 0.101829E+001
 0.102813E+001
 0.103898E+001
 0.105097E+001
 0.106416E+001
 0.107864E+001
 0.109438E+001
 0.111132E+001
 0.112907E+001
 0.114686E+001
 0.116326E+001
 0.117490E+001
 0.117635E+001
 0.115560E+001
 0.109000E+001
 0.936784E+000
 0.640258E+000
 0.941789E+000
 0.944512E+000
 0.947446E+000
 0.950612E+000
 0.954033E+000
 0.957735E+000
 0.961749E+000
 0.966109E+000
 0.970855E+000
 0.976030E+000
 0.981685E+000
 0.987878E+000
 0.994675E+000
 0.100215E+001
 0.101038E+001
 0.101946E+001
 0.102950E+001
 0.104060E+001
 0.105287E+001
 0.106643E+001
 0.108132E+001
 0.109766E+001
 0.111524E+001
 0.113395E+001
 0.115286E+001
 0.117079E+001
 0.118463E+001
 0.118867E+001
 0.117233E+001
 0.111253E+001
 0.970383E+000
 0.702073E+000
 0.941603E+000
 0.944329E+000
 0.947267E+000
 0.950440E+000
 0.953870E+000
 0.957584E+000
 0.961615E+000
 0.965995E+000
 0.970767E+000
 0.975973E+000
 0.981668E+000
 0.987909E+000
 0.994764E+000
 0.100231E+001
 0.101063E+001
 0.101982E+001
 0.103000E+001
 0.104127E+001
 0.105375E+001
 0.106758E+001
 0.108284E+001
 0.109960E+001
 0.111782E+001
 0.113721E+001
 0.115730E+001
 0.117646E+001
 0.119244E+001
 0.119909E+001
 0.118674E+001
 0.113337E+001
 0.100271E+001
 0.764787E+000
 0.941139E+000
 0.943852E+000
 0.946777E+000
 0.949937E+000
 0.953356E+000
 0.957062E+000
 0.961086E+000
 0.965463E+000
 0.970233E+000
 0.975442E+000
 0.981143E+000
 0.987397E+000
 0.994273E+000
 0.100185E+001
 0.101021E+001
 0.101946E+001
 0.102972E+001
 0.104109E+001
 0.105373E+001
 0.106774E+001
 0.108327E+001
 0.110037E+001
 0.111908E+001
 0.113913E+001
 0.116010E+001
 0.118059E+001
 0.119826E+001
 0.120769E+001
 0.119911E+001
 0.115200E+001
 0.103380E+001
 0.829931E+000
